LAMMPS data file via write_data, version 4 Jul 2026, timestep = 0, units = real

585 atoms
11 atom types
615 bonds
18 bond types
1090 angles
35 angle types
1460 dihedrals
48 dihedral types
540 impropers
30 improper types

1.3609250958043724 19.792853914195916 xlo xhi
1.3609250958043724 19.792853914195916 ylo yhi
1.3609250958043724 19.792853914195916 zlo zhi

Masses

1 12.01115
2 12.01115
3 12.01115
4 12.01115
5 1.00797
6 1.00797
7 1.00797
8 14.0067
9 15.9994
10 15.9994
11 15.9994

Pair Coeffs # lj/class2/coul/long

1 0.054 4.01
2 0.054 4.01
3 0.054 4.01
4 0.064 4.01
5 0.02 2.995
6 0.013 1.098
7 0.013 1.098
8 0.065 4.07
9 0.24 3.535
10 0.24 3.535
11 0.24 3.535

Bond Coeffs # class2

1 1.53 299.67 -501.77 679.81
2 1.53 299.67 -501.77 679.81
3 1.53 299.67 -501.77 679.81
4 1.501 321.902 -521.821 572.163
5 1.101 345 -691.89 844.6
6 1.457 365.805 -699.637 998.484
7 1.42 400.395 -835.195 1313.01
8 1.42 400.395 -835.195 1313.01
9 1.101 345 -691.89 844.6
10 1.42 400.395 -835.195 1313.01
11 1.101 345 -691.89 844.6
12 1.42 400.395 -835.195 1313.01
13 1.417 470.836 -627.618 1327.63
14 1.0982 372.825 -803.453 894.317
15 1.412 257.775 0 0
16 1.3768 428.88 -738.235 1114.97
17 1.006 466.74 -1073.6 1251.11
18 0.965 532.506 -1282.9 2004.77

Angle Coeffs # class2

1 108.4 43.9594 -8.3924 -9.3379
2 110.77 41.453 -10.604 5.129
3 112.67 39.516 -7.443 -9.5583
4 110.77 41.453 -10.604 5.129
5 111.27 54.5381 -8.3642 -13.0838
6 112.67 39.516 -7.443 -9.5583
7 110.77 41.453 -10.604 5.129
8 111.27 54.5381 -8.3642 -13.0838
9 120.05 44.7148 -22.7352 0
10 112.444 47.2337 -10.6612 -10.2062
11 109 80 0 0
12 110.954 50.8652 -4.4522 -10.0298
13 104.5 35.7454 -10.0067 -6.2729
14 102.969 38.9739 -6.2595 -8.171
15 110.77 41.453 -10.604 5.129
16 111.91 60.7147 -13.3366 -13.0785
17 111.27 54.5381 -8.3642 -13.0838
18 105.8 52.7061 -12.109 -9.8681
19 110.77 41.453 -10.604 5.129
20 111.27 54.5381 -8.3642 -13.0838
21 111.27 54.5381 -8.3642 -13.0838
22 111 44.3234 -9.4454 0
23 111 44.3234 -9.4454 0
24 118.9 61.0226 -34.9931 0
25 117.94 35.1558 -12.4682 0
26 120 102 0 0
27 123.42 73.6781 -21.6787 0
28 110 41.6 0 0
29 107.66 39.641 -12.921 -2.4318
30 110.62 51.3137 -6.7198 -2.6003
31 108.728 58.5446 -10.8088 -12.4006
32 108.728 58.5446 -10.8088 -12.4006
33 108.728 58.5446 -10.8088 -12.4006
34 108.728 58.5446 -10.8088 -12.4006
35 107.067 45.252 -7.5558 -9.512

BondBond Coeffs

1 0 1.53 1.501
2 3.3872 1.53 1.101
3 0 1.53 1.53
4 3.3872 1.53 1.101
5 11.4318 1.53 1.42
6 0 1.53 1.53
7 3.3872 1.53 1.101
8 11.4318 1.53 1.42
9 12.0676 1.501 1.417
10 -2.1113 1.457 1.457
11 0 1.457 1.412
12 -6.4168 1.457 1.006
13 -7.1131 1.42 1.42
14 0 1.42 1.3768
15 3.3872 1.53 1.101
16 4.6217 1.53 1.457
17 11.4318 1.53 1.42
18 -9.6879 1.42 0.965
19 3.3872 1.53 1.101
20 11.4318 1.53 1.42
21 11.4318 1.53 1.42
22 0 1.501 1.501
23 2.9168 1.501 1.101
24 68.2856 1.417 1.417
25 1.0795 1.417 1.0982
26 0 1.417 1.412
27 48.4754 1.417 1.3768
28 0 1.412 1.006
29 5.3316 1.101 1.101
30 12.426 1.101 1.457
31 23.1979 1.101 1.42
32 23.1979 1.101 1.42
33 23.1979 1.101 1.42
34 23.1979 1.101 1.42
35 -1.8749 1.006 1.006

BondAngle Coeffs

1 0 0 1.53 1.501
2 20.754 11.421 1.53 1.101
3 8.016 8.016 1.53 1.53
4 20.754 11.421 1.53 1.101
5 2.6868 20.4033 1.53 1.42
6 8.016 8.016 1.53 1.53
7 20.754 11.421 1.53 1.101
8 2.6868 20.4033 1.53 1.42
9 47.0579 31.0771 1.501 1.417
10 -7.2229 -7.2229 1.457 1.457
11 0 0 1.457 1.412
12 31.8096 20.5799 1.457 1.006
13 -2.8112 -2.8112 1.42 1.42
14 0 0 1.42 1.3768
15 20.754 11.421 1.53 1.101
16 6.0876 16.5702 1.53 1.457
17 2.6868 20.4033 1.53 1.42
18 28.58 18.9277 1.42 0.965
19 20.754 11.421 1.53 1.101
20 2.6868 20.4033 1.53 1.42
21 2.6868 20.4033 1.53 1.42
22 0 0 1.501 1.501
23 26.4608 11.7717 1.501 1.101
24 28.8708 28.8708 1.417 1.417
25 20.0033 24.2183 1.417 1.0982
26 0 0 1.417 1.412
27 58.479 107.681 1.417 1.3768
28 0 0 1.412 1.006
29 18.103 18.103 1.101 1.101
30 13.4582 42.4332 1.101 1.457
31 4.6189 55.327 1.101 1.42
32 4.6189 55.327 1.101 1.42
33 4.6189 55.327 1.101 1.42
34 4.6189 55.327 1.101 1.42
35 28.0322 28.0322 1.006 1.006

Dihedral Coeffs # class2

1 -0.2802 0 -0.0678 0 -0.0122 0
2 0 0 0.0316 0 -0.1681 0
3 0.1764 0 0.1766 0 -0.5206 0
4 0.7137 0 0.266 0 -0.2545 0
5 -0.6732 0 -0.4778 0 -0.167 0
6 0 0 0.0316 0 -0.1681 0
7 0.7137 0 0.266 0 -0.2545 0
8 0.7137 0 0.266 0 -0.2545 0
9 -0.5203 0 -0.3028 0 -0.345 0
10 0 0 4.4072 0 0 0
11 0 0 1.559 0 0 0
12 0 0 3 0 0 0
13 -0.1406 0 0.4168 0 0.015 0
14 0.1904 0 -0.1342 0 -0.246 0
15 0 0 2.25 0 0 0
16 0.5302 0 0 0 -0.3966 0
17 0 0 1.5 0 0 0
18 0 0 0 0 0.05 180
19 -1.1506 0 -0.6344 0 -0.1845 0
20 0 0 0 0 0.13 180
21 0 0 0 0 0.13 180
22 0.5302 0 0 0 -0.3966 0
23 -0.0228 0 0.028 0 -0.1863 0
24 -0.2802 0 -0.0678 0 -0.0122 0
25 -0.2801 0 -0.0678 0 -0.0122 0
26 8.3667 0 1.1932 0 0 0
27 0 0 3.9661 0 0 0
28 0 0 3 0 0 0
29 0 0 4.8498 0 0 0
30 0 0 2.25 0 0 0
31 0 0 0 0 0.05 180
32 0.9513 0 0.1155 0 0.072 0
33 -0.1432 0 0.0617 0 -0.1083 0
34 -0.1432 0 0.0617 0 -0.1083 0
35 -0.1435 0 0.253 0 -0.0905 0
36 -0.1432 0 0.0617 0 -0.1083 0
37 -0.1435 0 0.253 0 -0.0905 0
38 -0.5187 0 -0.4837 0 -0.1692 0
39 -0.2428 0 0.4065 0 -0.3079 0
40 -0.1435 0 0.253 0 -0.0905 0
41 0.1863 0 -0.4338 0 -0.2121 0
42 -0.1435 0 0.253 0 -0.0905 0
43 -0.1435 0 0.253 0 -0.0905 0
44 0 0 1.8769 0 0 0
45 0 0 1.7234 0 0 0
46 0 0 0 0 0.158 180
47 -0.182 0 -0.1084 0 -0.7047 0
48 -0.182 0 -0.1084 0 -0.7047 0

AngleAngleTorsion Coeffs

1 0 108.4 120.05
2 -16.164 112.67 110.77
3 -27.3953 112.67 111.91
4 -29.042 112.67 111.27
5 -12.1038 111.27 105.8
6 -16.164 112.67 110.77
7 -29.042 112.67 111.27
8 -29.042 112.67 111.27
9 -19.0059 111.27 104.5
10 -14.4097 120.05 118.9
11 4.4444 120.05 117.94
12 0 120.05 120
13 -24.3818 112.444 111.91
14 -12.5567 112.444 110.62
15 0 109 120
16 -16.4438 104.5 108.728
17 0 102.969 123.42
18 0 111.91 109
19 -7.5499 111.91 110.954
20 0 111.27 102.969
21 0 111.27 102.969
22 -16.4438 104.5 108.728
23 0 108.4 110.77
24 0 111 120.05
25 -5.8888 120.05 111
26 0 118.9 118.9
27 -4.8141 118.9 117.94
28 0 118.9 120
29 -21.0247 118.9 123.42
30 0 120 110
31 0 109 110.62
32 0 102.969 108.728
33 -12.564 110.77 110.77
34 -12.564 110.77 110.77
35 -20.2006 110.77 111.27
36 -12.564 110.77 110.77
37 -20.2006 110.77 111.27
38 -10.4258 110.62 110.954
39 -15.7572 110.77 111.91
40 -20.2006 110.77 111.27
41 -10.5093 108.728 105.8
42 -20.2006 110.77 111.27
43 -20.2006 110.77 111.27
44 0.3598 117.94 117.94
45 4.2296 117.94 123.42
46 0 111.91 111.27
47 -14.0484 111.27 111.27
48 -14.0484 111.27 111.27

EndBondTorsion Coeffs

1 0 0 0 0 0 0 1.53 1.417
2 0.2486 0.2422 -0.0925 0.0814 0.0591 0.2219 1.53 1.101
3 0.1032 0.5896 -0.4836 0.0579 -0.0043 -0.1906 1.53 1.457
4 -0.319 0.4411 -0.7174 1.1538 0.8409 -0.9138 1.53 1.42
5 -0.58 0.9004 0 0 0.5343 0.9025 1.53 0.965
6 0.2486 0.2422 -0.0925 0.0814 0.0591 0.2219 1.53 1.101
7 -0.319 0.4411 -0.7174 1.1538 0.8409 -0.9138 1.53 1.42
8 -0.319 0.4411 -0.7174 1.1538 0.8409 -0.9138 1.53 1.42
9 -0.2456 1.0517 -0.7795 0.4741 1.2635 0.5576 1.53 1.42
10 0 0.2421 0 0 -0.6918 0 1.501 1.417
11 0 -1.797 0 0 -0.4879 0 1.501 1.0982
12 0 0 0 0 0 0 1.501 1.412
13 -0.0128 -0.0495 -0.1079 0.0997 -0.0046 -0.2657 1.457 1.53
14 0.0628 0.0873 -0.0882 -0.5892 0.714 0.3505 1.457 1.101
15 0 0 0 0 0 0 1.457 1.417
16 -0.162 0.1564 -1.1408 -0.6054 1.3339 0.9648 1.42 1.101
17 0 0 0 0 0 0 1.42 1.417
18 0 0 0 0 0 0 1.53 1.412
19 -0.9466 0.9356 -0.5542 0.057 0.0625 0.4112 1.53 1.006
20 0 0 0 0 0 0 1.53 1.3768
21 0 0 0 0 0 0 1.53 1.3768
22 -0.162 0.1564 -1.1408 -0.6054 1.3339 0.9648 1.42 1.101
23 0 0 0 0 0 0 1.501 1.101
24 0 0 0 0 0 0 1.501 1.417
25 -0.5835 1.122 0.3978 1.3997 0.7756 0 1.417 1.101
26 -0.1185 6.3204 0 -0.1185 6.3204 0 1.417 1.417
27 0 -6.8958 0 0 -0.4669 0 1.417 1.0982
28 0 0 0 0 0 0 1.417 1.412
29 0 0.2655 0 0 4.8905 0 1.417 1.3768
30 0 0 0 0 0 0 1.417 1.006
31 0 0 0 0 0 0 1.412 1.101
32 0 0 0 0 0 0 1.3768 1.101
33 0.213 0.312 0.0777 0.213 0.312 0.0777 1.101 1.101
34 0.213 0.312 0.0777 0.213 0.312 0.0777 1.101 1.101
35 0.9681 0.9551 0.0436 0.5903 0.6669 0.8584 1.101 1.42
36 0.213 0.312 0.0777 0.213 0.312 0.0777 1.101 1.101
37 0.9681 0.9551 0.0436 0.5903 0.6669 0.8584 1.101 1.42
38 -1.1685 0.9266 -0.0993 0.085 0.3061 0.2104 1.101 1.006
39 0.196 0.7056 0.112 0.1022 0.209 0.6433 1.101 1.457
40 0.9681 0.9551 0.0436 0.5903 0.6669 0.8584 1.101 1.42
41 -1.7554 1.3145 0.2263 0.2493 0.6803 0 1.101 0.965
42 0.9681 0.9551 0.0436 0.5903 0.6669 0.8584 1.101 1.42
43 0.9681 0.9551 0.0436 0.5903 0.6669 0.8584 1.101 1.42
44 0 -0.689 0 0 -0.689 0 1.0982 1.0982
45 0 -1.5867 0 0 4.2641 0 1.0982 1.3768
46 0 0 0 0 0 0 1.457 1.42
47 1.0165 0.7553 -0.4609 1.0165 0.7553 -0.4609 1.42 1.42
48 1.0165 0.7553 -0.4609 1.0165 0.7553 -0.4609 1.42 1.42

MiddleBondTorsion Coeffs

1 0 0 0 1.501
2 -14.879 -3.6581 -0.3138 1.53
3 -15.4174 -7.3055 -1.0749 1.53
4 -21.8842 -7.6764 -0.6868 1.53
5 1.2472 0 0.7485 1.42
6 -14.879 -3.6581 -0.3138 1.53
7 -21.8842 -7.6764 -0.6868 1.53
8 -21.8842 -7.6764 -0.6868 1.53
9 -5.9288 -2.7007 -0.3175 1.42
10 0 9.1792 0 1.417
11 0 3.9421 0 1.417
12 0 0 0 1.417
13 -8.0036 -7.7321 -3.064 1.457
14 -6.4529 -6.8122 -1.1632 1.457
15 0 0 0 1.412
16 -6.8007 -4.6546 -1.4101 1.42
17 0 0 0 1.3768
18 0 0 0 1.457
19 -2.2208 0.5479 -0.3527 1.457
20 0 0 0 1.42
21 0 0 0 1.42
22 -6.8007 -4.6546 -1.4101 1.42
23 0 0 0 1.53
24 0 0 0 1.501
25 -5.5679 1.4083 0.301 1.501
26 27.5989 -2.312 0 1.417
27 0 -1.1521 0 1.417
28 0 0 0 1.417
29 0 4.8255 0 1.417
30 0 0 0 1.412
31 0 0 0 1.457
32 0 0 0 1.42
33 -14.261 -0.5322 -0.4864 1.53
34 -14.261 -0.5322 -0.4864 1.53
35 -16.7975 -1.2296 -0.275 1.53
36 -14.261 -0.5322 -0.4864 1.53
37 -16.7975 -1.2296 -0.275 1.53
38 -3.4611 1.6996 -0.6007 1.457
39 -10.4959 -0.7647 -0.0545 1.53
40 -16.7975 -1.2296 -0.275 1.53
41 0 0.9241 -0.5889 1.42
42 -16.7975 -1.2296 -0.275 1.53
43 -16.7975 -1.2296 -0.275 1.53
44 0 4.8228 0 1.417
45 0 5.5432 0 1.417
46 0 0 0 1.53
47 -17.2585 -3.6157 -0.8364 1.53
48 -17.2585 -3.6157 -0.8364 1.53

BondBond13 Coeffs

1 0 1.53 1.417
2 0 1.53 1.101
3 0 1.53 1.457
4 0 1.53 1.42
5 0 1.53 0.965
6 0 1.53 1.101
7 0 1.53 1.42
8 0 1.53 1.42
9 0 1.53 1.42
10 2.5085 1.501 1.417
11 0.8743 1.501 1.0982
12 0 1.501 1.412
13 0 1.457 1.53
14 0 1.457 1.101
15 0 1.457 1.417
16 0 1.42 1.101
17 0 1.42 1.417
18 0 1.53 1.412
19 0 1.53 1.006
20 0 1.53 1.3768
21 0 1.53 1.3768
22 0 1.42 1.101
23 0 1.501 1.101
24 0 1.501 1.417
25 -3.4826 1.417 1.101
26 53 1.417 1.417
27 -6.2741 1.417 1.0982
28 0 1.417 1.412
29 -2.2436 1.417 1.3768
30 0 1.417 1.006
31 0 1.412 1.101
32 0 1.3768 1.101
33 0 1.101 1.101
34 0 1.101 1.101
35 0 1.101 1.42
36 0 1.101 1.101
37 0 1.101 1.42
38 0 1.101 1.006
39 0 1.101 1.457
40 0 1.101 1.42
41 0 1.101 0.965
42 0 1.101 1.42
43 0 1.101 1.42
44 -1.7077 1.0982 1.0982
45 2.0517 1.0982 1.3768
46 0 1.457 1.42
47 0 1.42 1.42
48 0 1.42 1.42

AngleTorsion Coeffs

1 0 0 0 0 0 0 108.4 120.05
2 -0.2454 0 -0.1136 0.3113 0.4516 -0.1988 112.67 110.77
3 -1.9225 -1.345 0.221 2.0125 0.944 -2.7612 112.67 111.91
4 0.5623 -0.3041 -0.4015 0.9672 -0.7566 -1.2331 112.67 111.27
5 -3.5903 2.5225 0.4888 0.8726 -0.3577 0.3888 111.27 105.8
6 -0.2454 0 -0.1136 0.3113 0.4516 -0.1988 112.67 110.77
7 0.5623 -0.3041 -0.4015 0.9672 -0.7566 -1.2331 112.67 111.27
8 0.5623 -0.3041 -0.4015 0.9672 -0.7566 -1.2331 112.67 111.27
9 -2.7466 1.4877 -0.8955 0.5676 0.945 0.0703 111.27 104.5
10 0 -4.4683 0 0 3.8987 0 120.05 118.9
11 0 -0.1242 0 0 3.4601 0 120.05 117.94
12 0 0 0 0 0 0 120.05 120
13 1.2031 1.3645 -0.7071 -2.7883 1.5193 1.4796 112.444 111.91
14 -1.3582 0.1465 -0.5729 -2.6321 0.9353 -0.8398 112.444 110.62
15 0 0 0 0 0 0 109 120
16 -0.7777 0.434 -0.6653 -1.8234 1.6393 0.5144 104.5 108.728
17 0 0 0 0 0 0 102.969 123.42
18 0 0 0 0 0 0 111.91 109
19 -3.343 4.4558 -0.0346 0.2873 -0.8072 -0.096 111.91 110.954
20 0 0 0 0 0 0 111.27 102.969
21 0 0 0 0 0 0 111.27 102.969
22 -0.7777 0.434 -0.6653 -1.8234 1.6393 0.5144 104.5 108.728
23 0 0 0 0 0 0 108.4 110.77
24 0 0 0 0 0 0 111 120.05
25 0.2251 0.6548 0.1237 4.6266 0.1632 0.0461 120.05 111
26 1.9767 1.0239 0 1.9767 1.0239 0 118.9 118.9
27 0 2.5014 0 0 2.7147 0 118.9 117.94
28 0 0 0 0 0 0 118.9 120
29 0 10.0155 0 0 1.7404 0 118.9 123.42
30 0 0 0 0 0 0 120 110
31 0 0 0 0 0 0 109 110.62
32 0 0 0 0 0 0 102.969 108.728
33 -0.8085 0.5569 -0.2466 -0.8085 0.5569 -0.2466 110.77 110.77
34 -0.8085 0.5569 -0.2466 -0.8085 0.5569 -0.2466 110.77 110.77
35 2.3668 2.492 -1.0122 -0.1892 0.4918 0.7273 110.77 111.27
36 -0.8085 0.5569 -0.2466 -0.8085 0.5569 -0.2466 110.77 110.77
37 2.3668 2.492 -1.0122 -0.1892 0.4918 0.7273 110.77 111.27
38 -3.9582 2.0063 0.3213 -0.4294 -0.4442 -0.6141 110.62 110.954
39 0.5111 1.6328 -1.0155 -1.1075 0.282 0.8318 110.77 111.91
40 2.3668 2.492 -1.0122 -0.1892 0.4918 0.7273 110.77 111.27
41 -3.406 1.6396 0.0737 0 -0.281 -0.5944 108.728 105.8
42 2.3668 2.492 -1.0122 -0.1892 0.4918 0.7273 110.77 111.27
43 2.3668 2.492 -1.0122 -0.1892 0.4918 0.7273 110.77 111.27
44 0 2.4501 0 0 2.4501 0 117.94 117.94
45 0 1.8729 0 0 2.5706 0 117.94 123.42
46 0 0 0 0 0 0 111.91 111.27
47 0.5511 0.9737 -0.6673 0.5511 0.9737 -0.6673 111.27 111.27
48 0.5511 0.9737 -0.6673 0.5511 0.9737 -0.6673 111.27 111.27

Improper Coeffs # class2

1 0 0
2 0 0
3 0 0
4 0 0
5 0 0
6 0 0
7 0 0
8 0 0
9 0 0
10 0 0
11 0 0
12 0 0
13 0 0
14 0 0
15 0 0
16 0 0
17 0 0
18 0 0
19 0 0
20 0 0
21 0 0
22 0 0
23 0 0
24 7.8153 0
25 4.8912 0
26 0 0
27 13.0421 0
28 0 0
29 0 0
30 0 0

AngleAngle Coeffs

1 2.0403 -1.8202 1.0827 108.4 110.77 111
2 1.0827 -1.8202 2.0403 110.77 108.4 111
3 0.2738 -0.4825 0.2738 110.77 110.77 107.66
4 0.2738 -0.4825 0.2738 110.77 110.77 107.66
5 2.4286 0.5381 -2.5301 110.77 111.91 110.62
6 0.1689 2.5926 3.9177 111.27 110.77 108.728
7 0.2738 -0.4825 0.2738 110.77 110.77 107.66
8 3.9177 2.5926 0.1689 110.77 111.27 108.728
9 3.9177 2.5926 0.1689 110.77 111.27 108.728
10 0.1689 2.5926 3.9177 111.27 110.77 108.728
11 0.1689 2.5926 3.9177 111.27 110.77 108.728
12 0 0 0 111 111 111
13 2.3794 3.0118 2.3794 111 111 107.66
14 -0.3157 -0.3157 -0.3157 107.66 107.66 107.66
15 2.4321 2.4321 -3.5496 107.66 110.62 110.62
16 2.4259 2.4259 2.1283 107.66 108.728 108.728
17 2.4259 2.4259 2.1283 107.66 108.728 108.728
18 -1.3199 -1.3199 0.1184 112.67 110.77 110.77
19 -0.833 -0.833 -3.5744 112.67 111.27 111.27
20 0.1689 2.5926 3.9177 111.27 110.77 108.728
21 -1.3199 -1.3199 0.1184 112.67 110.77 110.77
22 -0.833 -0.833 -3.5744 112.67 111.27 111.27
23 0.1689 2.5926 3.9177 111.27 110.77 108.728
24 0 0 0 120.05 120.05 118.9
25 0 0 0 118.9 117.94 117.94
26 0 0 0 118.9 120 120
27 0 0 0 118.9 123.42 123.42
28 0 0 0 112.444 109 109
29 0 0 0 110.954 109 110
30 0 0 0 110 110 107.067

Atoms # full

45 1 5 0.1268 2.5817172048996166 6.781647604900498 4.931970119553418 0 0 0
49 1 4 -0.1268 3.9141683485439356 5.421380518268034 4.14115891601272 0 0 0
47 1 4 -0.1268 3.5442518345370644 6.707818431657896 4.3729643805775416 0 0 0
168 1 1 0.027 3.0035345737587162 9.366157765409099 5.213765410501276 0 0 0
174 1 4 0.0265 4.5397121693107 7.714068055681904 4.461358664315622 0 0 0
177 1 4 0 5.246054863526194 4.999128275101642 3.870162951680533 0 0 0
169 1 10 -0.1595 4.281780963036784 9.058512837863006 4.673489850324204 0 0 0
176 1 4 -0.1268 5.882478642135433 7.310280260980874 4.130584944524179 0 0 0
124 1 4 -0.1268 6.201128418299868 6.0334345280126245 3.810467930344509 0 0 0
120 1 5 0.1268 6.716331313601585 8.031795576221544 3.9439737956227834 0 0 0
50 1 5 0.1268 3.2192493837657272 4.6705830459368585 4.3113717872270705 0 0 0
282 8 1 -0.106 3.6966946521806734 6.683633183779461 9.331831953358417 0 0 0
359 11 6 0.2487 5.700330586976736 3.601646007595849 7.001258626990941 0 1 0
357 11 8 -0.4974 6.663712960271185 3.1589416250625986 7.028225685145856 0 1 0
223 13 1 0.027 8.11171534799563 6.782131365354038 6.448258063954178 -1 0 0
222 13 5 0.053 7.215977247596246 6.179207474674683 6.846701668176534 -1 0 0
354 11 4 0 6.777074214582116 2.0437248011124067 7.945127617822196 0 1 0
127 1 5 0.1268 7.25826454553857 5.806173956059198 3.544350543933779 0 0 0
56 1 1 -0.106 5.492677321520356 3.499021022922692 3.6640749349007917 0 0 0
15 1 4 0 6.811276575244344 3.019674086313673 3.0112778169976577 0 0 0
224 13 5 0.053 7.815311122994886 7.746898820112369 6.053352069074442 -1 0 0
285 8 8 -0.4974 5.482773757282129 9.091262749673739 9.43254955608412 0 0 0
355 11 6 0.2487 7.437761954289884 3.7399654268923643 6.906207657973338 0 1 0
193 13 9 -0.266 9.012266779661193 6.054614533774222 5.633396493008402 -1 0 0
340 11 5 0.053 9.284918586108468 3.4147051235021086 8.286325161817663 0 1 0
57 1 5 0.053 5.247383436651424 2.906243166840355 4.4951931188393495 0 0 0
489 8 5 0.053 2.9153213710541857 6.153459100267254 7.354948846823969 0 0 0
280 8 4 0 5.132867153339411 6.641208789495348 9.852236195209853 0 0 0
283 8 4 0 5.934534876874208 7.802044407304247 9.898331594183743 0 0 0
286 8 6 0.2487 4.527797718748127 9.044968565519955 9.083268366368678 0 0 0
287 8 1 -0.159 3.796531955805262 5.938017693221067 7.991189753343128 0 0 0
361 11 1 -0.159 4.319066405435544 1.5033509403215892 7.51526341246611 0 1 0
288 8 5 0.053 3.7853155429073877 4.85895383525477 8.132523772121122 0 0 0
281 8 4 0 7.209152659953321 7.656677791621098 10.358682129324258 0 0 0
167 1 5 0.053 2.2704478497003615 9.078619653450033 4.430746560961511 0 0 0
13 1 4 -0.1268 7.428947861535222 1.839143323192398 3.351326516134918 0 0 0
449 8 6 0.2487 5.769278477253365 9.98922706902435 9.873689556927 0 0 0
289 8 5 0.053 4.723454275631925 6.198993323471911 7.512923290640403 0 0 0
132 1 5 0.053 4.711279366610758 3.2052712458891026 2.851406245073406 0 0 0
360 11 5 0.053 4.378331079851395 1.8146323287758905 6.524120566497424 0 1 0
12 1 4 0.0265 9.116333691110729 1.9629670450287036 1.627258841929258 0 0 0
17 1 4 -0.1268 7.293513795870702 3.608710888768707 1.8354664714805686 0 0 0
362 11 5 0.053 4.027273228645752 2.4288141826186074 8.070197834821748 0 1 0
279 8 5 0.053 2.857124801297275 6.340647743919726 9.999549890989346 0 0 0
277 8 4 -0.1268 5.651172385069983 5.447348236385455 10.327948224470104 0 0 0
483 8 5 0.053 3.493328421112336 7.7293276786159995 9.159627453112162 0 0 0
172 1 5 0.053 2.82105294248833 8.682462548285777 6.116416860445002 0 0 0
183 6 5 0.053 10.032303689937912 9.795545492917903 3.5120683168502826 0 0 0
447 8 1 -0.159 8.084632146257647 8.894266126212909 10.33425018430899 0 0 0
448 8 5 0.053 8.423280125663496 9.095379362355082 9.289874250118777 0 0 0
379 13 3 0.08 9.545498263831151 6.445250794077087 6.853414783484692 -1 0 0
378 13 5 0.053 9.740002056391182 5.789502607411362 7.65533944513011 -1 0 0
154 10 5 0.053 6.690108638869179 10.353897677494766 5.026182271238189 0 -1 1
345 11 1 -0.106 9.41729160807425 2.345956466238502 8.128900562743915 0 1 0
403 11 1 -0.159 9.942344021711511 1.8997169902732534 6.723961345381382 0 1 0
401 11 5 0.053 9.454438060269675 2.411473164489708 5.815031259482916 0 1 0
349 11 4 0 8.059621815620595 1.6486345859240348 8.414397880196667 0 1 0
179 6 5 0.1268 9.807766683456704 7.171135618107484 2.7206610034781002 0 0 0
275 8 5 0.1268 4.981274516923605 4.537539092304125 10.315405576235094 0 0 0
273 8 5 0.053 7.027288950109132 3.162710175048201 10.419390080204506 0 0 0
236 9 5 0.1268 3.206552033869918 3.1858151032466404 9.995767763146981 0 0 0
178 6 5 0.1268 8.114556051412986 10.3017210477333 2.09406113878548 0 0 0
508 3 5 0.053 1.381830523425947 2.1079704124712935 5.091333671937388 1 0 1
240 9 5 0.1268 1.5430851597146287 3.9957685848211364 8.445466624949304 0 0 0
428 13 5 0.053 10.14528412522226 8.488286383862228 6.537933255149955 -1 0 0
366 12 5 0.053 9.468850592677798 10.48856307368628 7.475013032708686 0 0 0
346 11 5 0.053 10.120835440923695 2.0128200235375298 8.95491318716073 0 1 0
18 1 5 0.1268 6.653095272051031 4.49989495145566 1.502216054410198 0 0 0
235 9 4 -0.1268 2.2842175273316814 3.5341939562855917 10.391008334178037 0 0 0
187 6 1 -0.106 10.735746958610859 9.856929104961477 2.7237440811840843 0 0 0
533 3 5 0.053 19.631202687451648 2.8856350447961256 2.6955772320202844 0 0 1
239 9 4 -0.1268 19.713592367764825 3.9390393105441115 9.555611541392643 -1 0 0
180 6 4 -0.1268 10.908501014799638 7.286155749680227 2.8363933944128417 0 0 0
128 6 4 -0.1268 11.715121155784681 6.1495616159514395 2.7772507709591023 0 0 0
430 13 1 0.027 10.651050650815938 7.461072257839222 6.701578106483181 -1 0 0
185 6 4 0 11.506705330038379 8.552908747499078 2.776889526138498 0 0 0
134 6 5 0.053 12.56796459346746 3.553957228381745 2.264611349817309 0 0 0
284 13 5 0.1268 18.26794583990864 8.42229047199654 7.979274655617362 -1 0 0
507 3 5 0.053 16.765693774764557 4.011457591376845 3.1778097207437437 0 0 1
527 3 9 -0.266 18.75883688027538 4.652063761545971 3.6464040287153203 0 0 1
529 3 5 0.053 17.95964938039996 4.0345846174982105 1.7437488150597504 0 0 1
528 3 1 0.027 17.817124339036344 4.000735779291086 2.8302069901783504 0 0 1
531 3 3 0.08 18.852925543234527 3.233264686347054 3.4063238783712686 0 0 1
136 6 4 -0.1268 12.91003567869697 8.534434618165964 3.027277574494632 0 0 0
432 13 5 0.053 11.145255343872545 7.20384521319147 5.800646440783023 -1 0 0
380 13 10 -0.1595 11.470722063392158 7.632921943473151 7.880024921935857 -1 0 0
131 6 1 0.027 13.38485932873684 3.6706522646167934 3.0127544273953095 0 0 0
129 6 10 -0.1595 13.895637124063423 5.013763277811621 3.034597999394692 0 0 0
130 6 4 0.0265 13.098252397373267 6.169950576795265 2.9521696206219046 0 0 0
135 6 4 -0.1268 13.682617068515926 7.411815548227088 3.0434368253727873 0 0 0
137 6 5 0.1268 14.792692517933789 7.537497858168528 3.179329711998082 0 0 0
387 13 5 0.1268 13.159540176226331 7.7928257199981195 5.693509894731252 -1 0 0
388 13 4 -0.1268 13.461792090155344 8.339495205956682 6.60206549008213 -1 0 0
335 13 5 0.1268 15.12687898310156 9.01209951116886 5.626784979082791 -1 0 0
392 13 4 -0.1268 14.679571038555137 8.988344744228648 6.580189417255567 -1 0 0
291 9 9 -0.266 16.28425083939956 6.135082741740652 5.886089339674329 -1 0 0
384 13 4 0.0265 12.677926274223998 8.279220481521921 7.754161295873627 -1 0 0
251 6 3 0.08 12.948143259911145 3.128812062858973 4.3330149744147874 0 0 0
103 6 5 0.053 14.766571781961504 2.0683750744500538 5.064633104421363 0 0 0
294 9 1 0.027 15.464802845044298 5.147537473804606 6.459258775468839 -1 0 0
249 9 5 0.053 15.630926932305991 4.19605115137077 6.03903599996126 -1 0 0
334 13 4 0 15.137332662652831 9.689234453904323 7.6800721600004165 -1 0 0
386 13 4 -0.1268 13.214944056400116 8.940809154067045 8.928791488741567 -1 0 0
250 6 1 0.027 13.709945087400031 2.3057712717098466 5.247348981144455 0 0 0
348 13 4 -0.1268 18.03711284330714 8.966083063258019 8.945598815026425 -1 0 0
212 14 5 0.053 19.316930507516002 7.308089008884947 2.8726235874431816 0 0 1
213 14 9 -0.266 18.589739915952908 9.198285600610578 2.464822039829434 0 0 1
210 14 1 0.027 18.860884928033087 7.839246996684204 2.072282321842545 0 0 1
123 9 3 0.08 16.407139017202624 5.952641042859462 7.29008218618852 -1 0 0
121 9 1 0.027 17.749258051032797 5.470270623163071 7.956107569130536 -1 0 0
119 9 5 0.053 18.255682319482744 4.658712113753253 7.384223882740196 -1 0 0
297 9 5 0.053 14.476275889746605 5.579872782323532 6.443847351699882 -1 0 0
390 13 4 -0.1268 14.430243854722967 9.610460713868903 8.855600352573099 -1 0 0
122 9 5 0.053 18.411330586647967 6.31183462286018 8.084487840560406 -1 0 0
292 9 5 0.053 15.97933839043193 6.749157582084369 7.939749770931513 -1 0 0
191 6 5 0.1268 13.330522959092166 9.550343778388207 3.2478376640795674 0 0 0
125 6 9 -0.266 12.621494488102064 1.767046465144904 4.498772326288073 0 0 0
248 6 5 0.053 12.278111530319496 3.8578165737324177 4.8291895516035055 0 0 0
382 13 5 0.1268 12.697120646373477 8.957779498530781 9.893710273779497 -1 0 0
241 9 10 -0.1595 17.464657606527744 4.861716784457407 9.222111502534197 -1 0 0
133 6 5 0.053 14.182223513487134 3.048588275291096 2.6555130900720747 0 0 0
391 13 5 0.1268 14.687522018176955 10.206840540291477 9.746611687076264 -1 0 0
214 14 5 0.053 16.893733748894753 8.082241112345287 3.017772400739931 0 0 1
211 14 3 0.08 17.472807517898115 8.264042118373435 2.107188660835655 0 0 1
534 3 10 -0.1595 17.852534057981092 2.635893812387892 5.71184504974402 0 0 1
20 3 5 0.1268 15.825813165593999 2.7126061878559606 7.501019124961355 0 0 1
313 2 9 -0.266 13.828063276847155 4.394962236712582 9.81479207266944 0 0 0
102 6 5 0.053 13.585724739447066 2.3807387013211345 6.361621237063915 0 0 0
532 3 1 0.027 18.775254069714524 2.2886943986202004 4.686842090142991 0 0 1
26 3 4 0.0265 17.617133711666277 1.6719228998483378 6.712429234854844 0 0 1
22 3 4 -0.1268 16.53965708983766 1.925814606486775 7.520085457541514 0 0 1
342 13 4 0 17.299621495579842 10.120114876174892 8.879592055632965 -1 0 0
308 2 5 0.053 13.979912562595306 6.448290064883456 10.510354732774262 0 0 0
311 2 1 0.027 13.348299179094814 5.579259550759739 10.433078871470213 0 0 0
314 2 5 0.053 12.404598393918196 5.973742785399171 10.139356442559972 0 0 0
290 13 5 0.1268 19.153891397119594 7.389733542930194 10.014802657221272 -1 0 0
352 13 4 -0.1268 18.60670380654435 8.389987531976907 10.092208919722252 -1 0 0
505 2 5 0.1268 16.96702566953578 1.6361261538557201 1.861347659806094 0 0 1
407 11 5 0.053 11.034550841007487 2.030597594138839 6.6904270558064844 0 1 0
336 13 5 0.053 17.077659412255393 10.298295243090239 6.778576014763494 -1 0 0
337 13 1 -0.106 16.475236796056187 10.47544506399738 7.6883655209399135 -1 0 0
126 6 5 0.1268 11.132379349666211 5.288073865847266 2.533096361471273 0 0 0
238 9 4 0.0265 18.499063047269157 4.476230873351893 10.037073529637746 -1 0 0
53 1 5 0.1268 6.9022591791107 19.65882620405622 4.111727228591716 0 -1 0
11 1 4 -0.1268 8.557948483735876 19.745579548430786 2.72659775804346 0 -1 0
170 1 5 0.053 3.4551685956537215 11.17131684321276 6.460199407808968 0 0 0
318 10 6 0.2487 5.298876972498751 10.6864257052088 3.4852937945197833 0 -1 1
373 12 5 0.053 10.549263974773856 10.657466685177807 5.215398711970842 0 0 0
363 11 5 0.053 3.5405353587235644 19.148287403553 7.689635431273207 0 0 0
356 11 4 0 5.692320070048318 19.63410999297677 8.182536639863024 0 0 0
151 10 5 0.053 5.760251595671815 10.84633846089811 6.469166662693084 0 -1 1
150 10 5 0.053 7.461751051100238 11.121692943173015 6.517216185998991 0 -1 1
464 10 6 0.2487 4.807736144730861 11.795305968391064 2.2836902512675503 0 -1 1
317 10 8 -0.4974 5.40978984175497 11.590253867940584 3.100435947589339 0 -1 1
171 11 6 0.2487 3.9792748467830084 17.809961210520182 8.807867373138372 0 0 0
152 10 1 -0.159 6.570927634569821 11.14059415390517 5.855544428438813 0 -1 1
43 1 3 0.08 2.8148563218672153 10.82450638472489 5.618323267358326 0 0 0
10 1 5 0.1268 8.921795762112799 18.777201969440164 2.9935563686028317 0 -1 0
41 1 1 0.027 2.4023404666828414 11.945361080608563 4.739824202052902 0 0 0
40 1 5 0.053 2.3385417068381695 11.872408746801613 3.6544226683532224 0 0 0
540 5 6 0.2487 3.6921644354961147 18.645408654564903 2.693873951468606 0 0 0
42 1 5 0.053 2.501465934026063 12.971061932815436 5.091843651381451 0 0 0
344 11 4 -0.1268 8.127762001562406 18.875015497797367 9.134711100705896 0 0 0
351 11 4 0 5.836393232642096 18.497086682626918 9.05453748615027 0 0 0
173 11 8 -0.4974 4.753586098087343 17.708234111437186 9.413709303925414 0 0 0
156 10 6 0.2487 7.616599274372034 12.520627263089967 7.5830256751509095 0 -1 1
329 10 6 0.2487 7.480569676473952 14.239300616355417 7.847513267557087 0 -1 1
327 10 8 -0.4974 7.174682572565321 13.444154060631341 7.321186942762636 0 -1 1
385 10 5 0.053 6.828146286494918 16.037491040837537 7.234058953097099 0 -1 1
383 10 1 -0.159 8.671936006757635 16.32532183093074 6.003353913720091 0 -1 1
325 10 4 0 6.721863332945036 13.625420251645922 6.022018392534604 0 -1 1
326 10 4 0 6.6550666532496 14.914376073907027 5.511566970731211 0 -1 1
328 10 1 -0.106 7.12743940793968 16.170086451374814 6.189994694720413 0 -1 1
322 10 4 0 6.384874231275787 12.528427602977084 5.202640631174242 0 -1 1
320 10 4 0 5.862012703522017 12.740677573634528 3.8803841183877643 0 -1 1
332 10 5 0.053 6.715675051018885 17.092047264501815 5.784730994257374 0 -1 1
323 10 4 -0.1268 6.124670860889914 15.076906682106697 4.268556947332698 0 -1 1
324 10 5 0.1268 6.181111101010771 16.107441818199025 3.8981588998907775 0 -1 1
321 10 4 0 5.743134313564218 14.031385985562345 3.3962514543448292 0 -1 1
319 10 1 -0.106 5.154749652024817 14.32346643865439 2.032586336310636 0 -1 1
465 10 5 0.053 4.738672812384734 15.274322972110868 2.067890891850088 0 -1 1
65 5 4 0 2.5949263966766125 17.17622895694374 3.3466238303037565 0 0 0
542 5 8 -0.4974 3.382676447383491 18.35744843459771 3.6309806434427383 0 0 0
547 5 6 0.2487 3.9485163464892814 18.314619658692806 4.451301129419223 0 0 0
512 10 5 0.053 9.115322300734473 15.385893601953786 6.4118631212179675 0 -1 1
389 10 5 0.053 8.903078616965978 16.32223138531341 4.948299124757369 0 -1 1
347 11 4 0 7.074875945570205 18.093984927961078 9.528992026776868 0 0 0
175 11 6 0.2487 4.936850059507855 16.760472161443605 9.693501694826583 0 0 0
87 4 5 0.053 9.734573410627956 13.284619296621761 3.7728145253051895 0 0 0
381 10 5 0.053 9.031237814908511 17.241546172815823 6.471412269420476 0 -1 1
46 5 5 0.053 2.3531721566829673 16.62536908238905 6.550998399799193 0 0 0
83 4 5 0.053 8.797178287579282 14.150546928365916 2.59280530586139 0 0 0
85 4 1 -0.159 9.791969123680017 13.712821621806027 2.76106523368422 0 0 0
254 3 5 0.053 5.776440846215303 12.287879502001925 9.386371704655847 1 -1 1
341 11 5 0.1268 9.135210173483124 18.529966017481176 9.399665071333002 0 0 0
257 3 1 0.027 4.7490350009569156 12.723684424409628 9.458620844450282 1 -1 1
258 3 5 0.053 4.228297182213531 12.652953701631528 8.509111823583254 1 -1 1
64 5 4 0 2.033045217452995 17.018718154069127 2.0974440546927324 0 0 0
316 10 5 0.053 4.338635445072055 13.721797897196435 1.7866384912421949 0 -1 1
110 4 5 0.053 10.004787217847577 12.984470008441887 1.99621175910366 0 0 0
166 11 5 0.053 8.494139952057171 16.714576741503436 10.391678900224413 0 0 0
165 11 1 -0.106 7.413045912555822 16.9048122680934 10.43966659496442 0 0 0
399 11 5 0.053 9.689529816384676 19.270028808890114 6.526207455761374 0 0 0
48 5 5 0.053 3.8255904344396985 17.159480438861575 5.692769553119833 0 0 0
164 11 5 0.053 7.015467833816973 15.917286739350436 10.108721174837703 0 0 0
39 1 9 -0.266 1.4804128989279044 11.235094386818288 5.556573599797276 0 0 0
365 12 5 0.053 10.177169573844106 12.52055257965329 8.88228284839381 0 0 0
370 12 9 -0.266 9.87037471284485 12.306631519757739 6.4482895124206525 0 0 0
7 1 5 0.053 10.11549085291872 18.02412684687552 1.6735151939753017 0 -1 0
139 3 9 -0.266 4.586119174561482 13.901790639786238 10.29870078385754 1 -1 1
67 5 4 0 2.2485311382578352 16.335167736107348 4.384582265361187 0 0 0
69 5 1 -0.159 3.0576879420462415 16.431703829486032 5.703620634858951 0 0 0
143 3 10 -0.1595 1.668226876976109 13.151936526265027 9.885294830394006 1 -1 1
44 5 5 0.053 3.54392903880351 15.502571271670087 5.997328580791984 0 0 0
368 12 3 0.08 10.279985395391085 11.205110255376368 7.352765767544554 0 0 0
88 7 5 0.053 2.943418960189436 10.745033629383906 1.4955859365602193 0 0 1
74 5 6 0.2487 1.4377485197246536 14.161392717158467 5.826832442660946 0 0 0
189 6 5 0.053 11.298264902932086 10.84752591950417 2.897778119031114 0 0 0
535 3 5 0.1268 19.28283608067657 18.774990684259954 6.4304596506270855 0 -1 1
530 3 5 0.053 18.450357052286154 19.728489434960995 4.262460865519889 0 -1 1
36 3 5 0.1268 18.876927691759107 17.48825110683671 8.474541048212812 0 -1 1
6 1 5 0.053 11.151155295020786 19.03457416051564 2.801738523776296 0 -1 0
66 5 4 -0.1268 19.467050556817586 16.12863422319955 1.9101647376270066 -1 0 0
145 3 5 0.1268 17.7592071682656 13.500139199251686 8.84575310664416 0 -1 1
148 3 4 -0.1268 18.05961852659659 14.268358894162407 9.52545550087332 0 -1 1
32 3 4 -0.1268 18.400600704049847 18.96085134905652 7.021678129388371 0 -1 1
70 5 4 0 19.666882679355357 15.417019983439593 4.183569771047301 -1 0 0
364 12 5 0.053 10.798868902482162 10.99497534078513 9.52856537648108 0 0 0
203 5 5 0.053 18.77950013804909 12.186728060075911 3.0158752082256255 -1 0 0
372 12 1 0.027 10.836851655527584 11.427386504535942 5.987397435927026 0 0 0
376 12 5 0.1268 11.131141467562983 14.331723787758074 7.694988651510772 0 0 0
153 4 6 0.2487 16.161506879683518 11.597060716984023 1.8733290363247304 0 0 0
72 5 8 -0.4974 19.183910918548523 14.67688664827812 5.299223931194119 -1 0 0
68 5 4 0 19.045129072388768 15.278845855354556 2.880258020205661 -1 0 0
426 12 5 0.1268 11.16542342111837 16.644089999014803 8.86154524515669 0 0 0
62 4 5 0.053 10.780749919306777 15.716304062218793 3.251321497483715 0 0 0
37 4 6 0.2487 16.330185870148313 11.740975416771144 3.4505552400524784 0 0 0
338 13 5 0.053 16.116645517626736 11.543233185435207 7.679011421982531 -1 0 0
375 12 5 0.053 11.872997574246797 11.655119252406985 5.854861849275253 0 0 0
73 5 6 0.2487 18.4673758922636 14.037632340936781 5.024520551394322 -1 0 0
367 12 1 0.027 10.872004910913915 11.713954280338198 8.667212699956348 0 0 0
96 4 6 0.2487 11.964401289705892 15.417056986818308 5.012950569353533 0 0 0
104 2 5 0.053 13.038473728359515 17.491519947320338 4.930761258798132 0 -1 1
71 5 1 -0.106 17.99643642497186 14.26084868751588 2.5489282881776765 -1 0 0
374 12 4 -0.1268 11.722256062319996 14.476414972135666 8.593180461517818 0 0 0
155 4 8 -0.4974 15.654202726192011 11.625596180132511 2.7487295644487117 0 0 0
369 12 10 -0.1595 12.22504545931791 12.170068800697464 8.553284279370203 0 0 0
371 12 4 0.0265 12.403946746998901 13.372117323537442 9.173005332243145 0 0 0
28 3 5 0.1268 16.418231418432846 15.597109622086204 8.767240094733582 0 -1 1
109 4 4 0 14.433928716384502 12.378609403919485 2.746926353699191 0 0 0
111 4 4 0 12.1883680460653 14.057750621995215 2.6720275146659427 0 0 0
91 4 4 0 12.85235541056614 13.855068444694432 3.8739569780478726 0 0 0
112 4 4 0 13.951138859594565 13.032440268650788 3.866849937100326 0 0 0
92 4 1 -0.159 14.716173673260897 12.767562416884209 5.231222512605843 0 0 0
93 4 5 0.053 14.189067794662591 12.315167550781256 5.984941392336386 0 0 0
94 4 5 0.053 15.104538164768053 13.736412215620202 5.731654515271884 0 0 0
38 4 5 0.053 15.648918315708192 12.183003301685506 5.132346488396259 0 0 0
97 4 6 0.2487 13.066420896015918 14.427760731429986 5.758920769162815 0 0 0
95 4 8 -0.4974 12.388175979981309 14.476272253316397 5.05010777852624 0 0 0
106 2 5 0.053 13.580852909618072 18.186693691597743 6.532169208225716 0 -1 1
105 2 1 0.027 13.855757180831983 17.57297004951561 5.681906558278982 0 -1 1
89 4 1 -0.106 10.872822114392392 14.832898585040008 2.56861818093092 0 0 0
19 2 5 0.053 16.154966094052696 17.69522404121734 5.712295561473041 0 -1 1
108 2 3 0.08 15.241121514835095 17.372537698308065 5.217986133914704 0 -1 1
506 2 5 0.053 16.601173690132196 16.651619203232805 3.569875036887838 0 -1 1
504 2 1 0.027 15.468004099372086 17.049465399392076 3.7490910579727816 0 -1 1
107 2 9 -0.266 14.455916180593137 16.331418113816966 5.865375572744845 0 -1 1
501 2 10 -0.1595 15.362475330719214 18.273866514450496 2.9797711420263173 0 -1 1
75 5 5 0.053 17.30664249366064 14.047996525175407 3.458576523001915 -1 0 0
425 12 4 -0.1268 11.748333692848497 15.729616124302481 9.232129423507702 0 0 0
582 2 5 0.053 14.794228371727545 16.268038950704316 3.3610412800143106 0 -1 1
188 12 4 -0.1268 13.258362916649705 13.597062847604032 10.213365453473306 0 0 0
184 12 5 0.1268 14.001225499079068 12.705175841889913 10.468159261901288 0 0 0
218 12 4 0 12.559851557593667 15.935441747912805 10.297300473164814 0 0 0
221 12 5 0.053 12.676032387850645 17.930813573811722 9.877710583509186 0 0 0
33 3 4 -0.1268 18.193373282594788 18.213877331488384 8.161427065786063 0 -1 1
24 3 4 -0.1268 17.26404253357637 15.382089667723452 9.518783813482207 0 -1 1
23 3 4 -0.1268 16.32373132290934 19.580246104877972 8.655600327688928 0 -1 1
30 3 4 0 17.100778153734247 18.534609190713322 8.992689730358784 0 -1 1
267 4 4 0 13.848588109836612 12.742659269896194 1.5486484924600428 0 0 0
21 3 5 0.1268 15.481334565288956 19.749236654407547 9.265021700734223 0 -1 1
500 2 4 0.0265 16.03155882731781 18.13652008939546 1.7590782051909488 0 -1 1
268 4 4 -0.1268 12.707265684133635 13.48036723246423 1.5102849296275633 0 0 0
101 5 5 0.053 17.36364623229495 14.695132582284986 1.7615645033360496 -1 0 0
146 3 4 0.0265 19.242334896005463 14.215970990390693 10.210619291312485 0 -1 1
8 1 1 0.027 10.890264511285315 18.811328554197964 1.7328080066478573 0 -1 0
204 5 1 -0.159 18.560643331159497 12.83360763288147 2.1708189760025896 -1 0 0
202 5 5 0.053 19.55763626421612 12.964347012930334 1.6796807968010328 -1 0 0
225 4 5 0.053 10.8120473173074 15.267502620736353 1.5567969769687175 0 0 0
205 5 5 0.053 17.849746973654348 12.318542492888037 1.5118999412629874 -1 0 0
503 2 4 -0.1268 16.943161167484824 19.146527938178867 1.3675539722917451 0 -1 1
343 13 4 -0.1268 17.197197036193174 10.773134159983822 10.13567171094022 -1 0 0
29 3 4 0 17.587878113022462 16.430476928423687 10.395317927049003 0 -1 1
31 3 1 -0.106 16.845375930429846 17.727694815878973 10.304491074018179 0 -1 1
5 1 5 0.053 12.770831555905636 17.806531888244336 1.7579114267858598 0 -1 0
339 13 5 0.1268 16.7490283017398 11.791012679501707 10.178887382995464 -1 0 0
450 8 5 0.053 7.583229132574058 9.850795360058067 10.656806175001938 0 0 0
446 8 5 0.053 9.01301436027087 8.797600924243822 10.953866894184834 0 0 0
278 8 4 0 7.718222249137175 6.448189948226578 10.829536159005865 0 0 0
227 8 6 0.2487 9.736664149103765 6.988934787626701 10.683039504497502 0 0 0
116 8 8 -0.4974 9.083393720538476 6.3859430931702725 11.191697684187872 0 0 0
276 8 4 0 6.934494113240574 5.287905454583948 10.775092893056486 0 0 0
82 7 5 0.053 5.069662970424829 9.240786865954 19.499072338304092 0 0 0
271 15 5 0.053 3.3109186235756622 2.0097250859293334 18.304233726214267 1 1 0
14 1 4 -0.1268 8.41345924504423 3.133713144377075 19.571772629679405 0 0 -1
158 8 5 0.053 6.644368310120247 3.8444900721526496 13.012090632794266 0 0 0
114 8 6 0.2487 9.374862390407998 5.43850916604856 11.104750777132718 0 0 0
270 15 5 0.053 2.937057687052104 2.9333047718117937 16.884542264189292 1 1 0
113 8 1 -0.159 7.580508697980807 3.596478114995424 12.606996676695415 0 0 0
115 8 5 0.053 7.7540805895112666 2.576598265764323 12.858658697856862 0 0 0
157 8 5 0.053 8.33298258973874 4.334420842013698 12.979819265428805 0 0 0
274 8 1 -0.106 7.525811209587666 3.955510053579883 11.04771717143982 0 0 0
84 7 1 0.027 4.404206709304769 9.542401748419834 18.663095223538402 0 0 0
117 8 5 0.053 8.548743802358606 3.9638321449260663 10.673415381678408 0 0 0
467 15 10 -0.1595 4.13747885047902 6.089404933501482 18.770246715077196 1 1 0
226 9 5 0.053 4.135506671707526 3.3181219866806053 12.232167539948573 0 0 0
229 9 1 -0.106 3.220073128731994 3.032425768486701 12.754916981568709 0 0 0
228 9 5 0.053 3.2823854132339125 3.6150662996327294 13.791514994492568 0 0 0
443 15 5 0.053 2.7277715326697014 5.702437690927453 17.158318301392534 1 1 0
584 15 5 0.1268 8.369395425518993 7.385463463070215 17.884391263844837 1 1 0
468 15 5 0.1268 6.4664177510303755 7.226955625473833 19.359134745753817 1 1 0
473 15 1 0.027 2.9179826970434926 5.570689916331826 18.2672502774593 1 1 0
469 15 4 0.0265 5.2026187448855605 6.128283331719139 17.952337846809318 1 1 0
470 15 4 -0.1268 6.314849279469648 6.8170762022792495 18.35498931835236 1 1 0
330 15 5 0.1268 4.451771668830853 4.6874230861249835 16.391190517043896 1 1 0
331 15 4 -0.1268 5.241051340299256 5.360876313226581 16.784477683253556 1 1 0
272 15 5 0.1268 6.473209872070586 4.897104450588461 14.963090537067588 1 1 0
585 15 4 -0.1268 7.498170511825191 6.845664227480919 17.532512693359134 1 1 0
333 15 4 -0.1268 6.361766419096624 5.363494811828465 15.978927791019709 1 1 0
516 15 4 0 7.503027237627221 6.146592108446064 16.301639327843844 1 1 0
526 13 5 0.053 3.9986299999901567 7.379720385385073 15.082195377478156 0 0 0
16 1 5 0.1268 8.843013462870292 3.5613407423474794 18.666577932501106 0 0 -1
513 15 5 0.053 8.919808193283039 7.4050178666064 15.132157879678644 1 1 0
515 15 1 -0.106 8.737163184116522 6.319175708311075 15.400703562569827 1 1 0
514 15 5 0.053 8.515356043054338 5.8264265876214285 14.429502975166349 1 1 0
78 6 1 0.027 6.169099848523334 9.310777164105106 14.013942404153113 0 0 -1
523 13 1 0.027 3.3354198546134084 7.039583573076536 14.228533426095973 0 0 0
522 13 5 0.053 3.836206406708573 6.251182490943344 13.565183842631345 0 0 0
80 6 5 0.053 5.859911472107625 8.256769113435176 13.984574152592101 0 0 -1
476 15 5 0.1268 9.462676409628319 3.7670791745010495 15.354015036096472 1 1 0
475 15 4 0 9.995072795487859 5.776348300126702 15.98622240632681 1 1 0
231 9 4 0 3.112361744518746 1.5627343115483079 13.093568231431224 0 0 0
521 13 3 0.08 2.2903282593817833 7.989483124302696 13.920544794237042 0 0 0
76 6 5 0.053 6.885099880178015 9.702634698575466 13.222951507781566 0 0 -1
574 14 5 0.1268 9.783949435037854 8.621984804157698 13.314452497184432 0 0 0
524 13 5 0.053 2.12892485945439 9.005432089840923 11.967814920734007 0 0 0
525 13 5 0.053 2.1979899911013776 8.85909224826584 14.573923027028485 0 0 0
471 15 5 0.053 2.130018022240698 6.118509326432383 18.84518335767228 1 1 0
520 13 1 0.027 1.7011320567814707 8.092252428378618 12.47297517404577 0 0 0
246 12 5 0.053 7.214097609360231 1.8762395402243293 17.222551859043705 0 1 0
86 7 3 0.08 3.2485978027641518 10.365313518754817 18.921572006210937 0 0 0
233 9 4 0 2.110323686792121 3.4839786401396102 11.813455606905531 0 0 0
552 7 5 0.053 4.335512123156522 8.81097436585474 17.854418187762455 0 0 0
269 15 1 0.027 2.8217722745676905 2.8862395323948085 17.981081910830635 1 1 0
79 6 3 0.08 6.177936120785861 9.91434481070951 15.378226249973803 0 0 -1
81 6 5 0.053 5.748434193953837 9.26255241756743 16.17160206082543 0 0 -1
472 15 3 0.08 2.8945624769093046 4.10806560475543 18.760145531215795 1 1 0
77 6 9 -0.266 5.1267298266764065 10.20270330139902 14.361835987288885 0 0 -1
420 12 5 0.1268 10.037000789157657 2.3467952565879764 12.408432623459095 0 1 0
60 6 4 -0.1268 10.223471298281433 10.369186816649401 17.414978172310036 0 0 -1
466 15 9 -0.266 1.661676079625025 3.353390909530945 18.67986799515693 1 1 0
474 15 5 0.053 3.4097365349897824 4.026553515395408 19.70807513156346 1 1 0
186 6 4 0 10.039341544026692 10.114093302663754 19.779690931679813 0 0 -1
519 13 9 -0.266 1.9921435384187673 6.709002446121391 14.655483083495046 0 0 0
237 9 5 0.1268 2.429252081369329 2.045316845181281 15.062949724359644 0 0 0
518 13 5 0.053 1.8714399202995993 7.1713043728386054 11.877762637287212 0 0 0
90 7 5 0.053 2.681240683922307 10.169076092760925 16.88346772495248 0 0 0
478 15 4 -0.1268 10.250527208410178 4.4090461538810075 15.840952341778154 1 1 0
242 12 5 0.053 5.334226510322644 2.4654910535551084 15.408280512725913 0 1 0
58 6 4 0.0265 8.83674140905271 10.567129132354674 17.2272718894892 0 0 -1
181 6 4 -0.1268 8.020911019629601 10.432080356291834 18.37323969163935 0 0 -1
182 6 4 -0.1268 8.66839962288294 10.302360111830316 19.608126612065835 0 0 -1
51 6 5 0.1268 6.959625620868834 10.50598480868778 18.3872065064311 0 0 -1
9 1 10 -0.1595 10.272895394315789 1.512750576761751 19.512539189920194 0 0 -1
537 7 5 0.053 1.3781450659849455 9.918382151923081 18.12458478122074 0 0 0
561 7 1 0.027 2.225249809443882 10.52390209754038 17.82588534668961 0 0 0
245 12 5 0.053 6.269445492976561 1.4288426947762929 14.189272395168658 0 1 0
244 12 1 0.027 6.07695197082071 1.7265826936021718 15.31732704298491 0 1 0
207 14 5 0.053 19.387741038961384 7.771881490832008 19.569483785719527 0 0 0
206 14 5 0.053 16.0305049438038 9.482223968105957 19.579601967475217 0 0 0
562 15 5 0.1268 10.792643239379217 7.731205873468956 16.712907065085226 1 1 0
190 6 4 -0.1268 10.76144942591054 10.145506091278854 18.645959232449858 0 0 -1
477 15 4 -0.1268 10.899545555162778 6.591135073779119 16.618741467818538 1 1 0
61 6 5 0.1268 10.852363380889024 10.49810024955161 16.47139671978772 0 0 -1
208 14 1 0.027 16.512364913856825 8.469044467188414 19.320222882884284 0 0 0
209 14 5 0.053 15.789897611546278 7.646848346579441 19.360462257980753 0 0 0
230 9 5 0.1268 19.102321776757204 4.14831320815648 13.337341113525492 -1 0 0
232 9 4 -0.1268 19.34678184061592 4.035519574374941 12.288495106220084 -1 0 0
577 14 4 -0.1268 10.780958520488245 8.95736701153271 13.161067964328511 0 0 0
358 13 10 -0.1595 18.712284323021457 8.354598067995742 12.515483133674486 -1 0 0
480 15 4 -0.1268 11.33655362084431 3.811491733669929 16.44555551787755 1 1 0
353 13 4 0.0265 18.2796181149562 8.908878138342967 11.334325623329224 -1 0 0
488 15 5 0.053 16.000509111383437 3.270725874187093 18.881000268448464 1 1 0
494 15 5 0.053 17.40530488727489 3.031911847607376 16.73142008321568 1 1 0
234 9 4 -0.1268 18.343282285419168 4.494394151194905 11.411708103722292 -1 0 0
118 9 5 0.1268 17.478035516313096 4.72294653700742 11.975024674821638 -1 0 0
309 2 5 0.053 14.878815776099154 4.422707464303824 12.916829076562944 0 0 0
485 15 5 0.053 14.641625164274554 5.371905894995103 16.90634999395356 1 1 0
486 15 9 -0.266 16.96437305778774 4.828212516075453 17.804735937225338 1 1 0
490 15 3 0.08 15.827899909853933 3.9279455653272235 18.005658205899536 1 1 0
491 15 5 0.053 14.308062324581991 5.520800086381796 18.584534817483277 1 1 0
579 14 5 0.1268 11.478240291824482 6.951556245846937 13.686711883822214 0 0 0
578 14 4 -0.1268 11.775832183530769 7.992291325074677 13.433366265318064 0 0 0
492 15 1 0.027 16.70998738233481 3.817630813251592 16.853452945357034 1 1 0
315 2 5 0.053 12.442178819629913 3.867689707964457 11.484865406079525 0 0 0
312 2 3 0.08 13.426127235315226 4.299686695638583 11.227307106301431 0 0 0
487 15 1 0.027 14.539992791913399 4.7681259345941545 17.869435748589613 1 1 0
563 15 5 0.1268 12.744960843636125 6.730272795454089 17.712792705724297 1 1 0
310 2 1 0.027 14.570082114600195 3.750694025423095 12.059542750342779 0 0 0
419 14 5 0.1268 16.62644750158679 6.3819544838950035 14.135050082793526 0 0 0
460 14 5 0.053 13.74323233305041 6.254088217220418 13.68038875096321 0 0 0
418 14 4 -0.1268 16.19526647439377 6.953112064737413 14.939030305544543 0 0 0
479 15 4 -0.1268 12.103811082278117 6.014117068922406 17.13014022048465 1 1 0
482 15 4 0.0265 12.287707172280319 4.609955059236361 17.120155475288932 1 1 0
414 14 4 0.0265 16.38714927187325 8.185637054823149 17.002497242503814 0 0 0
417 14 4 0 14.947582437993539 7.594362525473669 14.655266832075206 0 0 0
416 14 5 0.1268 17.90788152627184 6.690354452114376 16.089409628236282 0 0 0
415 14 4 -0.1268 16.88740949568568 7.259041221701582 16.07460008403381 0 0 0
413 14 10 -0.1595 17.149618252653188 8.608611271567172 18.099338102052116 0 0 0
484 15 10 -0.1595 13.382448901024643 3.9252454151993352 17.73365433920481 1 1 0
455 14 4 -0.1268 14.434049604959752 8.398602309541069 15.691537657602565 0 0 0
412 14 4 -0.1268 15.12437201598219 8.767461521275388 16.812609715565856 0 0 0
481 15 5 0.1268 11.337543875351622 2.731747614743298 16.413866936592107 1 1 0
581 14 1 -0.106 14.1759645456517 7.249486086288181 13.426419668171734 0 0 0
493 15 5 0.053 16.295851266025362 4.042913876620512 15.896791573456262 1 1 0
549 14 5 0.053 14.806008967026402 7.189493269298092 12.527110400081245 0 0 0
580 14 4 0 13.085112706646687 8.295630302990581 13.142287496926269 0 0 0
377 2 5 0.053 15.43529273995222 3.6543923134975578 11.467166543733114 0 0 0
411 14 5 0.1268 14.622620004969129 9.455113919425951 17.509051713712708 0 0 0
454 14 5 0.1268 13.382045578524506 8.57836877223363 15.57648328152698 0 0 0
192 6 5 0.1268 11.801085480119085 9.952682202175238 18.76667463924934 0 0 -1
456 14 4 -0.1268 13.444216697875623 9.506585157671735 12.582063424216178 0 0 0
536 7 5 0.1268 19.04952099390554 10.338982109200094 15.900047291062567 -1 0 0
306 2 10 -0.1595 14.18990550710185 2.4865341135879575 12.61484483685732 0 0 0
307 2 5 0.1268 16.94963977492254 2.2766973593254844 12.240845104707393 0 0 0
2 1 5 0.053 12.565043249083802 1.61034725471402 17.915805720808073 0 0 -1
304 2 4 0.0265 15.077310175547105 1.8799459672607268 13.455214770518035 0 0 0
305 2 4 -0.1268 16.470059169993036 1.8982157192184443 13.21221110825918 0 0 0
457 14 5 0.1268 14.524868885553104 9.57967715506796 12.35741348320829 0 0 0
575 14 4 0.0265 11.140366116727602 10.225215244371977 12.692081975885221 0 0 0
350 13 4 -0.1268 17.675869111505566 10.169381699490101 11.32318403114794 -1 0 0
463 2 5 0.1268 17.943492411278903 1.634998123301236 18.181583919104078 0 0 0
453 14 4 -0.1268 12.515234903035903 10.468284682310001 12.387668016969283 0 0 0
303 2 5 0.1268 18.439716312563196 1.394887552337277 14.017342243171173 0 0 0
98 5 5 0.053 2.6104566816326593 19.024840029228162 19.744367015933065 0 0 -1
140 3 3 0.08 4.045751575013256 12.671532687967344 10.746598310284607 1 -1 1
564 14 9 -0.266 8.489800001286968 13.42811484085651 11.126836401346647 0 0 0
559 7 9 -0.266 4.509309942681155 10.90846709901548 18.386096894318932 0 0 0
247 12 3 0.08 7.086911521967718 19.70217386148334 16.322585007443855 0 0 0
59 6 10 -0.1595 8.375733456132348 10.72119596088293 15.944567731950363 0 0 -1
141 3 5 0.053 2.047402278161324 11.772497736747766 11.30230530762691 1 -1 1
142 3 1 0.027 2.526905456988917 12.761868119247856 10.989485906837313 1 -1 1
138 3 5 0.053 4.573312189610336 12.220532567092071 11.539948130111858 1 -1 1
546 5 5 0.053 4.58958538566886 17.659925266702317 19.653813626920282 0 0 -1
63 5 1 -0.106 2.4796818586101903 17.968765351562105 19.39379721199486 0 0 -1
444 9 5 0.1268 3.981772659458679 19.210208028420315 11.267035349263764 0 -1 0
461 12 10 -0.1595 8.846563402457871 19.53812983177874 14.58571753738967 0 0 0
253 12 5 0.053 9.110657156445072 18.945857723855344 16.61134082776693 0 0 0
201 9 4 -0.1268 2.6169591403605583 19.65441206757475 14.387494646375846 0 -1 0
545 5 1 -0.159 3.843865433290685 17.489100266412468 18.88687625501812 0 0 -1
511 10 5 0.053 7.272775835965834 14.601676876620473 19.631082222396625 0 -1 0
445 9 4 -0.1268 3.533856093579649 18.948594445794612 12.239272404559905 0 -1 0
510 10 1 -0.159 6.2416835326696525 14.293305684131102 19.400387885054712 0 -1 0
243 12 9 -0.266 5.8017447555807085 19.03146785124173 16.171104565538908 0 0 0
54 6 5 0.053 6.528872999273225 11.631279534921081 16.651787265337 0 0 -1
55 6 1 0.027 7.016218746845829 11.149787609476125 15.752542167210587 0 0 -1
576 5 5 0.053 4.076475250731564 18.10532583573795 18.03292260212461 0 0 -1
509 10 5 0.053 6.413272354050606 13.167691579112676 19.115186460551786 0 -1 0
404 9 4 -0.1268 2.731837332298133 18.367018993940945 14.930885703604575 0 -1 0
583 10 5 0.053 6.015182687588098 14.866994428829098 18.53937615537824 0 -1 0
451 14 5 0.053 7.544741057380001 12.264136318735867 12.715261497364919 0 0 0
567 14 5 0.053 7.180013397038572 14.058601000198577 12.66165772663151 0 0 0
459 12 5 0.053 8.078793657405466 17.873236484848267 15.595448801632452 0 0 0
144 3 5 0.053 2.4183483845520843 13.397556456273104 11.824172438852687 1 -1 1
160 11 5 0.053 7.59205135044264 18.005369246298628 12.303199132599417 0 0 0
52 6 5 0.053 6.923933229388494 11.943352800270645 14.932104595483445 0 0 -1
198 7 5 0.053 7.851439858803699 15.82862574752099 17.97135985982623 -1 0 0
159 11 5 0.053 7.338704675325388 16.28099879305971 12.543227920996785 0 0 0
572 5 5 0.053 3.817866921833422 16.40990709017221 18.675499956907924 0 0 -1
199 7 9 -0.266 8.154017677679828 15.10186704486113 16.059622954739673 -1 0 0
162 11 1 -0.159 7.091354654076589 17.12631658914125 11.894846369429859 0 0 0
194 7 5 0.053 9.347261500792069 16.529016003044827 17.17392719059741 -1 0 0
161 11 5 0.053 6.011779627257662 17.334041088617173 11.921903368743145 0 0 0
569 14 1 0.027 7.8088727724637454 13.294440595771698 12.384838660188219 0 0 0
568 14 3 0.08 9.250555121102252 13.615298413544688 12.35636732490576 0 0 0
397 9 4 -0.1268 3.5246738031673974 17.59961030327675 12.732504018926187 0 -1 0
400 9 4 0.0265 3.145885712631988 17.334722861198074 14.023868850759657 0 -1 0
402 9 10 -0.1595 3.0297673974973676 15.986485037297076 14.487470475563361 0 -1 0
406 9 1 0.027 3.5733874513775494 15.669313001197006 15.801686023302814 0 -1 0
405 9 3 0.08 4.220154428128954 14.289913548937752 15.934918646153928 0 -1 0
538 9 5 0.053 4.280990847804183 14.026588187333848 17.0058044851964 0 -1 0
541 9 5 0.053 4.075058521703433 12.14877414550379 15.155125555495001 0 -1 0
252 12 1 0.027 8.318939642458265 18.922889128732418 15.821399540059033 0 0 0
544 9 1 0.027 4.107570426102582 13.252460997862713 14.932632581343617 0 -1 0
548 9 5 0.053 3.597222370680422 13.45081856242035 13.994049012135207 0 -1 0
196 7 1 0.027 8.636494254832357 15.678102696144526 17.23144740459494 -1 0 0
200 7 5 0.053 8.490176309542122 13.433317313437357 17.405493936705582 -1 0 0
197 7 3 0.08 9.036003293092115 14.291269590724726 16.953519744731977 -1 0 0
408 9 5 0.053 2.752754108653863 15.656586495029611 16.46939363506839 0 -1 0
396 9 5 0.1268 3.793735067897145 16.82555929684738 12.011603928904611 0 -1 0
410 9 5 0.053 4.249173348197323 16.482352258073114 16.12207287393742 0 -1 0
543 9 9 -0.266 5.326454899699438 14.033354326463172 15.100190996877535 0 -1 0
398 7 5 0.053 10.052397404913982 13.325690176445791 15.40557118565086 -1 0 0
195 7 1 0.027 10.329447008502092 13.84086511424734 16.335880290846625 -1 0 0
565 14 5 0.053 9.399632018345413 14.724297647158822 12.533089998853713 0 0 0
462 12 4 0.0265 9.672460910757426 18.92262553559035 13.627981312773505 0 0 0
409 9 5 0.1268 2.410931370618691 18.02392250240575 15.909733713243659 0 -1 0
573 14 10 -0.1595 10.140889928611605 11.178616334736573 12.496946022855907 0 0 0
571 14 1 0.027 10.428090502474564 12.570900271551338 12.3982982467577 0 0 0
558 7 10 -0.1595 1.8280174434025405 11.855018342143598 17.71674554685906 0 0 0
539 5 5 0.053 1.676171129423671 17.945263305159873 18.615631412881157 0 0 -1
421 12 4 -0.1268 10.21276687850703 19.677042706373097 12.623665939479135 0 0 0
256 12 5 0.1268 9.662471754980208 16.808839783252516 14.472675131088323 0 0 0
255 12 4 -0.1268 10.105859393274406 17.519552749153135 13.73681995018656 0 0 0
147 3 5 0.1268 2.1458074614911493 15.311842145554987 11.508946237983343 1 -1 1
496 2 5 0.1268 14.915941932027904 16.358642640966554 19.53941501254459 0 -1 0
498 2 4 -0.1268 15.679388882143696 17.130458282928124 19.28111090754641 0 -1 0
35 3 5 0.053 15.735527325133194 17.669074023468585 10.602380332258337 0 -1 1
300 2 5 0.1268 13.485593478104335 19.371170688499795 14.609204762446867 0 -1 0
163 7 5 0.053 10.656995101762394 13.07596369826506 17.027210990611703 -1 0 0
570 14 5 0.053 10.974060881318712 12.862419662969245 13.307353486354131 0 0 0
260 4 5 0.053 14.522214900836131 11.19068674444917 18.860113523167694 0 0 -1
422 12 5 0.1268 11.240133930155398 19.736705212525685 10.770007972861334 0 0 0
394 7 10 -0.1595 11.381928907492778 14.79770001376806 16.11511414249221 -1 0 0
216 12 4 -0.1268 13.37779709769431 14.902562042845222 10.711076458921 0 0 0
149 3 4 -0.1268 19.588875626148 15.269163969990553 11.025946627594312 0 -1 1
27 3 5 0.1268 18.89906581097186 17.118245946702856 11.903003208478555 0 -1 1
219 12 1 -0.106 12.678730283073909 17.367037427939916 10.825966512834105 0 0 0
100 5 5 0.1268 18.84554963746166 16.21989652277581 19.47135016196427 -1 0 -1
440 7 5 0.1268 17.12139241592483 11.090104432971636 14.49254058958476 -1 0 0
215 12 5 0.1268 14.153261607412196 15.090851124675785 11.44082493352071 0 0 0
301 2 4 -0.1268 14.578884965282318 19.517995291924834 14.48346792129698 0 -1 0
25 3 4 -0.1268 18.7280801778062 16.35712181855357 11.151507340371454 0 -1 1
423 12 4 -0.1268 11.134410343516295 19.11482498156956 11.714387667503098 0 0 0
427 12 5 0.053 13.690149384109215 17.502347583692682 11.24516663229391 0 0 0
302 2 4 -0.1268 17.380550928574163 19.70047590130945 14.102634675472268 0 -1 0
566 14 5 0.053 11.153463034297443 12.801826668767049 11.639491617474807 0 0 0
551 7 5 0.1268 19.465460204816207 14.2911881914176 17.48263350420435 -1 0 0
4 1 3 0.08 12.145568805683647 18.36353324648321 19.48026396183572 0 -1 -1
554 7 4 -0.1268 18.950543560789068 13.603820244470606 16.781316429112763 -1 0 0
556 7 4 0.0265 19.353071449573395 12.24907552033774 16.821070784266244 -1 0 0
99 1 5 0.053 13.924529996572328 18.9151612823797 18.41295890276881 0 -1 -1
3 1 1 0.027 12.885509345610592 19.130240927734956 18.44537393247445 0 -1 -1
262 4 1 -0.106 14.325172246461706 12.240853198977415 18.626369703303954 0 0 -1
259 4 5 0.053 16.256676924210964 13.276494518766334 19.00809414700233 0 0 -1
34 3 5 0.053 17.28727215868538 18.43282286044407 11.072793994405627 0 -1 1
424 12 4 0 11.617719987354779 17.845410655438428 11.797766561306918 0 0 0
517 13 5 0.1268 17.628683178115157 10.659353506986772 12.27156763196887 -1 0 0
266 4 5 0.1268 12.20966101809585 13.669771940957933 19.00677925616549 0 0 -1
265 4 5 0.053 16.16131713449095 12.190834208749338 17.49960526137481 0 0 -1
264 4 5 0.053 15.41079876125962 13.834057765551128 17.447934586966188 0 0 -1
299 2 4 0 16.843384030506044 18.960011252078278 15.191411644495743 0 -1 0
452 14 5 0.1268 12.95140381674413 11.448699947463027 12.058267727823132 0 0 0
263 4 1 -0.159 15.642110667818327 12.93651478004985 18.143247157153386 0 0 -1
261 4 5 0.053 13.556218398981299 12.240201852876027 17.86036091021149 0 0 -1
298 2 4 -0.1268 15.453400935590636 18.870233830027214 15.34992998449759 0 -1 0
458 2 5 0.053 18.677237488255948 18.70293947000377 16.222017765833883 0 -1 0
395 7 5 0.1268 12.249397053046465 12.342502255757932 15.57954085043267 -1 0 0
220 12 5 0.1268 11.270349598256177 15.987916382015085 12.936592891587775 0 0 0
217 12 4 -0.1268 11.149802780169203 17.069860951458768 12.910528574447955 0 0 0
502 2 4 -0.1268 17.368325767916097 19.138708267735804 18.502422511266104 0 -1 0
295 2 1 -0.106 17.694656191635836 18.23021711308938 16.195798270194164 0 -1 0
293 2 5 0.053 17.77540119757065 17.216561265207652 15.845302511016419 0 -1 0
499 2 4 0 17.1142208079534 18.11960713607691 17.55707904997349 0 -1 0
441 7 5 0.1268 14.719157761515838 11.833258753233743 14.76467652616619 -1 0 0
560 7 4 -0.1268 18.69638023609329 11.330554734035879 16.007477174300085 -1 0 0
557 7 4 -0.1268 17.738102130988857 11.823003989276128 15.11085116266667 -1 0 0
429 7 5 0.053 16.438415645061205 12.992035308709607 13.029117430645362 -1 0 0
550 7 5 0.1268 17.95955433492037 15.12564165615567 15.742284003797257 -1 0 0
553 7 4 -0.1268 18.069387385286415 14.051035475954643 15.822092300250668 -1 0 0
555 7 4 0 17.440185153420884 13.151193989095505 14.971079843111339 -1 0 0
431 7 5 0.053 16.97794729317097 14.514414114184397 13.371090280822656 -1 0 0
434 7 1 -0.106 16.470051776658565 13.668907270747695 13.90396099482442 -1 0 0
437 7 5 0.1268 13.056896632724143 16.54793006886907 15.256726297488868 -1 0 0
433 7 5 0.1268 15.215342116033415 15.994253420852981 14.135504198179321 -1 0 0
296 2 5 0.1268 15.013711624982196 18.190742409270275 16.102238524815654 0 -1 0
495 2 5 0.1268 16.0821279625416 16.19795226041073 17.317752805843064 0 -1 0
442 7 4 0.0265 12.510920250453182 14.408677772667588 15.469266815094096 -1 0 0
438 7 4 -0.1268 13.360143753468773 15.50453214015089 15.081935430942599 -1 0 0
393 7 4 -0.1268 12.978899656699593 13.104643341262886 15.259079804044617 -1 0 0
439 7 4 -0.1268 14.231701967575788 12.839936441877935 14.806317540665498 -1 0 0
435 7 4 -0.1268 14.56931224705682 15.190651437349937 14.499674174219308 -1 0 0
436 7 4 0 15.116322442836891 13.901413453191065 14.427161199916753 -1 0 0
1 1 9 -0.266 12.189303402023091 17.932045253960744 18.103261294538832 0 -1 -1
497 2 4 -0.1268 16.279512087240587 17.09191819173629 17.954234297706808 0 -1 0

Velocities

45 -0.018074992641793505 0.005125456900076917 -0.014685744940994918
49 0.003220403674335268 -0.0053830906988037485 0.00023608806060264578
47 8.509349879703375e-05 -0.003970014437515864 0.006835846335646611
168 -0.0009644506596338167 -0.006956550254498081 -0.003330366290757226
174 0.002454324707471001 0.0020601805909079255 0.0013499474477611732
177 0.0022402733390219426 -0.0018305379139371947 0.002944891571706436
169 -0.0009576971319871361 0.0003498507513309059 0.0034484832059792853
176 -0.007126903604819004 0.006360357761004283 0.002207750356155328
124 -0.005072027573033425 -0.008851888871389098 -0.0028790280819628164
120 -0.016855635408918393 -0.010100732333389395 0.0077012083963266306
50 -0.005830419490490447 0.0109348145243962 0.010860876933119984
282 0.0034394499533615874 0.0046886372105886635 0.002103437389637206
359 -0.004253684160969487 -0.010265515680960942 0.019205994873835515
357 -0.003987554576112541 -0.00010996701305892478 0.002912294173151825
223 -0.002576017050364886 0.0050118485743615455 0.003795471455833817
222 0.004621695030611759 0.018061999954089216 0.0031281915078762343
354 0.002287905512219589 0.006183074467980728 -0.0012494678607528455
127 -0.010249889781293375 -0.01088966802131418 0.005054412305824923
56 0.003818734121593803 0.0024082422990616224 -0.002121545719217521
15 0.0056614365754355305 -0.004568466262554552 -2.3093013968394862e-05
224 0.014182022677946078 0.015863187420072443 0.008160677679714255
285 -0.004471788915011281 0.001224009355374301 -0.00011179939770260217
355 0.010421792093317965 0.0055783285739379835 -0.007556198623855895
193 0.00011278820477063848 0.006911103517895063 0.004169571594835035
340 0.00463758941281108 0.004874886463746712 0.010354425002304548
57 -0.01779168357411741 -0.018265607437872627 -0.013140267010721657
489 0.01234615526032312 -0.008372354472114289 -0.003001432079093277
280 -0.00509645043125015 -0.004722617842454616 -0.003400348209415312
283 0.0034637625625373717 0.003236346558270889 0.00042665313315919286
286 -0.002698929428388046 0.008168118803858926 -0.005107216926727076
287 -0.00940402953889786 -0.003352432154393542 0.006650147209746433
361 0.0022462064532388247 -0.01294052561758918 -0.0002659762206681165
288 0.0036030505473041443 -0.00538923280609004 -0.006106120346623724
281 -0.004557104033885204 -0.0052016972943300255 0.008582271084590103
167 0.0004924826590130636 -0.00930850135275954 -0.0005009473981749433
13 0.003825339914191251 -0.0004075301898772427 -0.001231265631527489
449 0.014163408885845706 -0.00032795049241252805 0.020563075746410107
289 -6.876811902842208e-05 -0.013713686137097638 -0.013054238585538305
132 -0.0024991767323249378 0.003439887821411317 -0.024223867804629404
360 -0.013917438288082376 -0.013961661278909472 0.014076069907977044
12 -0.0023695210722617004 -0.0004608189108274228 -0.003655567477690383
17 0.00011898300092165355 -0.002833592004810455 0.004047992705899504
362 -0.011958761065772825 -0.0192591952043377 -0.022893056960481818
279 -0.005528079597719591 0.0038541338662965003 -0.045531431283530946
277 -0.0024069903184834665 -0.0029485695459833903 0.00695529269651264
483 -0.0279271445288279 0.009571629084369964 -0.012577018160891863
172 -0.0036560946807272115 -0.021456769264667684 -0.007624892475201194
183 0.0009148946335962235 0.0008595778881584729 0.030553060729764957
447 -0.008079630521440064 0.002517488819239159 0.00412501172893391
448 -0.008719687192670505 -0.01294097199987364 0.02761219541086212
379 0.003143685243597225 -0.006836024374678723 0.008257011074975193
378 -0.026510548333821306 0.008342021987962458 -0.01402565385385726
154 0.00023527767174970812 0.004255604146372833 -0.022183196145552708
345 -0.00070694550314585 0.0005986223057547326 -0.002592640113275938
403 0.002535005761274505 0.0020643396815369247 0.0018177582017986642
401 -0.021437791610660978 -0.026557611564955074 0.0015412316965895993
349 0.00319891592406207 -0.00022666701448633537 0.000906750874265078
179 0.006433046364851562 0.013043857451803873 0.03335725280610824
275 -0.008436267642174759 0.010008374634252888 -0.0013731128533054544
273 0.016836544416850088 -0.011401210302904871 0.008177099532029662
236 -0.011871860080979303 0.01677634656461676 -0.005497807353410459
178 -0.0010770104935117699 0.00539672151872316 0.010883374841405004
508 0.0006083417005587075 -0.00432065326165886 -0.0036395312040541947
240 -0.023354831846034648 0.0010293762720797429 -0.0033817616119451548
428 0.0053212533676320825 0.06306902401822186 0.004560689143889343
366 -0.011250205693456996 -0.016107532248524847 -0.0031743085289027773
346 0.010116985853584271 0.010650228306048651 0.018932226546456175
18 -0.014462911670057732 -0.015201624921063436 -0.01042377103293232
235 -0.000987562968495047 -0.0014523148705482194 -0.0016312247021952667
187 -0.0015384405926549011 -0.004677668583060865 -0.008953096851285336
533 0.02557850348862825 0.01668341185883467 -0.005272518546889991
239 0.003421973419259461 -0.0016423774134179101 -0.0028191577267163135
180 -0.0029102448653342285 -0.00037757214022463904 0.0073175884937072
128 -0.0017814623381216027 5.602093646655614e-06 -0.005169200612415839
430 -0.010250421681696644 -0.001011941057020026 0.0026983917294409743
185 0.0002115420521748395 -0.0035169030931396393 0.0015439371716364813
134 -0.02325762343576507 -0.00892652576249226 0.023354480029474056
284 -0.021979998777421066 0.01219047104402101 -0.004911785647244852
507 0.0023271125705303882 -0.01309844404990097 -0.004423290094659052
527 -0.006993931770711243 0.001061658623579265 0.001062284663865206
529 0.0030213237495391875 0.0007788453045398232 0.006246907653808169
528 0.002027993542923451 0.008908550558519761 0.0012893203015565714
531 0.0002302150558072065 0.006966268875512989 0.002689169620944307
136 0.006049510879894515 -0.002714358320372587 -0.0012367371182324279
432 0.01091709394066218 0.0021092419160903884 -0.02563130721490036
380 0.0013327901159738457 -0.006347229849032863 -0.0036428190252853804
131 -0.004057944005421795 -0.008730742126650466 0.0007048759644906098
129 0.0022531868237111266 0.005430509844515476 -0.0005827446190395999
130 0.0009880825398165473 -0.0028269492476989673 0.0007392626633113771
135 0.009331266850434125 0.002325974076460666 0.001433154604156706
137 -0.018200289632721176 -0.020173039486577678 -0.010019297424184028
387 0.024660365409012317 -0.02327359223975413 -0.020541494331400005
388 0.003223697520051316 -0.004262290327808289 -0.008277172952436044
335 -0.02016864022180631 -0.03079548936494369 -0.011299545354244472
392 -0.0023684855161909555 0.004828993457657785 0.0025788700922124114
291 -0.0009596038621763037 0.0024471883008439525 -0.0006658395357280934
384 0.0029920343305393266 -0.00023417741967058286 -0.0045262563272666315
251 -0.0028307089675924995 -0.0008058107712106917 -0.009105520986349785
103 0.014362196816766582 0.005610313799462475 -0.01586250297560652
294 -0.003244656432547524 -0.0018728009226746689 0.0057002530025221715
249 0.01720118981921144 -0.000897654597484507 -0.00885344724139309
334 0.006331499238666312 0.0003672918027739318 -0.004773864526214422
386 -0.0014642939669952044 0.005710794799461838 0.010493458446371654
250 -0.0029964123817260574 -0.0024347501033081574 0.003079411081212168
348 0.008439599431557254 0.003920785359044585 0.0022616498607241774
212 -0.002864098007777938 0.025298539758234415 -0.0007342012534580523
213 0.0032969609083733824 0.0045272053919961485 0.004792388895204215
210 -0.006716283426305743 -0.004307591645873214 -0.0020614274897079315
123 0.004804668599008772 -0.0073693330613413075 -0.0018542844096947637
121 -0.002317224317951738 0.0030405550660013193 -0.0014104690536933338
119 0.010187412161915592 0.011955656412037925 -0.012034302015937665
297 -0.001764728137731452 0.0018004501583959774 0.00654959858279116
390 0.001996112974709924 -0.0043081697251837175 0.00173174768220772
122 0.025470348533481343 0.005879616808973166 0.0038044339443426157
292 -0.029560018234573653 0.01963438634712605 0.007492766116282555
191 -0.03253448977471265 -0.01575862758256502 -0.009806155486022716
125 -0.0036621982160914336 0.0018959532465534067 0.0006751074913865797
248 -0.00423365027585644 0.016080545459654733 -0.023293223036852537
382 -0.006667304478520966 0.017998601666682164 0.001916160478007631
241 -0.002776956660958911 0.0038339796500313447 -0.004307775702559484
133 -0.016186403932200027 0.0005315920525875449 -0.012656341651733325
391 -0.009422898835636207 -0.007358547791024671 0.011222931583973068
214 -0.01191969349518493 -0.012905028065666253 0.02251082052922204
211 -0.004163540756102351 0.004526823092159736 -0.007146411145293806
534 -0.0014160927997004743 -0.008362616421433388 3.620740862624605e-05
20 -0.008998534894828837 -0.014500568253566671 -0.007163792895372087
313 0.009721680818880274 -0.0056071380962414204 0.003869476806030133
102 0.02370337282148887 -0.007191204789650046 -0.005825877527106754
532 0.0031517738599731024 -0.0009082500183216698 -0.003506700343379753
26 0.005789872112037351 -0.001721609444652815 -0.005267602816732486
22 0.011142787960163788 -0.003178069775058151 0.000240915999296393
342 -0.0022308239137918393 -0.0009219502025517002 -0.004351749914571865
308 -0.01164191618460067 0.005182091058636792 0.019806699035031124
311 -0.002465895357558681 -0.0011985228319569498 0.0009497021467291271
314 0.009968900652885119 -0.024539733705216015 -0.008614629805934929
290 0.005446923855550567 -0.0118010605737903 0.0043353381626091494
352 -0.003817421904596254 -0.009193683979747536 0.008327566330206712
505 -0.02527682868782063 0.008351723265299904 -0.004286829217657051
407 0.017631857692729812 0.017219825352328445 0.005702528251517242
336 0.0017404616328475255 0.0424754751994655 -0.019185132974250094
337 0.002694239174935261 -0.003603186649956505 0.009013193051610878
126 -0.0002783594442916107 0.009233765780653304 0.0026540477531931824
238 0.0022862522805278413 0.0006098779681681675 0.0037904612603576445
53 0.01663996873020545 0.020949600496265177 0.00855177571758924
11 -0.009462508108050003 0.0011008395758849922 0.005098839999299906
170 -0.023040935286836872 -0.00682888279369458 -0.03180227043238336
318 -0.015953031734640636 -0.01567028807515556 0.02680805233844678
373 -0.0024543047898577686 0.011856811325485626 -0.043522404348935326
363 0.011011397222076396 -0.009863963716961676 -0.022831414923037023
356 0.009625932301905627 0.004252046134666252 -0.0044137064336120125
151 0.004343525487384143 0.011688175443568377 0.016190460730892885
150 -0.013864288679342964 -0.015007926428582683 0.008774042610830621
464 0.017842679251029465 0.002980630541419402 -0.010849021000445264
317 -0.0033443720775905407 0.003662849212850615 0.00035571921375610695
171 0.0035872060786930927 0.01754656507924877 0.008217640062969394
152 -0.0018638402960458142 -0.0029054872028785694 0.007189850591756706
43 -0.00503123037259234 -0.008139014918255616 0.00466168617812412
10 0.0040923697496418375 -0.0004166799601769211 -0.01886373002892625
41 -0.002461185361932842 0.009067012534643572 0.003900640716502587
40 -0.011320583983724694 -0.028486547931722034 -0.014387380760234313
540 -0.020663695253328115 -0.012263752035955871 0.031202877629340976
42 0.010966283718544667 0.01111704911257306 0.009781331315583853
344 0.00493010870526794 -0.0020600685490280114 -0.008968636244354506
351 -0.0035825902013916816 -0.0036465566842545922 -0.0005461049642495559
173 -0.005282056502018368 -0.005425845036645475 -0.005424272682716864
156 0.01660269520972504 -0.014504488648784458 0.006967574445968105
329 -0.004933452363677654 -0.0048989594369935685 0.013969692314580078
327 -0.002916771501701682 -0.0018254082587916666 0.003115466342574238
385 0.016570609918250098 0.0015110989529247506 0.024037511029887253
383 0.00237991839298346 -0.0003132733774713011 -0.0026735562639236634
325 -0.001067146167873863 -0.0011086705777082803 0.008631313887513255
326 0.0007644607536391616 0.0029156382348429813 0.009043555890036773
328 0.006181934899489111 0.003633780944743509 -0.0031040446116304965
322 0.0007400756936665866 -0.0020542509713654704 0.0013893322238453757
320 0.002963977175714471 0.004525301945190716 -0.001761695456444376
332 0.0076601905630172915 0.007914109176991261 0.00642293836965821
323 0.010874092510924006 0.007661836127122054 0.0019289857670290178
324 0.011142094452105544 0.02324355835748349 -0.009704705146787064
321 0.004670224556760243 -0.0026024773950402893 -0.0032262344522967904
319 0.0011774888818303227 0.0028654562146011213 0.007748857294944621
465 -0.00404216626821316 0.011725395215062129 -0.01064723647976608
65 -0.0032566227530621944 -0.003461646577796747 0.008801595410854358
542 -0.002273123422705795 -0.006018026976652765 -0.001470862606637974
547 0.0004459082262581327 -0.006017610805496673 -0.001812062009463077
512 -0.007049949235449335 -0.00576043173424592 -0.007972805233909334
389 0.006443991257459948 -0.007010171532997785 0.0292905264569154
347 -0.004457227724416648 -0.002415839562998642 0.006245974039468906
175 -0.0023842275171336393 -0.004694538587259374 -0.01401182858112802
87 -0.012353331786298698 -0.018281260689675925 -0.033381522638010176
381 -0.010617342878111363 0.0009968064664056338 0.020301037884682394
46 -0.025316664510066752 0.025403366454637963 0.007017657016135498
83 -0.006966349630810189 0.011578834536337953 0.0035196840768688497
85 0.006610109600909647 -0.00304504899618037 0.0024372563354933523
254 -0.01618861305959187 -0.005608152580626918 0.01612343678849277
341 0.0002011302284162091 -0.01152842222866118 0.02900298723425746
257 0.0037819074302677435 0.0004702994773560351 0.004042733463263609
258 0.0018445419086713772 0.009564071255186863 -0.01974895268788958
64 -0.0021332560440346275 -0.005634788836504458 -0.0035534824982275484
316 -0.02397091211501288 -0.0025534556679498673 -0.00352779999990249
110 0.001834972534893239 0.02122492222263504 -0.010915440895406983
166 -0.008271306350087505 0.014356349118907218 -0.010111716423504185
165 0.00294548543853784 0.010898311137157573 -0.0051956837104190365
399 -0.017683432290784944 -0.005937058720688308 0.010827224187947971
48 0.0026021192779086652 -0.00359983032037898 0.004265078827202848
164 -0.018399548500114382 -0.008042309210672212 0.014876677746491018
39 -0.004621737389691318 0.0013706484323962706 0.002194301971889762
365 0.024452172531854933 -0.019392475404089782 0.022372856441004695
370 -0.004717359683726346 -0.010503035047414894 -3.0461361941973343e-05
7 -0.006103683207868652 0.011259281114360068 0.028845176182246416
139 -0.002344845399490934 0.006902999213991241 0.004173236415766367
67 -0.003460887582909741 -0.002958713295522864 -0.005718280535819459
69 -0.00011317678755958108 -0.0062487344463566805 -0.0021865450457767034
143 -0.0003905353110360141 0.004746350682364938 0.0016935661303515094
44 0.01503827131360494 0.012663119966818065 0.007914588885948162
368 0.005170749656053621 0.0031122238176528407 -0.0017590013988950752
88 0.014644849639265867 -0.016421078899776 0.004421626651009125
74 -0.028020208204715666 0.008223933825726858 0.006972077610645541
189 -0.0011183744550105374 -0.003143428394578198 -0.005608666530037464
535 -0.0066634974830273985 0.0035263640930845294 -0.016765611598632792
530 -0.006545455269943318 0.004595309262347232 -0.008767782355274036
36 -0.012854613093970025 0.005736180647500283 0.01890251633958664
6 0.019823179484528865 0.015359117481866977 0.011061228827061927
66 0.006378050377290089 0.007516883550504639 -0.002023543868324268
145 -0.018463607959750217 -0.009417560733515054 0.0013311556038013066
148 -0.001130929741681508 0.012812791649391345 0.0021440526559066545
32 -0.004490323193666188 0.00020987440832660666 0.0024058567326065284
70 0.005020148737851449 -0.004551499287150037 -0.007036659647176528
364 0.004662674264528736 0.008210046396190392 -0.007364435141524596
203 -0.01950845089382242 -0.012537663282705419 -0.015504919078320663
372 -0.008807507178738764 -0.004064387907205299 -0.004715771726788045
376 0.013936552378814481 -0.008646354351179424 0.00018684269860471498
153 -0.0014654481303231156 0.007915589798038167 -0.0028438117411666054
72 5.4988080314558785e-05 -0.00029905975048157777 -0.001141182731158904
68 -0.006273819631675702 1.7530768626628856e-05 -0.0029343025288685013
426 0.019419570863045812 0.00023498946130125515 0.0213194942846928
62 -0.0011605570291728586 -0.008062761800240596 -0.02137777120960699
37 -0.005050782910633312 0.006362135005653359 -0.019174307810124497
338 -0.019860744732724877 -0.013005955386068765 0.02666194570801206
375 0.014786057811019156 -0.0004163877161584409 -0.03208133762351735
73 0.012387910183475221 -0.01626320687423901 -0.020694522536459748
367 -0.010036606620454296 0.002287910410860873 0.005743027802176282
96 -0.013494961267652669 0.008873411486346246 0.0013305622649094852
104 0.026265102585794925 0.012701754509507127 -0.0157154960904931
71 0.015188296798424254 -0.00022368323079547355 0.002610423504198629
374 0.0038402254656503404 0.0032656948964404496 -0.00293889439479997
155 0.006131422303267943 0.0037657761435037746 0.0023909608847636123
369 -0.0045935135070134395 -0.002295787982203034 0.0013865402471648495
371 -0.0065100369247046925 0.0018763994167136382 -0.005407889171003715
28 -0.019396519328962723 0.0007792939007987343 -0.0170156329278065
109 0.00041118499666902914 -0.0015071389190189463 0.0037640606206101332
111 -0.004430509650129513 0.006342765311170526 0.0018435136258187258
91 -0.000251864451446357 -0.0015453831994279843 0.007394171826731322
112 -0.00788225018457145 -0.007777265997774616 -0.0013158950351524806
92 0.008744716302117836 -0.003845918289192584 -0.004067367795802242
93 0.0014125167488307536 -0.003295835979340722 0.000450270949890368
94 0.0014376611807683443 0.008681010476598099 -0.009833547997142925
38 -0.018254969087637334 -0.0005553166802944131 0.004755714770452818
97 0.008384467992210978 -0.019867377700973767 -0.007205383736602498
95 0.006242297153372121 -0.005416538852919251 -0.0004376001082434272
106 -0.03388150410316109 0.022512665412644805 -0.038193505372311295
105 -0.0025265966373119427 -0.001537670980056801 -0.005409702337916725
89 -0.00714607860978644 -0.009182583834258674 0.003405536920025527
19 -0.002723886982628324 -0.004460047877200861 0.00017828906061092257
108 -0.00202815733808899 -0.0034570877091957926 -0.008699881944947202
506 -0.009237153184957521 0.019167578684709065 -0.02232197703952283
504 -0.000887217811081041 -0.00970275027266876 -0.0025231299556369253
107 0.0019618550811041644 0.006186781932555193 -0.006360277095963301
501 -0.006311574357289603 0.0011025324551680398 0.003052190609423373
75 -0.005183490946926708 -0.013916983044005642 0.012939412318851637
425 0.001337093831381805 -0.0003285472207919167 0.0032917959991990396
582 -0.013839559375370966 0.01256142780655243 -0.02286973537096775
188 0.00156582263241196 2.0391790348599534e-06 0.001635194384342878
184 -0.007095050924690952 -0.0006692861231213573 -0.019706195217757325
218 -0.00040263050399783426 0.002363763192017844 -1.117337058838871e-05
221 -0.016658139364437986 0.019200049877889556 -0.021544767289918797
33 0.004052338289201006 0.006430470569711164 -0.006056254335192002
24 0.0004287121732367408 -0.00012926413225307782 0.0011998561444596513
23 -0.0015622210949736998 -0.0021506351091350245 0.00023032905035049676
30 -0.0010780371721965522 -0.004901073099727133 -0.007838665517079593
267 0.003369777864606689 0.0014354779928613998 0.006686481674938279
21 -0.010911034859433287 0.011766803261397967 -0.019563715560972892
500 0.0020085288234214546 0.005413788737999872 0.0013177776458450816
268 -0.0022452592587916442 -0.004752861173490693 0.0008387903068549764
101 -0.012201892214937846 0.009363635905890996 0.0020177345378342643
146 -0.00387505969456655 0.00599597944346175 -0.005845437455548778
8 -0.011994791530167538 0.0017882995712465103 0.0014146147535034328
204 0.00028735044080242605 0.0056878673856259635 0.005629811233466109
202 -0.026771543246016986 -0.013529500631792021 0.006744181174806649
225 0.014369363478267335 -0.0025499060194286247 -0.01995840631166343
205 -0.001597883210665367 0.018102222906339012 -0.013093814445946966
503 0.0014992284170824224 -0.0012437826075032835 0.004639720736579734
343 0.0031873817526678707 0.0007065637083869029 0.0020044110096234025
29 0.0026701769086383944 -0.0011783934605682138 0.0021304686777986843
31 0.006968073456331231 0.00660455689725567 0.001609897922732651
5 -0.015950649649165444 0.0031314903827961166 0.0036151963505899796
339 -0.005807570028120656 -0.007958908128610187 -0.010412089675974092
450 -0.0061275250681731685 2.2169046369403066e-05 -0.009025942234934158
446 0.018815260826284652 0.026740617886930485 0.02657162469120603
278 0.0035448810206544445 0.004712432092858565 0.0019277126054833655
227 0.006329249701857464 0.016390713827042536 0.006196929055931724
116 -0.002083545706540616 -0.004906775624561482 0.0035270494081509666
276 -0.002167982628260498 -0.0031834325298050825 -0.00705324679589919
82 0.012534141607277172 0.004104364317397794 0.024011212302787507
271 0.020270066103068897 -0.019025194021467972 0.0013886350980832048
14 -8.726820270251804e-05 0.009795712174570386 -0.0025306557884166928
158 0.011452469038828673 0.0012795144054152153 -0.0043764738433773485
114 0.02629514847214317 -0.017118201410931084 0.020960253180482103
270 -0.01285099475731581 0.013255746156264805 0.004803736535710398
113 -0.012866701021283594 0.007322491052793628 -0.0040441468617849795
115 0.008323912967585894 0.002848518167082153 0.0016917491088520415
157 -0.016896800366483642 -0.00825642943542717 -0.0037947700357492137
274 -0.003727332022059479 -0.005089339148859673 0.0021999554379529404
84 0.00041185695377860817 0.004613942734450838 0.0013019916562368335
117 0.005745147983469545 -0.006944078783125763 0.0064712401073227874
467 -0.002050569149861942 0.004359506368092068 0.006896842043159592
226 -0.006700027581733914 -0.0027346398573942004 0.003361068181312219
229 -0.006761653001289914 -0.0038746510789004697 -0.0029252930711896586
228 -0.02328427258120282 0.0015265262346529282 -0.0036497353499746472
443 -0.00524679025417192 0.01981449561547873 0.0006249413148285924
584 0.01271696500129491 0.03048507968255275 0.0011564017155309232
468 -0.002446127773831162 -0.0025452750803683765 0.0062004097033394245
473 0.002465926917384368 -0.0060258024079542635 0.0037316711082925626
469 -0.012094829869136828 0.004300627137832137 -0.0021342486929514736
470 0.0009464402091626776 -0.002393936390641745 0.0057173632165450515
330 -0.008562128764825273 -0.010048043577853218 -0.004909122225318508
331 0.0038596914677141124 0.0023491862018818047 0.0020576699818000356
272 0.0024040646514874044 -0.011883280824307937 -0.0018766976172017022
585 -0.014536017776105453 0.0024146124155396214 0.0049156801493690306
333 -0.0004227502521510971 -0.0006469985401226802 0.002426898704296352
516 0.007568064695422091 0.006354520919477551 -0.0007901478417356597
526 -0.0008275605451622476 -0.015172489337694026 -0.005505278557230579
16 -0.02527799240586908 -0.012389360063605394 -0.009838504644524198
513 0.013539788465498295 -0.002524575545313356 -0.00037482332028652434
515 -0.0009094596147373405 0.0038497372665732862 -0.009609626385778924
514 0.007706419078597683 -0.017349907897372962 0.032696021434776894
78 -0.004859313775139593 0.0016267916889525797 -0.0009132892134334922
523 -0.003997058273418333 -0.008493032266224903 0.0021240257584069244
522 0.008053033706308457 0.013454436226111918 0.008906755623007408
80 0.016449827554644463 0.0035141120916843153 0.0016279659318028884
476 -0.02949307902518567 0.009353223324438593 0.010925223906006844
475 0.0003437346341484623 -0.005526633172022747 0.004289059074503405
231 0.0034162037373239996 0.00023044903844055865 0.007412934290138445
521 -0.003451352516175887 -0.0013413110628229166 -0.00043812954796264227
76 -0.007081924425636374 -0.015382354904033089 0.011858614323446781
574 0.0178682388826237 0.0017415806541882998 0.011144037624481523
524 0.018707005779466056 -0.0021826074318856224 -0.006566137487037989
525 -0.007870789038720042 0.006224849006490891 0.0063406558678399515
471 -0.004895535521757737 0.01197120170998626 -0.013154643680288809
520 -9.857762593041887e-05 0.002673333157091288 -0.0011765124723897213
246 -0.019310666820105685 -0.0038386158754365775 0.01116367350152168
86 0.005387389299781406 -0.000525760040597872 -0.0025420240263854493
233 0.0020726124708869602 0.0005259271062570207 -0.005702471635862524
552 -0.00932008565892681 -0.005815161647482676 -0.02768321259470083
269 -0.007553407458632031 0.0003381803213243443 0.004428300911062662
79 -0.0006073649479264443 0.003096030661563376 -0.0005668796579131549
81 -0.01113907697963556 0.0036363038336286258 0.00749414286802284
472 -0.003152781598267492 0.011567420874335729 -0.00638650652999085
77 0.008995922018441252 -0.0019478822069999905 -0.0007735844548141805
420 0.01532525454391559 -0.02483641702776075 0.03334815595821348
60 0.00434767875362257 -0.0007475876151761677 -0.011826335726382205
466 0.0032822750346081903 -0.0009366510927706112 0.006261079361757661
474 -0.026891030949115307 -0.011433476616355827 -0.007512073466607278
186 0.00293578993378778 0.007028177723980372 0.0010074567434842313
519 0.0015548570298655896 -0.004029614736181999 -0.0004040388426966569
237 -0.010602979325218202 -0.0033101730549252887 -0.036564945257196786
518 -0.004693787535308244 0.000416556766778375 0.01869041829667107
90 -0.022138545463309074 0.007460005775588188 -0.019527232228934047
478 0.001999694752036357 0.002174892504944089 -0.003965310281367483
242 -0.015374470000558648 0.02020601871071288 0.016600486999436646
58 0.0010488829422874537 -0.008571498597093906 0.0013714815427456112
181 0.003460350397660508 0.004333893769341537 -0.0003848114290270361
182 0.0007959220297182513 -0.0004973669625549704 -0.0025539838318004338
51 -0.004971919468196534 0.03126039997269958 0.0006340681524218969
9 -0.0008286371689786295 0.005514287024830771 -0.00451603282092687
537 0.007861275982918138 -0.02689546148630139 0.0011292805571006378
561 -0.0026662407788670107 -0.001789078943622125 0.0026406871370008612
245 -5.854354339995405e-05 0.0055268946159810475 0.008538385136936985
244 -0.003446036007680281 0.007068256507210518 0.011143188566947713
207 -0.019011942558711144 0.01787808500426708 0.0388707830400165
206 -0.006418872984065203 -0.024939839296681674 0.001020629818067569
562 0.008631755112409548 -0.008612226466944038 0.002306570029668788
190 0.0006351310238072703 0.003554720470332793 -0.0031230295705617045
477 -0.001134569158424142 -0.0007006280689409017 0.002254072899528577
61 -0.016530522633613303 0.010907472214231502 0.005324733340817836
208 0.0013513957481238706 0.00378215492488626 -0.007223950581016359
209 0.0060024453539563385 0.00950778177774284 -0.008438682765221129
230 -0.001520467271215379 -0.008833298832470209 0.0010993188798675028
232 0.000990484078217701 -0.007424333338638905 -0.0017347038556814129
577 0.00369004705159294 0.0061347427360809404 -0.006254621068427247
358 0.00541429651974034 -0.0033082178309246256 -0.004461136112783685
480 0.002243751166700814 -0.0021381965385007013 0.003895956718829172
353 0.005716155114968661 0.000745233024897041 0.005254015046843836
488 0.006552107928288689 0.03407117012037224 0.015444169025641068
494 -0.022903895644245456 0.015544754234615304 -0.004064117677051099
234 0.004359925205236157 -0.00958048546227237 -0.002412337075854061
118 0.029373913926277494 -0.007656671636981338 -0.014909851475116417
309 -0.010829249789635865 0.0015711225704198287 0.014101904982384587
485 0.009231671245206002 -0.009464711574570454 0.01774743219607635
486 0.004312210135834486 0.0014387101251010068 -0.002900757959214454
490 -0.006666897811955688 -0.003021889553931717 -0.006293384915365389
491 -0.03370674987891084 0.006735264624001496 0.002474014523402934
579 0.017067338474810876 -0.027063955162100667 0.005158357988529587
578 -0.00024837629025102815 0.0010283751373932634 0.0001220950289100824
492 0.004353917691644906 -0.008947004143356467 -0.004996233034524677
315 -0.030752745140086774 -0.02017580757120782 -0.0022249509888519065
312 0.004701494350570782 0.005766728062247306 -0.0001596905168976137
487 0.000693245500702684 0.0014200844491892562 0.0036660793843829183
563 0.005508662546555995 0.006242418350628829 -0.021051257217926677
310 -0.0008274793927994177 0.005496663451870779 -0.0078898619704901
419 -0.013739406086386534 0.0027434166524434042 0.015104245763735466
460 -0.0017874260878711706 0.009275145678715426 -0.004164352210899562
418 -0.0009478455068335931 -0.00368644997466714 -0.005247236388240043
479 -0.007043393189565989 0.00424515299280896 -0.0003071805995386041
482 0.002219481204079009 -0.0006924671626215057 -0.0003151159180635508
414 -0.0013421876435075841 -0.0027731957310308582 0.0037629697444395635
417 0.0021964523159002905 -0.004897282868682727 0.0036655284052841994
416 0.006609720379105758 -0.005542763254510903 0.010142218125660522
415 -0.002693364322240761 0.001142632769502721 -0.007233408719330698
413 -0.0008785011394765514 0.0023595018023168995 -0.004355935882612108
484 0.00813472619093303 -0.0011343293930277593 0.007386389229100993
455 0.008761640732871726 -0.004172616379994118 0.0008521425324412233
412 -0.006380807610493317 0.0032791139277829847 -0.006077522193872039
481 0.006919246773083432 -0.006934871314583124 0.009456227815102698
581 -0.007987232190391472 -0.0045923280754565105 -0.006219196742307014
493 0.011280537614519288 0.012273260062683011 0.02135571725871496
549 -0.004105292441057331 0.01374844144151312 -0.00148429213448085
580 -0.0017928900737067938 -0.003162140628998074 -0.010036610454891834
377 -0.022406014629126114 0.031100103812883848 0.0006327279807202417
411 0.036275621322465694 -0.02292244697646217 -0.014801723578198008
454 -0.014988725893941342 0.0030949943026416533 0.0004710527477568535
192 -0.008456298595482385 0.015496125719734218 0.03381178108769361
456 -0.0010324971202570487 0.0028104894042900747 0.0024277967765016437
536 0.01602632235868485 -0.007174698856118206 -0.011912440467117135
306 -0.0008998418898527169 0.004755551751351971 -0.0006427509519815641
307 -0.0032918521279590492 -0.0012300246564024557 0.01919021536914143
2 0.01773277069836434 -0.029287702643918945 0.01712992826614998
304 0.003175619166521462 -0.0032648589668730237 0.0014959037907103863
305 0.0009798141273420402 -0.0011850309035934693 0.003737232430270884
457 -0.01304961869957098 0.0022047672776671235 -0.005197182424428958
575 -0.0031873084894421125 -0.007972437251665207 0.00466670843050873
350 -0.0017485364406025939 0.002471175638336683 0.0010253416319238981
463 0.015178564288759605 -0.005303410615892325 -0.0019822808209431246
453 0.0018215753698198603 -0.0025114326989245472 -0.002594298471163788
303 -0.011068842649581316 0.006921530426986042 0.005478080219261783
98 0.01847284860984043 -0.013792367929144131 0.01659663967466405
140 0.002432985637610758 -0.0028929828125678517 0.0014458810974969912
564 0.007605034527687783 0.0022097769709967267 0.00035314436683157055
559 0.005087285560460389 0.002375455061528518 -0.00041933417784769
247 -0.0030071046198059917 0.002947039479030636 -0.002117580540807787
59 0.0035668957113981453 0.003519126589341836 0.002384320628410315
141 -0.013418375632450191 -0.0044146939577446795 -0.0011624567413059356
142 -0.001360554979096873 0.007416703684155273 -0.005871106246939322
138 -0.026843109731113268 0.0086973740232626 -0.021812249148600308
546 0.01110114946889951 -0.017321071844005807 0.017084228360503197
63 -0.00286681952781124 -0.004635289658954058 0.004686280563207707
444 0.0014405976465007905 -0.0057099619300651815 0.02173344806142592
461 0.0033422790963759134 0.005091336810498809 0.001923285424653207
253 -0.006514304257010422 0.027416019047991718 -0.010868556978685709
201 -0.004575666411738988 -0.001240041037912349 -0.004436783628774772
545 0.007292017642220051 -0.001164791420166916 0.0036058517675695246
511 0.00680445299599123 0.011658109131736016 -0.018701699092620407
445 0.009158080255763097 -0.001601366697523628 -0.00429363246535085
510 0.007356753625264039 -0.0027608675157819425 0.008035404588228467
243 -0.007269849246938542 -0.009432201096357838 -0.0021306763814587424
54 0.021201774568687496 0.007210469627584181 0.001627705949926389
55 -0.0007476660561719446 -0.00908998914445807 0.0004265106349184291
576 -0.013521811231148725 -0.005695946346260538 0.009232913672810797
509 0.0028054900796643705 -0.0003155261545958769 0.018825287564872315
404 -0.0006781130147726806 -9.832818348337027e-05 -0.0029521837136923133
583 -0.0026009818604428923 0.015904170295288397 0.0018001517362183303
451 0.00014135018458478576 0.02367865462359124 0.015981944899154894
567 0.0007357446127214587 0.0003058006293175178 0.014530850065045642
459 0.012134916264558229 0.011963400150918567 0.005418563699197141
144 0.01740273803057913 0.000854505245380601 0.0060960589069210475
160 0.004911766617772107 -0.01508401307725447 -0.005440928438031909
52 -0.02459283367132592 0.024497646720800383 0.00017382669588507406
198 0.0003652780400148916 0.0013878592335415613 -0.005652624467119797
159 0.008176742530886915 0.0033262352645247284 0.006783569216065372
572 -0.031116712059313312 -0.01932565591030585 -0.021884615394035543
199 -0.0028033294733266437 0.003029110086063874 -0.004418506159569332
162 0.0011657093605008137 -0.006528992655303871 0.0002958088745195736
194 0.012402155034860059 0.0058591864074441155 -0.004742120251438511
161 0.018050680199970914 0.011314504387088562 -0.005509608441811626
569 0.004469792946165164 -0.002337694027013884 0.004275419362065756
568 0.0036837970537920905 0.005213743951592194 0.004112972414225737
397 0.008261829215562929 0.0009062517421935515 -0.0060845672035616145
400 -0.0017700686023751726 0.005834403006338795 -0.0016616683363754145
402 0.01237870341465416 0.0014827967618020724 -6.39878532593883e-05
406 -0.007095911502581444 0.010518922374417955 0.0029460789689311415
405 -0.005346073673303615 0.004324184514472001 0.0010274121849381571
538 0.0032678182418167242 -0.025537557441257793 -0.014167055352946193
541 0.021052701890598165 0.001786169878328958 0.01817060773339586
252 -0.0038021362907633654 0.0006235747687954637 0.0013342224856030909
544 -0.0007684259865221346 0.0008807979046157336 -0.0008440795480561974
548 0.004503921795258947 -0.0162118401442087 -0.008867807052861448
196 -4.66873304410612e-05 -0.008499215618006243 -0.0042379251028497366
200 -0.01012975264013556 -0.012535864917817562 0.001884278994346025
197 0.0035477361331456105 0.004563087218666665 -0.004286388822922633
408 0.012978034049798142 0.02446378411809232 -0.015666006058491503
396 0.02644394840200374 0.022449843438573723 -0.005966527447150455
410 0.0011570101585491946 -0.005502855515589177 0.0117637443409347
543 -0.006517870188328865 0.013592235198042936 -0.0002820503961219946
398 0.0013621258962642616 -0.030956694488110986 -0.01937678792460396
195 0.00011772427967401198 -0.005175733595655185 0.0022859654483980037
565 -0.011353950994371394 -0.026019163599037703 -0.017338017666455447
462 0.00448300390619826 -0.00586612935583073 -0.0029154499239991845
409 0.007925842474345404 0.0019356220001066878 -0.01149370952031478
573 0.0007974707682983608 0.0014229612331969751 -0.0009388128508589557
571 -0.0027094294172217127 -0.0007889777841980276 0.007799113097120127
558 0.0052910830392169615 -0.0016892691713700147 -0.0041551100998752704
539 0.006903961463702203 0.0010397213087362353 0.00978580586196086
421 0.004495961398531836 0.003618501124020898 0.005840493762359831
256 -0.03736455975570982 -0.01638951363138368 -0.0184407699488837
255 0.001346732883809539 -0.0024064341040804277 0.0014017648666932675
147 -0.0020687713053354644 -0.009435310304949157 -0.000615082467433916
496 0.008310349682448759 -0.007068182100841867 0.006685349561603898
498 -0.006430309011733041 -0.010567298263668182 0.0030208790186641117
35 0.017135244916521727 -0.0019200703120219524 0.00817675202004186
300 -0.042106879143103196 -0.008568621910002407 0.009699721885878131
163 -0.007761153262422378 -0.01696949844779806 0.005172823882456844
570 -0.020685486300578593 0.018351817323515946 0.024145980203605664
260 0.002474869839015835 0.019612097262349987 -0.03024783355347059
422 -0.001310213006077009 0.00919708837773468 0.006900530184465347
394 0.002857138893856104 0.005171662125484787 -0.00181741271611642
216 -0.007156574930304627 0.00617439892353782 0.0022283621213752373
149 -0.0013365151709806853 0.0031652229918784753 -0.007892583298850913
27 -0.008749357403248203 -0.013242664383548474 -0.025571522113161674
219 0.0005559790877642455 7.818258780674747e-05 -0.006574810569441815
100 0.012955336860939675 0.005203080196621608 -0.011786181676459855
440 -0.0019985567889529376 0.01916612554456354 -0.004717275490311753
215 0.0066048194716109695 0.03406322176938842 0.018319903745684853
301 -0.0012127755979159695 -0.0014841104432325907 0.0004885963810334068
25 0.0006722712135298546 -5.8782359030661105e-05 0.001776133726133603
423 0.0057886728395047495 -0.0033478007918277433 -0.0033717655046035734
427 -0.00890671549335097 -0.007721227142365406 0.010604616087106474
302 -4.8234830376735796e-05 -0.005298348386295454 3.540592914165408e-05
566 -0.019177518419152922 0.03610939539516504 -0.011593936032924962
551 0.01811518242916377 0.028020467485995116 -0.01418899807517146
4 0.0012484896157112949 0.0038597959284518866 0.006680858298795115
554 -0.0033859386699065875 -0.00255655429415837 -0.008908884099769433
556 -0.0033473935977363957 0.003553274863305984 0.007802783366391254
99 0.012695696379268772 0.032069512164830186 0.007686420892695332
3 -0.005243520003305451 0.004263103787919342 -0.001986527783292443
262 -0.0017936881974793075 -0.00014477311169238443 -0.000894991727045601
259 0.028992306636155644 0.0009251621277280817 0.02826115403763926
34 -0.01959453049003025 0.014439344068510319 -0.03887365572672762
424 -0.0027920975028449127 -0.003580316037498467 0.0016080869600712995
517 0.009997735563425945 0.026584458155557437 0.005396826857064843
266 -0.027907166411070026 -0.020177758059477028 -0.014146840478482676
265 -0.0056371421500757855 0.0014808130252426186 -0.01977755747368188
264 -0.02007419598636977 -0.015474235470664073 0.001626942636496742
299 0.005078724347872248 0.004174727021374314 -0.003727601012415242
452 0.02124153481517011 -0.0020731824092925484 0.02256875115493199
263 -0.00017642488928671068 -0.005283549915894466 -0.009414012611643263
261 0.03806397156211299 -0.012463844487712275 -0.007205616872621744
298 -0.0051090219038841134 0.00027855901359488634 0.0004286889206887787
458 -0.005061684927967354 0.013735377336767586 0.002232424295119783
395 -0.007197856662622443 0.0082504397601979 -0.017831663183542356
220 0.012979716359535749 0.0038438591368945355 -0.005821604488864565
217 -0.009008727264303915 -0.0046381816601811215 0.005167704660498837
502 0.002131896884849402 0.002168601288986845 -0.0070916988442424
295 0.006164803637833347 -0.006306193762256124 0.00013522132620541003
293 0.014763253585434214 -0.01693962919660371 -0.004961802876745854
499 0.001738840525111207 -0.0029348390964860473 -0.006482316747173331
441 0.03379591572152628 0.01697639982618216 0.016764177455751757
560 0.0018933407438699549 -0.0004800205766736113 -0.004942490992934692
557 0.006261398817708566 -0.002973404777723488 0.009387389778505721
429 -0.0029274073464102446 0.002704383953002798 -0.018075972035348584
550 -0.012590341797386388 -0.007116299570278745 0.012914531649709165
553 0.0024934011146820175 -0.0020898861762020837 0.003902852968454762
555 0.0015601719801549366 -0.0013827929939728173 0.0011384100463125819
431 -0.0171307313106687 0.0006093215733813092 0.026655037313169604
434 5.81972050976962e-06 -0.009026239660773275 -0.0033983407201283113
437 0.0037193398834157116 0.0144042546536254 0.0027475300869625654
433 -0.0011359408028833134 0.0015231686534619494 0.0156573840489063
296 0.001733271104072992 0.019102429223274063 -0.006586153679066402
495 0.02079081395597701 0.007053532492232878 -0.019251111037609188
442 -0.0006583690676248636 0.007935420554109318 0.006123672725034931
438 0.0009636621976565138 0.0019329854319022938 -0.012658571332389535
393 0.00043948370022890086 0.004287001090309991 -0.004900894828722267
439 0.0041645756425372745 0.004089537781728476 -0.004675817394538643
435 0.0006668787906505343 0.0026140929891861064 -0.005601589681603966
436 0.0033497330894944224 0.0017458104402155506 0.002003472612858204
1 -0.0015203406572566395 -0.003044663877241047 0.008032953245761632
497 0.0087707241304105 0.0003209487099794154 -0.0009024305678031254

Bonds

1 13 49 47
2 14 49 50
3 13 47 174
4 14 47 45
5 8 168 169
6 3 168 43
7 5 168 167
8 5 168 172
9 16 174 169
10 13 174 176
11 13 177 49
12 13 177 124
13 13 176 124
14 14 176 120
15 14 124 127
16 4 282 280
17 1 282 287
18 5 282 279
19 5 282 483
20 17 359 357
21 3 223 379
22 7 223 193
23 5 223 222
24 5 223 224
25 15 354 357
26 13 354 356
27 4 56 15
28 4 56 177
29 5 56 132
30 5 56 57
31 13 15 13
32 17 355 357
33 13 280 283
34 15 283 285
35 13 283 281
36 17 286 285
37 5 287 289
38 5 287 288
39 5 287 489
40 4 361 356
41 5 361 363
42 5 361 360
43 5 361 362
44 13 281 278
45 13 13 11
46 14 13 53
47 17 449 285
48 16 12 9
49 13 12 14
50 13 12 11
51 13 17 15
52 14 17 18
53 13 277 280
54 14 277 275
55 4 447 281
56 5 447 446
57 5 447 450
58 5 447 448
59 12 379 193
60 11 379 378
61 4 345 349
62 1 345 403
63 5 345 346
64 5 345 340
65 5 403 401
66 5 403 407
67 5 403 399
68 13 349 354
69 13 235 239
70 14 235 236
71 4 187 186
72 4 187 185
73 5 187 189
74 5 187 183
75 14 239 240
76 14 180 179
77 13 128 180
78 14 128 126
79 8 430 380
80 3 430 379
81 5 430 432
82 5 430 428
83 13 185 136
84 13 185 180
85 7 528 527
86 3 528 531
87 5 528 507
88 5 528 529
89 12 531 527
90 11 531 533
91 13 136 135
92 14 136 191
93 8 131 129
94 3 131 251
95 5 131 134
96 5 131 133
97 16 130 129
98 13 130 128
99 13 135 130
100 14 135 137
101 13 388 392
102 14 388 387
103 14 392 335
104 16 384 380
105 13 384 388
106 12 251 125
107 11 251 248
108 7 294 291
109 3 294 123
110 5 294 297
111 5 294 249
112 13 334 390
113 13 334 392
114 13 386 384
115 14 386 382
116 3 250 251
117 7 250 125
118 5 250 103
119 5 250 102
120 13 348 352
121 14 348 284
122 7 210 213
123 3 210 211
124 5 210 207
125 5 210 212
126 12 123 291
127 11 123 292
128 3 121 123
129 8 121 241
130 5 121 119
131 5 121 122
132 13 390 386
133 14 390 391
134 12 211 213
135 11 211 214
136 3 532 531
137 8 532 534
138 5 532 508
139 5 532 530
140 16 26 534
141 13 26 22
142 13 26 32
143 13 22 23
144 14 22 20
145 13 342 348
146 7 311 313
147 3 311 312
148 5 311 308
149 5 311 314
150 14 352 290
151 4 337 342
152 4 337 334
153 5 337 338
154 5 337 336
155 16 238 241
156 13 238 234
157 13 238 239
158 14 11 10
159 17 318 317
160 13 356 351
161 17 464 317
162 17 171 173
163 4 152 322
164 5 152 154
165 5 152 151
166 5 152 150
167 12 43 39
168 11 43 170
169 3 41 43
170 7 41 39
171 5 41 42
172 5 41 40
173 17 540 542
174 13 344 349
175 14 344 341
176 15 351 173
177 17 156 327
178 17 329 327
179 1 383 328
180 5 383 512
181 5 383 381
182 5 383 389
183 15 325 327
184 13 326 323
185 13 326 325
186 4 328 326
187 5 328 385
188 5 328 332
189 13 322 325
190 15 320 317
191 13 320 322
192 13 323 321
193 14 323 324
194 13 321 320
195 4 319 321
196 1 319 510
197 5 319 316
198 5 319 465
199 15 65 542
200 13 65 67
201 17 547 542
202 13 347 344
203 13 347 351
204 17 175 173
205 1 85 89
206 5 85 110
207 5 85 83
208 5 85 87
209 3 257 140
210 7 257 139
211 5 257 258
212 5 257 254
213 13 64 65
214 4 165 347
215 5 165 164
216 5 165 166
217 13 67 70
218 4 69 67
219 5 69 46
220 5 69 44
221 5 69 48
222 12 368 370
223 11 368 366
224 17 74 72
225 13 66 64
226 14 66 100
227 13 148 146
228 14 148 145
229 14 32 535
230 15 70 72
231 3 372 368
232 7 372 370
233 5 372 375
234 5 372 373
235 17 153 155
236 13 68 66
237 13 68 70
238 17 37 155
239 17 73 72
240 8 367 369
241 3 367 368
242 5 367 364
243 5 367 365
244 17 96 95
245 4 71 68
246 5 71 75
247 5 71 101
248 13 374 371
249 14 374 376
250 16 371 369
251 13 371 188
252 15 109 155
253 13 109 112
254 13 111 268
255 13 111 91
256 15 91 95
257 13 112 91
258 4 92 112
259 5 92 93
260 5 92 94
261 5 92 38
262 17 97 95
263 3 105 108
264 7 105 107
265 5 105 104
266 5 105 106
267 4 89 111
268 5 89 225
269 5 89 62
270 12 108 107
271 11 108 19
272 8 504 501
273 3 504 108
274 5 504 506
275 5 504 582
276 13 425 374
277 14 425 426
278 13 188 216
279 14 188 184
280 13 218 425
281 13 218 216
282 13 33 32
283 14 33 36
284 13 24 148
285 14 24 28
286 13 23 30
287 14 23 21
288 13 30 33
289 13 267 109
290 16 500 501
291 13 500 498
292 13 268 267
293 14 268 266
294 16 146 143
295 13 146 149
296 3 8 4
297 8 8 9
298 5 8 6
299 5 8 7
300 1 204 71
301 5 204 203
302 5 204 202
303 5 204 205
304 13 503 500
305 14 503 505
306 13 343 342
307 14 343 339
308 13 29 24
309 13 29 25
310 4 31 30
311 4 31 29
312 5 31 35
313 5 31 34
314 15 278 116
315 17 227 116
316 13 276 277
317 13 276 278
318 13 14 17
319 14 14 16
320 17 114 116
321 1 113 274
322 5 113 115
323 5 113 158
324 5 113 157
325 4 274 276
326 5 274 117
327 5 274 273
328 3 84 86
329 7 84 559
330 5 84 552
331 5 84 82
332 4 229 233
333 4 229 231
334 5 229 228
335 5 229 226
336 3 473 472
337 8 473 467
338 5 473 471
339 5 473 443
340 16 469 467
341 13 469 470
342 13 469 331
343 13 470 585
344 14 470 468
345 14 331 330
346 13 585 516
347 14 585 584
348 13 333 331
349 14 333 272
350 13 516 333
351 4 515 516
352 4 515 475
353 5 515 513
354 5 515 514
355 7 78 77
356 3 78 79
357 5 78 80
358 5 78 76
359 7 523 519
360 3 523 521
361 5 523 522
362 5 523 526
363 13 475 477
364 13 475 478
365 13 231 201
366 13 231 445
367 12 521 519
368 11 521 525
369 3 520 521
370 8 520 358
371 5 520 518
372 5 520 524
373 12 86 559
374 11 86 88
375 13 233 235
376 7 269 466
377 3 269 472
378 5 269 271
379 5 269 270
380 12 79 77
381 11 79 81
382 12 472 466
383 11 472 474
384 13 60 190
385 14 60 61
386 13 186 182
387 14 478 476
388 16 58 59
389 13 58 60
390 13 58 181
391 14 181 51
392 13 182 181
393 14 182 178
394 8 561 558
395 3 561 86
396 5 561 537
397 5 561 90
398 7 244 243
399 3 244 247
400 5 244 242
401 5 244 245
402 13 190 186
403 14 190 192
404 13 477 479
405 14 477 562
406 3 208 211
407 8 208 413
408 5 208 206
409 5 208 209
410 13 232 233
411 14 232 230
412 13 577 578
413 14 577 574
414 13 480 478
415 14 480 481
416 16 353 358
417 13 353 350
418 13 353 352
419 13 234 232
420 14 234 118
421 12 490 486
422 11 490 488
423 14 578 579
424 3 492 490
425 7 492 486
426 5 492 493
427 5 492 494
428 12 312 313
429 11 312 315
430 8 487 484
431 3 487 490
432 5 487 485
433 5 487 491
434 3 310 312
435 8 310 306
436 5 310 309
437 5 310 377
438 13 418 417
439 14 418 419
440 13 479 482
441 14 479 563
442 16 482 484
443 13 482 480
444 16 414 413
445 13 414 415
446 13 414 412
447 13 417 455
448 13 415 418
449 14 415 416
450 13 455 412
451 14 455 454
452 14 412 411
453 4 581 417
454 4 581 580
455 5 581 460
456 5 581 549
457 13 580 456
458 13 580 578
459 13 456 453
460 14 456 457
461 16 304 306
462 13 304 301
463 13 304 305
464 14 305 307
465 16 575 573
466 13 575 577
467 13 350 343
468 14 350 517
469 13 453 575
470 14 453 452
471 12 140 139
472 11 140 138
473 12 247 243
474 11 247 246
475 8 142 143
476 3 142 140
477 5 142 141
478 5 142 144
479 4 63 64
480 1 63 545
481 5 63 98
482 5 63 539
483 13 201 404
484 14 201 237
485 5 545 576
486 5 545 572
487 5 545 546
488 14 445 444
489 5 510 583
490 5 510 509
491 5 510 511
492 3 55 79
493 8 55 59
494 5 55 54
495 5 55 52
496 13 404 400
497 14 404 409
498 1 162 165
499 5 162 160
500 5 162 161
501 5 162 159
502 3 569 568
503 7 569 564
504 5 569 451
505 5 569 567
506 12 568 564
507 11 568 565
508 13 397 445
509 14 397 396
510 16 400 402
511 13 400 397
512 8 406 402
513 3 406 405
514 5 406 410
515 5 406 408
516 12 405 543
517 11 405 538
518 3 252 247
519 8 252 461
520 5 252 253
521 5 252 459
522 3 544 405
523 7 544 543
524 5 544 548
525 5 544 541
526 7 196 199
527 3 196 197
528 5 196 198
529 5 196 194
530 12 197 199
531 11 197 200
532 3 195 197
533 8 195 394
534 5 195 163
535 5 195 398
536 16 462 461
537 13 462 255
538 13 462 421
539 8 571 573
540 3 571 568
541 5 571 566
542 5 571 570
543 14 421 420
544 13 255 217
545 14 255 256
546 13 498 497
547 14 498 496
548 14 216 215
549 13 149 25
550 14 149 147
551 4 219 424
552 4 219 218
553 5 219 221
554 5 219 427
555 13 301 298
556 14 301 300
557 14 25 27
558 13 423 421
559 14 423 422
560 13 302 305
561 14 302 303
562 12 4 1
563 11 4 5
564 13 554 556
565 14 554 551
566 16 556 558
567 13 556 560
568 7 3 1
569 3 3 4
570 5 3 99
571 5 3 2
572 4 262 267
573 1 262 263
574 5 262 261
575 5 262 260
576 13 424 423
577 13 299 302
578 5 263 264
579 5 263 259
580 5 263 265
581 13 298 299
582 14 298 296
583 13 217 424
584 14 217 220
585 13 502 503
586 14 502 463
587 4 295 299
588 4 295 499
589 5 295 293
590 5 295 458
591 13 499 502
592 13 499 497
593 13 560 557
594 14 560 536
595 14 557 440
596 13 553 554
597 14 553 550
598 13 555 553
599 13 555 557
600 4 434 436
601 4 434 555
602 5 434 431
603 5 434 429
604 16 442 394
605 13 442 438
606 13 442 393
607 13 438 435
608 14 438 437
609 14 393 395
610 13 439 393
611 14 439 441
612 13 435 436
613 14 435 433
614 13 436 439
615 14 497 495

Angles

1 24 177 49 47
2 25 177 49 50
3 25 47 49 50
4 24 49 47 174
5 25 49 47 45
6 25 174 47 45
7 21 43 168 169
8 32 167 168 169
9 32 172 168 169
10 19 43 168 167
11 29 167 168 172
12 19 43 168 172
13 27 47 174 169
14 24 47 174 176
15 27 176 174 169
16 9 56 177 49
17 9 56 177 124
18 24 49 177 124
19 14 168 169 174
20 24 174 176 124
21 25 174 176 120
22 25 124 176 120
23 24 177 124 176
24 25 177 124 127
25 25 176 124 127
26 1 287 282 280
27 23 280 282 279
28 23 280 282 483
29 2 287 282 279
30 29 279 282 483
31 2 287 282 483
32 28 354 357 359
33 28 354 357 355
34 35 359 357 355
35 20 379 223 193
36 19 379 223 222
37 19 379 223 224
38 31 222 223 193
39 29 222 223 224
40 31 224 223 193
41 26 349 354 357
42 24 349 354 356
43 26 356 354 357
44 22 15 56 177
45 23 15 56 132
46 23 15 56 57
47 23 177 56 132
48 29 132 56 57
49 23 177 56 57
50 9 56 15 17
51 24 17 15 13
52 9 56 15 13
53 28 283 285 286
54 28 283 285 449
55 35 286 285 449
56 13 223 193 379
57 9 282 280 277
58 24 277 280 283
59 9 282 280 283
60 26 280 283 285
61 24 280 283 281
62 26 281 283 285
63 2 282 287 289
64 2 282 287 288
65 2 282 287 489
66 29 289 287 288
67 29 289 287 489
68 29 288 287 489
69 23 356 361 363
70 23 356 361 360
71 23 356 361 362
72 29 363 361 360
73 29 363 361 362
74 29 360 361 362
75 9 447 281 283
76 24 283 281 278
77 9 447 281 278
78 24 15 13 11
79 25 15 13 53
80 25 11 13 53
81 27 14 12 9
82 27 11 12 9
83 24 14 12 11
84 24 14 17 15
85 25 14 17 18
86 25 15 17 18
87 24 276 277 280
88 25 276 277 275
89 25 280 277 275
90 23 281 447 446
91 23 281 447 450
92 23 281 447 448
93 29 446 447 450
94 29 446 447 448
95 29 450 447 448
96 6 430 379 223
97 8 430 379 193
98 7 430 379 378
99 7 223 379 378
100 34 378 379 193
101 8 223 379 193
102 1 403 345 349
103 23 349 345 346
104 23 349 345 340
105 2 403 345 346
106 29 346 345 340
107 2 403 345 340
108 2 345 403 401
109 2 345 403 407
110 2 345 403 399
111 29 401 403 407
112 29 401 403 399
113 29 407 403 399
114 9 345 349 344
115 24 344 349 354
116 9 345 349 354
117 24 233 235 239
118 25 233 235 236
119 25 239 235 236
120 22 186 187 185
121 23 186 187 189
122 23 186 187 183
123 23 185 187 189
124 29 189 187 183
125 23 185 187 183
126 24 238 239 235
127 25 238 239 240
128 25 235 239 240
129 24 185 180 128
130 25 185 180 179
131 25 128 180 179
132 24 130 128 180
133 25 130 128 126
134 25 180 128 126
135 21 379 430 380
136 32 432 430 380
137 32 428 430 380
138 19 379 430 432
139 29 432 430 428
140 19 379 430 428
141 9 187 185 136
142 9 187 185 180
143 24 136 185 180
144 13 528 527 531
145 31 507 528 527
146 19 531 528 507
147 29 507 528 529
148 31 529 528 527
149 19 531 528 529
150 20 531 528 527
151 6 528 531 532
152 8 528 531 527
153 7 528 531 533
154 7 532 531 533
155 34 533 531 527
156 8 532 531 527
157 24 185 136 135
158 25 185 136 191
159 25 135 136 191
160 14 430 380 384
161 21 251 131 129
162 32 134 131 129
163 32 133 131 129
164 19 251 131 134
165 29 134 131 133
166 19 251 131 133
167 14 131 129 130
168 27 135 130 129
169 24 135 130 128
170 27 128 130 129
171 24 136 135 130
172 25 136 135 137
173 25 130 135 137
174 24 384 388 392
175 25 384 388 387
176 25 392 388 387
177 24 334 392 388
178 25 334 392 335
179 25 388 392 335
180 13 294 291 123
181 27 386 384 380
182 24 386 384 388
183 27 388 384 380
184 6 131 251 250
185 8 131 251 125
186 7 131 251 248
187 7 250 251 248
188 34 248 251 125
189 8 250 251 125
190 31 297 294 291
191 19 123 294 297
192 29 297 294 249
193 31 249 294 291
194 19 123 294 249
195 20 123 294 291
196 9 337 334 390
197 9 337 334 392
198 24 390 334 392
199 24 390 386 384
200 25 390 386 382
201 25 384 386 382
202 20 251 250 125
203 19 251 250 103
204 19 251 250 102
205 31 103 250 125
206 29 103 250 102
207 31 102 250 125
208 24 342 348 352
209 25 342 348 284
210 25 352 348 284
211 13 210 213 211
212 31 207 210 213
213 19 211 210 207
214 29 207 210 212
215 31 212 210 213
216 19 211 210 212
217 20 211 210 213
218 6 294 123 121
219 8 294 123 291
220 7 294 123 292
221 7 121 123 292
222 34 292 123 291
223 8 121 123 291
224 21 123 121 241
225 19 123 121 119
226 19 123 121 122
227 32 119 121 241
228 29 119 121 122
229 32 122 121 241
230 24 334 390 386
231 25 334 390 391
232 25 386 390 391
233 13 250 125 251
234 14 121 241 238
235 6 210 211 208
236 8 210 211 213
237 7 210 211 214
238 7 208 211 214
239 34 214 211 213
240 8 208 211 213
241 14 532 534 26
242 13 311 313 312
243 21 531 532 534
244 19 531 532 508
245 19 531 532 530
246 32 508 532 534
247 29 508 532 530
248 32 530 532 534
249 27 22 26 534
250 27 32 26 534
251 24 22 26 32
252 24 26 22 23
253 25 26 22 20
254 25 23 22 20
255 9 337 342 343
256 24 343 342 348
257 9 337 342 348
258 31 308 311 313
259 19 312 311 308
260 29 308 311 314
261 31 314 311 313
262 19 312 311 314
263 20 312 311 313
264 24 353 352 348
265 25 353 352 290
266 25 348 352 290
267 22 342 337 334
268 23 342 337 338
269 23 342 337 336
270 23 334 337 338
271 29 338 337 336
272 23 334 337 336
273 27 234 238 241
274 27 239 238 241
275 24 234 238 239
276 24 12 11 13
277 25 12 11 10
278 25 13 11 10
279 9 361 356 354
280 24 354 356 351
281 9 361 356 351
282 28 320 317 464
283 28 320 317 318
284 35 464 317 318
285 23 322 152 154
286 23 322 152 151
287 23 322 152 150
288 29 154 152 151
289 29 154 152 150
290 29 151 152 150
291 6 168 43 41
292 8 168 43 39
293 7 168 43 170
294 7 41 43 170
295 34 170 43 39
296 8 41 43 39
297 20 43 41 39
298 19 43 41 42
299 19 43 41 40
300 31 42 41 39
301 29 42 41 40
302 31 40 41 39
303 24 347 344 349
304 25 347 344 341
305 25 349 344 341
306 24 347 351 356
307 26 347 351 173
308 26 356 351 173
309 28 351 173 171
310 28 351 173 175
311 35 171 173 175
312 28 325 327 156
313 28 325 327 329
314 35 156 327 329
315 2 328 383 512
316 29 512 383 381
317 29 512 383 389
318 2 328 383 381
319 29 381 383 389
320 2 328 383 389
321 24 326 325 322
322 26 326 325 327
323 26 322 325 327
324 9 328 326 323
325 9 328 326 325
326 24 323 326 325
327 1 383 328 326
328 2 383 328 385
329 2 383 328 332
330 23 326 328 385
331 29 385 328 332
332 23 326 328 332
333 9 152 322 320
334 24 320 322 325
335 9 152 322 325
336 26 321 320 317
337 24 321 320 322
338 26 322 320 317
339 24 326 323 321
340 25 326 323 324
341 25 321 323 324
342 9 319 321 323
343 24 323 321 320
344 9 319 321 320
345 1 510 319 321
346 23 321 319 316
347 23 321 319 465
348 2 510 319 316
349 29 316 319 465
350 2 510 319 465
351 26 64 65 542
352 24 64 65 67
353 26 67 65 542
354 28 65 542 547
355 28 65 542 540
356 35 547 542 540
357 9 165 347 344
358 9 165 347 351
359 24 344 347 351
360 2 89 85 110
361 29 110 85 83
362 29 110 85 87
363 2 89 85 83
364 29 83 85 87
365 2 89 85 87
366 20 140 257 139
367 19 140 257 258
368 19 140 257 254
369 31 258 257 139
370 29 258 257 254
371 31 254 257 139
372 9 63 64 66
373 24 66 64 65
374 9 63 64 65
375 1 162 165 347
376 2 162 165 164
377 2 162 165 166
378 23 347 165 164
379 29 164 165 166
380 23 347 165 166
381 13 41 39 43
382 13 372 370 368
383 13 257 139 140
384 9 69 67 65
385 24 65 67 70
386 9 69 67 70
387 23 67 69 46
388 23 67 69 44
389 23 67 69 48
390 29 46 69 44
391 29 46 69 48
392 29 44 69 48
393 14 142 143 146
394 6 367 368 372
395 8 367 368 370
396 7 367 368 366
397 7 372 368 366
398 34 366 368 370
399 8 372 368 370
400 24 68 66 64
401 25 68 66 100
402 25 64 66 100
403 24 24 148 146
404 25 24 148 145
405 25 146 148 145
406 24 26 32 33
407 25 26 32 535
408 25 33 32 535
409 24 68 70 67
410 26 68 70 72
411 26 67 70 72
412 20 368 372 370
413 19 368 372 375
414 19 368 372 373
415 31 375 372 370
416 29 375 372 373
417 31 373 372 370
418 28 70 72 74
419 28 70 72 73
420 35 74 72 73
421 9 71 68 66
422 9 71 68 70
423 24 66 68 70
424 21 368 367 369
425 32 364 367 369
426 32 365 367 369
427 19 368 367 364
428 29 364 367 365
429 19 368 367 365
430 1 204 71 68
431 2 204 71 75
432 2 204 71 101
433 23 68 71 75
434 29 75 71 101
435 23 68 71 101
436 24 425 374 371
437 25 425 374 376
438 25 371 374 376
439 28 109 155 153
440 28 109 155 37
441 35 153 155 37
442 14 367 369 371
443 27 374 371 369
444 24 374 371 188
445 27 188 371 369
446 26 267 109 155
447 24 267 109 112
448 26 112 109 155
449 9 89 111 268
450 9 89 111 91
451 24 268 111 91
452 24 111 91 112
453 26 111 91 95
454 26 112 91 95
455 9 92 112 109
456 24 109 112 91
457 9 92 112 91
458 23 112 92 93
459 23 112 92 94
460 23 112 92 38
461 29 93 92 94
462 29 93 92 38
463 29 94 92 38
464 28 91 95 97
465 28 91 95 96
466 35 97 95 96
467 20 108 105 107
468 19 108 105 104
469 19 108 105 106
470 31 104 105 107
471 29 104 105 106
472 31 106 105 107
473 1 85 89 111
474 2 85 89 225
475 2 85 89 62
476 23 111 89 225
477 29 225 89 62
478 23 111 89 62
479 6 504 108 105
480 8 504 108 107
481 7 504 108 19
482 7 105 108 19
483 34 19 108 107
484 8 105 108 107
485 21 108 504 501
486 32 506 504 501
487 32 582 504 501
488 19 108 504 506
489 29 506 504 582
490 19 108 504 582
491 13 105 107 108
492 14 504 501 500
493 24 218 425 374
494 25 218 425 426
495 25 374 425 426
496 24 371 188 216
497 25 371 188 184
498 25 216 188 184
499 9 219 218 425
500 9 219 218 216
501 24 425 218 216
502 24 30 33 32
503 25 30 33 36
504 25 32 33 36
505 24 29 24 148
506 25 29 24 28
507 25 148 24 28
508 24 22 23 30
509 25 22 23 21
510 25 30 23 21
511 9 31 30 23
512 24 23 30 33
513 9 31 30 33
514 9 262 267 268
515 24 268 267 109
516 9 262 267 109
517 27 503 500 501
518 24 503 500 498
519 27 498 500 501
520 24 111 268 267
521 25 111 268 266
522 25 267 268 266
523 27 148 146 143
524 24 148 146 149
525 27 149 146 143
526 21 4 8 9
527 19 4 8 6
528 19 4 8 7
529 32 6 8 9
530 29 6 8 7
531 32 7 8 9
532 2 71 204 203
533 29 203 204 202
534 29 203 204 205
535 2 71 204 202
536 29 202 204 205
537 2 71 204 205
538 24 502 503 500
539 25 502 503 505
540 25 500 503 505
541 24 350 343 342
542 25 350 343 339
543 25 342 343 339
544 9 31 29 24
545 9 31 29 25
546 24 24 29 25
547 22 30 31 29
548 23 30 31 35
549 23 30 31 34
550 23 29 31 35
551 29 35 31 34
552 23 29 31 34
553 24 276 278 281
554 26 276 278 116
555 26 281 278 116
556 28 278 116 227
557 28 278 116 114
558 35 227 116 114
559 9 274 276 277
560 9 274 276 278
561 24 277 276 278
562 24 12 14 17
563 25 12 14 16
564 25 17 14 16
565 2 274 113 115
566 29 115 113 158
567 29 115 113 157
568 2 274 113 158
569 29 158 113 157
570 2 274 113 157
571 1 113 274 276
572 2 113 274 117
573 2 113 274 273
574 23 276 274 117
575 29 117 274 273
576 23 276 274 273
577 20 86 84 559
578 19 86 84 552
579 19 86 84 82
580 31 552 84 559
581 29 552 84 82
582 31 82 84 559
583 14 473 467 469
584 22 233 229 231
585 23 233 229 228
586 23 233 229 226
587 23 231 229 228
588 29 228 229 226
589 23 231 229 226
590 21 472 473 467
591 19 472 473 471
592 19 472 473 443
593 32 471 473 467
594 29 471 473 443
595 32 443 473 467
596 27 470 469 467
597 27 331 469 467
598 24 470 469 331
599 24 469 470 585
600 25 469 470 468
601 25 585 470 468
602 24 469 331 333
603 25 469 331 330
604 25 333 331 330
605 24 470 585 516
606 25 470 585 584
607 25 516 585 584
608 24 516 333 331
609 25 516 333 272
610 25 331 333 272
611 9 515 516 585
612 24 585 516 333
613 9 515 516 333
614 22 516 515 475
615 23 516 515 513
616 23 516 515 514
617 23 475 515 513
618 29 513 515 514
619 23 475 515 514
620 31 80 78 77
621 19 79 78 80
622 29 80 78 76
623 31 76 78 77
624 19 79 78 76
625 20 79 78 77
626 31 522 523 519
627 19 521 523 522
628 29 522 523 526
629 31 526 523 519
630 19 521 523 526
631 20 521 523 519
632 9 515 475 477
633 9 515 475 478
634 24 477 475 478
635 9 229 231 201
636 9 229 231 445
637 24 201 231 445
638 6 523 521 520
639 8 523 521 519
640 7 523 521 525
641 7 520 521 525
642 34 525 521 519
643 8 520 521 519
644 21 521 520 358
645 19 521 520 518
646 19 521 520 524
647 32 518 520 358
648 29 518 520 524
649 32 524 520 358
650 6 561 86 84
651 8 561 86 559
652 7 561 86 88
653 7 84 86 88
654 34 88 86 559
655 8 84 86 559
656 9 229 233 232
657 24 232 233 235
658 9 229 233 235
659 31 271 269 466
660 19 472 269 271
661 29 271 269 270
662 31 270 269 466
663 19 472 269 270
664 20 472 269 466
665 6 78 79 55
666 8 78 79 77
667 7 78 79 81
668 7 55 79 81
669 34 81 79 77
670 8 55 79 77
671 6 269 472 473
672 8 269 472 466
673 7 269 472 474
674 7 473 472 474
675 34 474 472 466
676 8 473 472 466
677 13 78 77 79
678 24 58 60 190
679 25 58 60 61
680 25 190 60 61
681 13 269 466 472
682 9 187 186 190
683 24 190 186 182
684 9 187 186 182
685 13 523 519 521
686 24 475 478 480
687 25 475 478 476
688 25 480 478 476
689 27 60 58 59
690 27 181 58 59
691 24 60 58 181
692 24 58 181 182
693 25 58 181 51
694 25 182 181 51
695 24 186 182 181
696 25 186 182 178
697 25 181 182 178
698 14 8 9 12
699 21 86 561 558
700 32 537 561 558
701 32 90 561 558
702 19 86 561 537
703 29 537 561 90
704 19 86 561 90
705 31 242 244 243
706 19 247 244 242
707 29 242 244 245
708 31 245 244 243
709 19 247 244 245
710 20 247 244 243
711 24 60 190 186
712 25 60 190 192
713 25 186 190 192
714 24 475 477 479
715 25 475 477 562
716 25 479 477 562
717 21 211 208 413
718 19 211 208 206
719 19 211 208 209
720 32 206 208 413
721 29 206 208 209
722 32 209 208 413
723 24 234 232 233
724 25 234 232 230
725 25 233 232 230
726 24 575 577 578
727 25 575 577 574
728 25 578 577 574
729 14 520 358 353
730 24 482 480 478
731 25 482 480 481
732 25 478 480 481
733 27 350 353 358
734 27 352 353 358
735 24 350 353 352
736 24 238 234 232
737 25 238 234 118
738 25 232 234 118
739 13 492 486 490
740 6 487 490 492
741 8 487 490 486
742 7 487 490 488
743 7 492 490 488
744 34 488 490 486
745 8 492 490 486
746 24 580 578 577
747 25 580 578 579
748 25 577 578 579
749 20 490 492 486
750 19 490 492 493
751 19 490 492 494
752 31 493 492 486
753 29 493 492 494
754 31 494 492 486
755 6 311 312 310
756 8 311 312 313
757 7 311 312 315
758 7 310 312 315
759 34 315 312 313
760 8 310 312 313
761 21 490 487 484
762 32 485 487 484
763 32 491 487 484
764 19 490 487 485
765 29 485 487 491
766 19 490 487 491
767 21 312 310 306
768 19 312 310 309
769 19 312 310 377
770 32 309 310 306
771 29 309 310 377
772 32 377 310 306
773 24 415 418 417
774 25 415 418 419
775 25 417 418 419
776 24 477 479 482
777 25 477 479 563
778 25 482 479 563
779 27 479 482 484
780 24 479 482 480
781 27 480 482 484
782 27 415 414 413
783 27 412 414 413
784 24 415 414 412
785 9 581 417 418
786 24 418 417 455
787 9 581 417 455
788 24 414 415 418
789 25 414 415 416
790 25 418 415 416
791 14 208 413 414
792 14 487 484 482
793 24 417 455 412
794 25 417 455 454
795 25 412 455 454
796 24 414 412 455
797 25 414 412 411
798 25 455 412 411
799 22 417 581 580
800 23 417 581 460
801 23 417 581 549
802 23 580 581 460
803 29 460 581 549
804 23 580 581 549
805 9 581 580 456
806 9 581 580 578
807 24 456 580 578
808 24 580 456 453
809 25 580 456 457
810 25 453 456 457
811 14 310 306 304
812 27 301 304 306
813 27 305 304 306
814 24 301 304 305
815 24 304 305 302
816 25 304 305 307
817 25 302 305 307
818 27 453 575 573
819 24 453 575 577
820 27 577 575 573
821 24 353 350 343
822 25 353 350 517
823 25 343 350 517
824 24 456 453 575
825 25 456 453 452
826 25 575 453 452
827 6 142 140 257
828 8 142 140 139
829 7 142 140 138
830 7 257 140 138
831 34 138 140 139
832 8 257 140 139
833 13 569 564 568
834 13 84 559 86
835 6 244 247 252
836 8 244 247 243
837 7 244 247 246
838 7 252 247 246
839 34 246 247 243
840 8 252 247 243
841 14 55 59 58
842 21 140 142 143
843 32 141 142 143
844 32 144 142 143
845 19 140 142 141
846 29 141 142 144
847 19 140 142 144
848 1 545 63 64
849 23 64 63 98
850 23 64 63 539
851 2 545 63 98
852 29 98 63 539
853 2 545 63 539
854 14 252 461 462
855 24 231 201 404
856 25 231 201 237
857 25 404 201 237
858 2 63 545 576
859 2 63 545 572
860 2 63 545 546
861 29 576 545 572
862 29 576 545 546
863 29 572 545 546
864 24 231 445 397
865 25 231 445 444
866 25 397 445 444
867 2 319 510 583
868 2 319 510 509
869 2 319 510 511
870 29 583 510 509
871 29 583 510 511
872 29 509 510 511
873 13 244 243 247
874 21 79 55 59
875 19 79 55 54
876 19 79 55 52
877 32 54 55 59
878 29 54 55 52
879 32 52 55 59
880 24 201 404 400
881 25 201 404 409
882 25 400 404 409
883 13 196 199 197
884 2 165 162 160
885 29 160 162 161
886 29 160 162 159
887 2 165 162 161
888 29 161 162 159
889 2 165 162 159
890 20 568 569 564
891 19 568 569 451
892 19 568 569 567
893 31 451 569 564
894 29 451 569 567
895 31 567 569 564
896 6 571 568 569
897 8 571 568 564
898 7 571 568 565
899 7 569 568 565
900 34 565 568 564
901 8 569 568 564
902 24 400 397 445
903 25 400 397 396
904 25 445 397 396
905 27 404 400 402
906 24 404 400 397
907 27 397 400 402
908 14 406 402 400
909 21 405 406 402
910 32 410 406 402
911 32 408 406 402
912 19 405 406 410
913 29 410 406 408
914 19 405 406 408
915 6 406 405 544
916 8 406 405 543
917 7 406 405 538
918 7 544 405 538
919 34 538 405 543
920 8 544 405 543
921 21 247 252 461
922 19 247 252 253
923 19 247 252 459
924 32 253 252 461
925 29 253 252 459
926 32 459 252 461
927 20 405 544 543
928 19 405 544 548
929 19 405 544 541
930 31 548 544 543
931 29 548 544 541
932 31 541 544 543
933 31 198 196 199
934 19 197 196 198
935 29 198 196 194
936 31 194 196 199
937 19 197 196 194
938 20 197 196 199
939 6 196 197 195
940 8 196 197 199
941 7 196 197 200
942 7 195 197 200
943 34 200 197 199
944 8 195 197 199
945 13 544 543 405
946 21 197 195 394
947 19 197 195 163
948 19 197 195 398
949 32 163 195 394
950 29 163 195 398
951 32 398 195 394
952 27 255 462 461
953 27 421 462 461
954 24 255 462 421
955 14 571 573 575
956 21 568 571 573
957 32 566 571 573
958 32 570 571 573
959 19 568 571 566
960 29 566 571 570
961 19 568 571 570
962 14 561 558 556
963 24 462 421 423
964 25 462 421 420
965 25 423 421 420
966 24 462 255 217
967 25 462 255 256
968 25 217 255 256
969 24 500 498 497
970 25 500 498 496
971 25 497 498 496
972 14 195 394 442
973 24 218 216 188
974 25 218 216 215
975 25 188 216 215
976 24 146 149 25
977 25 146 149 147
978 25 25 149 147
979 22 424 219 218
980 23 424 219 221
981 23 424 219 427
982 23 218 219 221
983 29 221 219 427
984 23 218 219 427
985 24 304 301 298
986 25 304 301 300
987 25 298 301 300
988 24 29 25 149
989 25 29 25 27
990 25 149 25 27
991 24 424 423 421
992 25 424 423 422
993 25 421 423 422
994 24 299 302 305
995 25 299 302 303
996 25 305 302 303
997 6 3 4 8
998 8 3 4 1
999 7 3 4 5
1000 7 8 4 5
1001 34 5 4 1
1002 8 8 4 1
1003 24 553 554 556
1004 25 553 554 551
1005 25 556 554 551
1006 27 554 556 558
1007 24 554 556 560
1008 27 560 556 558
1009 31 99 3 1
1010 19 4 3 99
1011 29 99 3 2
1012 31 2 3 1
1013 19 4 3 2
1014 20 4 3 1
1015 1 263 262 267
1016 23 267 262 261
1017 23 267 262 260
1018 2 263 262 261
1019 29 261 262 260
1020 2 263 262 260
1021 9 219 424 217
1022 24 217 424 423
1023 9 219 424 423
1024 9 295 299 298
1025 24 298 299 302
1026 9 295 299 302
1027 2 262 263 264
1028 2 262 263 259
1029 2 262 263 265
1030 29 264 263 259
1031 29 264 263 265
1032 29 259 263 265
1033 24 301 298 299
1034 25 301 298 296
1035 25 299 298 296
1036 24 255 217 424
1037 25 255 217 220
1038 25 424 217 220
1039 24 499 502 503
1040 25 499 502 463
1041 25 503 502 463
1042 22 299 295 499
1043 23 299 295 293
1044 23 299 295 458
1045 23 499 295 293
1046 29 293 295 458
1047 23 499 295 458
1048 9 295 499 502
1049 9 295 499 497
1050 24 502 499 497
1051 24 556 560 557
1052 25 556 560 536
1053 25 557 560 536
1054 24 555 557 560
1055 25 555 557 440
1056 25 560 557 440
1057 24 555 553 554
1058 25 555 553 550
1059 25 554 553 550
1060 9 434 555 553
1061 9 434 555 557
1062 24 553 555 557
1063 22 436 434 555
1064 23 436 434 431
1065 23 436 434 429
1066 23 555 434 431
1067 29 431 434 429
1068 23 555 434 429
1069 27 438 442 394
1070 27 393 442 394
1071 24 438 442 393
1072 24 442 438 435
1073 25 442 438 437
1074 25 435 438 437
1075 24 442 393 439
1076 25 442 393 395
1077 25 439 393 395
1078 24 436 439 393
1079 25 436 439 441
1080 25 393 439 441
1081 24 438 435 436
1082 25 438 435 433
1083 25 436 435 433
1084 9 434 436 435
1085 24 435 436 439
1086 9 434 436 439
1087 13 3 1 4
1088 24 499 497 498
1089 25 499 497 495
1090 25 498 497 495

Dihedrals

1 26 177 49 47 174
2 27 177 49 47 45
3 44 50 49 47 45
4 26 47 49 177 124
5 29 49 47 174 169
6 26 49 47 174 176
7 27 174 47 49 50
8 45 45 47 174 169
9 21 43 168 169 174
10 37 167 168 43 39
11 36 167 168 43 170
12 37 172 168 43 39
13 36 172 168 43 170
14 26 47 174 176 124
15 27 47 174 176 120
16 27 176 174 47 45
17 10 56 177 49 47
18 11 56 177 49 50
19 10 56 177 124 176
20 11 56 177 124 127
21 25 49 177 56 132
22 25 124 177 56 132
23 25 49 177 56 57
24 25 124 177 56 57
25 26 49 177 124 176
26 27 49 177 124 127
27 27 124 177 49 50
28 17 168 169 174 47
29 32 174 169 168 167
30 32 174 169 168 172
31 17 168 169 174 176
32 27 174 176 124 127
33 45 120 176 174 169
34 44 120 176 124 127
35 29 124 176 174 169
36 26 177 124 176 174
37 27 177 124 176 120
38 1 287 282 280 277
39 23 280 282 287 289
40 23 280 282 287 288
41 23 280 282 287 489
42 1 287 282 280 283
43 33 279 282 287 289
44 33 279 282 287 288
45 33 279 282 287 489
46 33 483 282 287 289
47 33 483 282 287 288
48 33 483 282 287 489
49 36 222 223 379 378
50 36 224 223 379 378
51 37 222 223 379 193
52 37 224 223 379 193
53 30 349 354 357 359
54 30 349 354 357 355
55 26 349 354 356 351
56 30 356 354 357 359
57 30 356 354 357 355
58 24 177 56 15 17
59 24 15 56 177 49
60 24 15 56 177 124
61 24 177 56 15 13
62 10 56 15 17 14
63 25 17 15 56 132
64 25 17 15 56 57
65 26 17 15 13 11
66 27 17 15 13 53
67 11 56 15 17 18
68 27 13 15 17 18
69 25 13 15 56 132
70 25 13 15 56 57
71 11 56 15 13 53
72 10 56 15 13 11
73 22 379 193 223 222
74 22 379 193 223 224
75 16 223 193 379 378
76 10 282 280 277 276
77 25 277 280 282 279
78 25 277 280 282 483
79 28 277 280 283 285
80 26 277 280 283 281
81 11 282 280 277 275
82 27 283 280 277 275
83 25 283 280 282 279
84 25 283 280 282 483
85 10 282 280 283 281
86 12 282 280 283 285
87 30 280 283 285 286
88 30 280 283 285 449
89 26 280 283 281 278
90 30 281 283 285 286
91 30 281 283 285 449
92 10 447 281 278 276
93 10 447 281 283 280
94 25 283 281 447 446
95 25 283 281 447 450
96 25 283 281 447 448
97 28 283 281 278 116
98 28 278 281 283 285
99 25 278 281 447 446
100 25 278 281 447 450
101 25 278 281 447 448
102 12 447 281 278 116
103 12 447 281 283 285
104 27 15 13 11 10
105 44 53 13 11 10
106 26 14 12 11 13
107 27 14 12 11 10
108 27 11 12 14 16
109 26 14 17 15 13
110 27 15 17 14 16
111 26 276 277 280 283
112 26 280 277 276 278
113 8 223 379 430 380
114 47 193 379 430 380
115 43 378 379 430 380
116 7 430 379 223 193
117 6 430 379 223 222
118 6 430 379 223 224
119 9 430 379 193 223
120 6 223 379 430 432
121 6 223 379 430 428
122 42 378 379 223 193
123 1 403 345 349 344
124 23 349 345 403 401
125 23 349 345 403 407
126 23 349 345 403 399
127 1 403 345 349 354
128 33 346 345 403 401
129 33 346 345 403 407
130 33 346 345 403 399
131 33 340 345 403 401
132 33 340 345 403 407
133 33 340 345 403 399
134 10 345 349 344 347
135 25 344 349 345 346
136 25 344 349 345 340
137 28 344 349 354 357
138 26 344 349 354 356
139 11 345 349 344 341
140 27 354 349 344 341
141 25 354 349 345 346
142 25 354 349 345 340
143 10 345 349 354 356
144 12 345 349 354 357
145 27 233 235 239 240
146 44 236 235 239 240
147 24 185 187 186 190
148 24 186 187 185 136
149 24 186 187 185 180
150 24 185 187 186 182
151 29 235 239 238 241
152 45 240 239 238 241
153 26 238 239 235 233
154 27 238 239 235 236
155 26 185 180 128 130
156 27 185 180 128 126
157 27 130 128 180 179
158 45 126 128 130 129
159 44 126 128 180 179
160 29 180 128 130 129
161 21 379 430 380 384
162 37 432 430 379 193
163 36 432 430 379 378
164 37 428 430 379 193
165 36 428 430 379 378
166 10 187 185 136 135
167 11 187 185 136 191
168 10 187 185 180 128
169 11 187 185 180 179
170 25 136 185 187 189
171 25 180 185 187 189
172 25 136 185 187 183
173 25 180 185 187 183
174 26 136 185 180 128
175 27 136 185 180 179
176 27 180 185 136 191
177 16 528 527 531 533
178 22 531 527 528 507
179 22 531 527 528 529
180 37 507 528 531 527
181 36 507 528 531 533
182 37 529 528 531 527
183 36 529 528 531 533
184 9 532 531 527 528
185 8 528 531 532 534
186 6 528 531 532 508
187 6 528 531 532 530
188 6 532 531 528 507
189 6 532 531 528 529
190 42 533 531 528 527
191 43 533 531 532 534
192 47 527 531 532 534
193 7 532 531 528 527
194 26 185 136 135 130
195 27 185 136 135 137
196 44 191 136 135 137
197 26 135 136 185 180
198 17 430 380 384 386
199 32 384 380 430 432
200 32 384 380 430 428
201 17 430 380 384 388
202 21 251 131 129 130
203 37 134 131 251 125
204 36 134 131 251 248
205 37 133 131 251 125
206 36 133 131 251 248
207 17 131 129 130 135
208 32 130 129 131 134
209 32 130 129 131 133
210 17 131 129 130 128
211 26 135 130 128 180
212 27 135 130 128 126
213 27 128 130 135 137
214 29 136 135 130 129
215 26 136 135 130 128
216 27 130 135 136 191
217 45 137 135 130 129
218 27 384 388 392 335
219 45 387 388 384 380
220 44 387 388 392 335
221 29 392 388 384 380
222 26 334 392 388 384
223 27 334 392 388 387
224 16 294 291 123 292
225 22 123 291 294 297
226 22 123 291 294 249
227 26 386 384 388 392
228 27 386 384 388 387
229 27 388 384 386 382
230 8 250 251 131 129
231 47 125 251 131 129
232 43 248 251 131 129
233 7 131 251 250 125
234 6 131 251 250 103
235 6 131 251 250 102
236 9 131 251 125 250
237 6 250 251 131 134
238 6 250 251 131 133
239 42 248 251 250 125
240 37 297 294 123 291
241 36 297 294 123 292
242 37 249 294 123 291
243 36 249 294 123 292
244 10 337 334 390 386
245 11 337 334 390 391
246 10 337 334 392 388
247 11 337 334 392 335
248 25 390 334 337 338
249 25 392 334 337 338
250 25 390 334 337 336
251 25 392 334 337 336
252 26 390 334 392 388
253 27 390 334 392 335
254 27 392 334 390 391
255 29 390 386 384 380
256 26 390 386 384 388
257 27 384 386 390 391
258 45 382 386 384 380
259 36 103 250 251 248
260 36 102 250 251 248
261 37 103 250 251 125
262 37 102 250 251 125
263 27 342 348 352 290
264 44 284 348 352 290
265 16 210 213 211 214
266 22 211 213 210 207
267 22 211 213 210 212
268 37 207 210 211 213
269 36 207 210 211 214
270 37 212 210 211 213
271 36 212 210 211 214
272 9 121 123 291 294
273 8 294 123 121 241
274 6 294 123 121 119
275 6 294 123 121 122
276 6 121 123 294 297
277 6 121 123 294 249
278 42 292 123 294 291
279 43 292 123 121 241
280 47 291 123 121 241
281 7 121 123 294 291
282 21 123 121 241 238
283 36 119 121 123 292
284 36 122 121 123 292
285 37 119 121 123 291
286 37 122 121 123 291
287 26 334 390 386 384
288 27 334 390 386 382
289 44 391 390 386 382
290 26 386 390 334 392
291 22 251 125 250 103
292 22 251 125 250 102
293 16 250 125 251 248
294 17 121 241 238 234
295 17 121 241 238 239
296 32 238 241 121 119
297 32 238 241 121 122
298 9 208 211 213 210
299 8 210 211 208 413
300 6 210 211 208 206
301 6 210 211 208 209
302 6 208 211 210 207
303 6 208 211 210 212
304 42 214 211 210 213
305 43 214 211 208 413
306 47 213 211 208 413
307 7 208 211 210 213
308 17 532 534 26 22
309 17 532 534 26 32
310 32 26 534 532 508
311 32 26 534 532 530
312 16 311 313 312 315
313 22 312 313 311 308
314 22 312 313 311 314
315 21 531 532 534 26
316 36 508 532 531 533
317 36 530 532 531 533
318 37 508 532 531 527
319 37 530 532 531 527
320 26 22 26 32 33
321 27 22 26 32 535
322 27 32 26 22 20
323 29 23 22 26 534
324 45 20 22 26 534
325 26 26 22 23 30
326 27 26 22 23 21
327 44 20 22 23 21
328 26 23 22 26 32
329 10 337 342 343 350
330 25 343 342 337 338
331 25 343 342 337 336
332 26 343 342 348 352
333 27 343 342 348 284
334 11 337 342 343 339
335 27 348 342 343 339
336 25 348 342 337 338
337 25 348 342 337 336
338 11 337 342 348 284
339 10 337 342 348 352
340 37 308 311 312 313
341 36 308 311 312 315
342 37 314 311 312 313
343 36 314 311 312 315
344 29 348 352 353 358
345 45 290 352 353 358
346 26 353 352 348 342
347 27 353 352 348 284
348 24 334 337 342 343
349 24 342 337 334 390
350 24 342 337 334 392
351 24 334 337 342 348
352 26 234 238 239 235
353 27 234 238 239 240
354 27 239 238 234 118
355 29 13 11 12 9
356 45 10 11 12 9
357 26 12 11 13 15
358 27 12 11 13 53
359 10 361 356 351 347
360 10 361 356 354 349
361 25 354 356 361 363
362 25 354 356 361 360
363 25 354 356 361 362
364 28 354 356 351 173
365 28 351 356 354 357
366 25 351 356 361 363
367 25 351 356 361 360
368 25 351 356 361 362
369 12 361 356 351 173
370 12 361 356 354 357
371 8 41 43 168 169
372 47 39 43 168 169
373 43 170 43 168 169
374 7 168 43 41 39
375 6 168 43 41 42
376 6 168 43 41 40
377 9 168 43 39 41
378 6 41 43 168 167
379 6 41 43 168 172
380 42 170 43 41 39
381 36 42 41 43 170
382 36 40 41 43 170
383 37 42 41 43 39
384 37 40 41 43 39
385 26 347 344 349 354
386 26 349 344 347 351
387 26 347 351 356 354
388 30 347 351 173 171
389 30 347 351 173 175
390 30 356 351 173 171
391 30 356 351 173 175
392 33 512 383 328 385
393 33 512 383 328 332
394 33 381 383 328 385
395 33 381 383 328 332
396 33 389 383 328 385
397 33 389 383 328 332
398 26 326 325 322 320
399 30 326 325 327 156
400 30 326 325 327 329
401 30 322 325 327 156
402 30 322 325 327 329
403 10 328 326 323 321
404 11 328 326 323 324
405 10 328 326 325 322
406 12 328 326 325 327
407 25 323 326 328 385
408 25 325 326 328 385
409 25 323 326 328 332
410 25 325 326 328 332
411 26 323 326 325 322
412 28 323 326 325 327
413 27 325 326 323 324
414 1 383 328 326 323
415 1 383 328 326 325
416 23 326 328 383 512
417 23 326 328 383 381
418 23 326 328 383 389
419 10 152 322 325 326
420 10 152 322 320 321
421 25 320 322 152 154
422 25 320 322 152 151
423 25 320 322 152 150
424 28 320 322 325 327
425 28 325 322 320 317
426 25 325 322 152 154
427 25 325 322 152 151
428 25 325 322 152 150
429 12 152 322 325 327
430 12 152 322 320 317
431 30 321 320 317 464
432 30 321 320 317 318
433 26 321 320 322 325
434 30 322 320 317 464
435 30 322 320 317 318
436 26 326 323 321 320
437 26 321 323 326 325
438 10 319 321 323 326
439 25 323 321 319 316
440 25 323 321 319 465
441 28 323 321 320 317
442 26 323 321 320 322
443 11 319 321 323 324
444 27 320 321 323 324
445 25 320 321 319 316
446 25 320 321 319 465
447 10 319 321 320 322
448 12 319 321 320 317
449 1 510 319 321 323
450 23 321 319 510 583
451 23 321 319 510 509
452 23 321 319 510 511
453 1 510 319 321 320
454 33 316 319 510 583
455 33 316 319 510 509
456 33 316 319 510 511
457 33 465 319 510 583
458 33 465 319 510 509
459 33 465 319 510 511
460 30 64 65 542 547
461 30 64 65 542 540
462 26 64 65 67 70
463 30 67 65 542 547
464 30 67 65 542 540
465 10 165 347 344 349
466 11 165 347 344 341
467 10 165 347 351 356
468 12 165 347 351 173
469 25 344 347 165 164
470 25 351 347 165 164
471 25 344 347 165 166
472 25 351 347 165 166
473 26 344 347 351 356
474 28 344 347 351 173
475 27 351 347 344 341
476 33 110 85 89 225
477 33 110 85 89 62
478 33 83 85 89 225
479 33 83 85 89 62
480 33 87 85 89 225
481 33 87 85 89 62
482 36 258 257 140 138
483 36 254 257 140 138
484 37 258 257 140 139
485 37 254 257 140 139
486 10 63 64 66 68
487 25 66 64 63 98
488 25 66 64 63 539
489 28 66 64 65 542
490 26 66 64 65 67
491 11 63 64 66 100
492 27 65 64 66 100
493 25 65 64 63 98
494 25 65 64 63 539
495 10 63 64 65 67
496 12 63 64 65 542
497 1 162 165 347 344
498 1 162 165 347 351
499 23 347 165 162 160
500 23 347 165 162 161
501 23 347 165 162 159
502 22 43 39 41 42
503 22 43 39 41 40
504 16 41 39 43 170
505 22 368 370 372 375
506 22 368 370 372 373
507 16 372 370 368 366
508 22 140 139 257 258
509 22 140 139 257 254
510 16 257 139 140 138
511 10 69 67 70 68
512 10 69 67 65 64
513 25 65 67 69 46
514 25 65 67 69 44
515 25 65 67 69 48
516 28 65 67 70 72
517 28 70 67 65 542
518 25 70 67 69 46
519 25 70 67 69 44
520 25 70 67 69 48
521 12 69 67 70 72
522 12 69 67 65 542
523 17 142 143 146 148
524 32 146 143 142 141
525 32 146 143 142 144
526 17 142 143 146 149
527 8 372 368 367 369
528 47 370 368 367 369
529 43 366 368 367 369
530 7 367 368 372 370
531 6 367 368 372 375
532 6 367 368 372 373
533 9 367 368 370 372
534 6 372 368 367 364
535 6 372 368 367 365
536 42 366 368 372 370
537 26 68 66 64 65
538 26 64 66 68 70
539 29 24 148 146 143
540 26 24 148 146 149
541 27 146 148 24 28
542 45 145 148 146 143
543 29 33 32 26 534
544 45 535 32 26 534
545 26 26 32 33 30
546 27 26 32 33 36
547 26 68 70 67 65
548 30 68 70 72 74
549 30 68 70 72 73
550 30 67 70 72 74
551 30 67 70 72 73
552 36 375 372 368 366
553 36 373 372 368 366
554 37 375 372 368 370
555 37 373 372 368 370
556 10 71 68 66 64
557 11 71 68 66 100
558 10 71 68 70 67
559 12 71 68 70 72
560 25 66 68 71 75
561 25 70 68 71 75
562 25 66 68 71 101
563 25 70 68 71 101
564 26 66 68 70 67
565 28 66 68 70 72
566 27 70 68 66 100
567 21 368 367 369 371
568 37 364 367 368 370
569 36 364 367 368 366
570 37 365 367 368 370
571 36 365 367 368 366
572 1 204 71 68 66
573 1 204 71 68 70
574 23 68 71 204 203
575 23 68 71 204 202
576 23 68 71 204 205
577 29 425 374 371 369
578 26 425 374 371 188
579 27 371 374 425 426
580 45 376 374 371 369
581 17 367 369 371 374
582 32 371 369 367 364
583 32 371 369 367 365
584 17 367 369 371 188
585 26 374 371 188 216
586 27 374 371 188 184
587 27 188 371 374 376
588 30 267 109 155 153
589 30 267 109 155 37
590 26 267 109 112 91
591 30 112 109 155 153
592 30 112 109 155 37
593 10 89 111 268 267
594 11 89 111 268 266
595 10 89 111 91 112
596 12 89 111 91 95
597 25 268 111 89 225
598 25 91 111 89 225
599 25 268 111 89 62
600 25 91 111 89 62
601 26 268 111 91 112
602 28 268 111 91 95
603 27 91 111 268 266
604 26 111 91 112 109
605 30 111 91 95 97
606 30 111 91 95 96
607 30 112 91 95 97
608 30 112 91 95 96
609 10 92 112 91 111
610 10 92 112 109 267
611 25 109 112 92 93
612 25 109 112 92 94
613 25 109 112 92 38
614 28 109 112 91 95
615 28 91 112 109 155
616 25 91 112 92 93
617 25 91 112 92 94
618 25 91 112 92 38
619 12 92 112 91 95
620 12 92 112 109 155
621 36 104 105 108 19
622 36 106 105 108 19
623 37 104 105 108 107
624 37 106 105 108 107
625 1 85 89 111 268
626 1 85 89 111 91
627 23 111 89 85 110
628 23 111 89 85 83
629 23 111 89 85 87
630 8 105 108 504 501
631 47 107 108 504 501
632 43 19 108 504 501
633 7 504 108 105 107
634 6 504 108 105 104
635 6 504 108 105 106
636 9 504 108 107 105
637 6 105 108 504 506
638 6 105 108 504 582
639 42 19 108 105 107
640 21 108 504 501 500
641 37 506 504 108 107
642 36 506 504 108 19
643 37 582 504 108 107
644 36 582 504 108 19
645 22 108 107 105 104
646 22 108 107 105 106
647 16 105 107 108 19
648 17 504 501 500 503
649 32 500 501 504 506
650 32 500 501 504 582
651 17 504 501 500 498
652 26 218 425 374 371
653 27 218 425 374 376
654 44 426 425 374 376
655 26 374 425 218 216
656 27 371 188 216 215
657 45 184 188 371 369
658 44 184 188 216 215
659 29 216 188 371 369
660 10 219 218 425 374
661 11 219 218 425 426
662 10 219 218 216 188
663 11 219 218 216 215
664 25 425 218 219 221
665 25 216 218 219 221
666 25 425 218 219 427
667 25 216 218 219 427
668 26 425 218 216 188
669 27 425 218 216 215
670 27 216 218 425 426
671 27 30 33 32 535
672 44 36 33 32 535
673 26 29 24 148 146
674 27 29 24 148 145
675 44 28 24 148 145
676 26 148 24 29 25
677 26 22 23 30 33
678 27 30 23 22 20
679 10 31 30 23 22
680 25 23 30 31 35
681 25 23 30 31 34
682 26 23 30 33 32
683 27 23 30 33 36
684 11 31 30 23 21
685 27 33 30 23 21
686 25 33 30 31 35
687 25 33 30 31 34
688 11 31 30 33 36
689 10 31 30 33 32
690 10 262 267 268 111
691 25 268 267 262 261
692 25 268 267 262 260
693 28 268 267 109 155
694 26 268 267 109 112
695 11 262 267 268 266
696 27 109 267 268 266
697 25 109 267 262 261
698 25 109 267 262 260
699 10 262 267 109 112
700 12 262 267 109 155
701 26 503 500 498 497
702 27 503 500 498 496
703 27 498 500 503 505
704 26 111 268 267 109
705 26 267 268 111 91
706 26 148 146 149 25
707 27 148 146 149 147
708 27 149 146 148 145
709 21 4 8 9 12
710 36 6 8 4 5
711 36 7 8 4 5
712 37 6 8 4 1
713 37 7 8 4 1
714 33 203 204 71 75
715 33 203 204 71 101
716 33 202 204 71 75
717 33 202 204 71 101
718 33 205 204 71 75
719 33 205 204 71 101
720 29 502 503 500 501
721 26 502 503 500 498
722 27 500 503 502 463
723 45 505 503 500 501
724 26 350 343 342 348
725 27 342 343 350 517
726 10 31 29 24 148
727 11 31 29 24 28
728 10 31 29 25 149
729 11 31 29 25 27
730 25 24 29 31 35
731 25 25 29 31 35
732 25 24 29 31 34
733 25 25 29 31 34
734 26 24 29 25 149
735 27 24 29 25 27
736 27 25 29 24 28
737 24 29 31 30 23
738 24 30 31 29 24
739 24 30 31 29 25
740 24 29 31 30 33
741 26 276 278 281 283
742 30 276 278 116 227
743 30 276 278 116 114
744 30 281 278 116 227
745 30 281 278 116 114
746 10 274 276 277 280
747 11 274 276 277 275
748 10 274 276 278 281
749 12 274 276 278 116
750 25 277 276 274 117
751 25 278 276 274 117
752 25 277 276 274 273
753 25 278 276 274 273
754 26 277 276 278 281
755 28 277 276 278 116
756 27 278 276 277 275
757 29 17 14 12 9
758 45 16 14 12 9
759 26 12 14 17 15
760 27 12 14 17 18
761 44 16 14 17 18
762 26 17 14 12 11
763 33 115 113 274 117
764 33 115 113 274 273
765 33 158 113 274 117
766 33 158 113 274 273
767 33 157 113 274 117
768 33 157 113 274 273
769 1 113 274 276 277
770 1 113 274 276 278
771 23 276 274 113 115
772 23 276 274 113 158
773 23 276 274 113 157
774 36 552 84 86 88
775 36 82 84 86 88
776 37 552 84 86 559
777 37 82 84 86 559
778 17 473 467 469 470
779 17 473 467 469 331
780 32 469 467 473 471
781 32 469 467 473 443
782 24 231 229 233 232
783 24 233 229 231 201
784 24 233 229 231 445
785 24 231 229 233 235
786 21 472 473 467 469
787 36 471 473 472 474
788 36 443 473 472 474
789 37 471 473 472 466
790 37 443 473 472 466
791 26 470 469 331 333
792 27 470 469 331 330
793 27 331 469 470 468
794 29 585 470 469 467
795 45 468 470 469 467
796 26 469 470 585 516
797 27 469 470 585 584
798 44 468 470 585 584
799 26 585 470 469 331
800 29 333 331 469 467
801 45 330 331 469 467
802 26 469 331 333 516
803 27 469 331 333 272
804 26 470 585 516 333
805 27 516 585 470 468
806 27 516 333 331 330
807 44 272 333 331 330
808 10 515 516 585 470
809 25 585 516 515 513
810 25 585 516 515 514
811 26 585 516 333 331
812 27 585 516 333 272
813 11 515 516 585 584
814 27 333 516 585 584
815 25 333 516 515 513
816 25 333 516 515 514
817 11 515 516 333 272
818 10 515 516 333 331
819 24 475 515 516 585
820 24 516 515 475 477
821 24 516 515 475 478
822 24 475 515 516 333
823 37 80 78 79 77
824 36 80 78 79 81
825 37 76 78 79 77
826 36 76 78 79 81
827 37 522 523 521 519
828 36 522 523 521 525
829 37 526 523 521 519
830 36 526 523 521 525
831 10 515 475 477 479
832 11 515 475 477 562
833 10 515 475 478 480
834 11 515 475 478 476
835 25 477 475 515 513
836 25 478 475 515 513
837 25 477 475 515 514
838 25 478 475 515 514
839 26 477 475 478 480
840 27 477 475 478 476
841 27 478 475 477 562
842 10 229 231 201 404
843 11 229 231 201 237
844 10 229 231 445 397
845 11 229 231 445 444
846 25 201 231 229 228
847 25 445 231 229 228
848 25 201 231 229 226
849 25 445 231 229 226
850 26 201 231 445 397
851 27 201 231 445 444
852 27 445 231 201 237
853 9 520 521 519 523
854 8 523 521 520 358
855 6 523 521 520 518
856 6 523 521 520 524
857 6 520 521 523 522
858 6 520 521 523 526
859 42 525 521 523 519
860 43 525 521 520 358
861 47 519 521 520 358
862 7 520 521 523 519
863 21 521 520 358 353
864 36 518 520 521 525
865 36 524 520 521 525
866 37 518 520 521 519
867 37 524 520 521 519
868 8 84 86 561 558
869 47 559 86 561 558
870 43 88 86 561 558
871 7 561 86 84 559
872 6 561 86 84 552
873 6 561 86 84 82
874 9 561 86 559 84
875 6 84 86 561 537
876 6 84 86 561 90
877 42 88 86 84 559
878 10 229 233 232 234
879 25 232 233 229 228
880 25 232 233 229 226
881 26 232 233 235 239
882 27 232 233 235 236
883 11 229 233 232 230
884 27 235 233 232 230
885 25 235 233 229 228
886 25 235 233 229 226
887 11 229 233 235 236
888 10 229 233 235 239
889 37 271 269 472 466
890 36 271 269 472 474
891 37 270 269 472 466
892 36 270 269 472 474
893 9 55 79 77 78
894 8 78 79 55 59
895 6 78 79 55 54
896 6 78 79 55 52
897 6 55 79 78 80
898 6 55 79 78 76
899 42 81 79 78 77
900 43 81 79 55 59
901 47 77 79 55 59
902 7 55 79 78 77
903 9 473 472 466 269
904 8 269 472 473 467
905 6 269 472 473 471
906 6 269 472 473 443
907 6 473 472 269 271
908 6 473 472 269 270
909 42 474 472 269 466
910 43 474 472 473 467
911 47 466 472 473 467
912 7 473 472 269 466
913 16 78 77 79 81
914 22 79 77 78 80
915 22 79 77 78 76
916 29 190 60 58 59
917 45 61 60 58 59
918 26 58 60 190 186
919 27 58 60 190 192
920 44 61 60 190 192
921 26 190 60 58 181
922 16 269 466 472 474
923 22 472 466 269 271
924 22 472 466 269 270
925 10 187 186 190 60
926 25 190 186 187 189
927 25 190 186 187 183
928 26 190 186 182 181
929 27 190 186 182 178
930 11 187 186 190 192
931 27 182 186 190 192
932 25 182 186 187 189
933 25 182 186 187 183
934 11 187 186 182 178
935 10 187 186 182 181
936 16 523 519 521 525
937 22 521 519 523 522
938 22 521 519 523 526
939 26 475 478 480 482
940 27 475 478 480 481
941 26 60 58 181 182
942 27 60 58 181 51
943 27 181 58 60 61
944 29 182 181 58 59
945 45 51 181 58 59
946 26 58 181 182 186
947 27 58 181 182 178
948 27 186 182 181 51
949 44 178 182 181 51
950 17 8 9 12 14
951 17 8 9 12 11
952 32 12 9 8 6
953 32 12 9 8 7
954 21 86 561 558 556
955 37 537 561 86 559
956 36 537 561 86 88
957 37 90 561 86 559
958 36 90 561 86 88
959 37 242 244 247 243
960 36 242 244 247 246
961 37 245 244 247 243
962 36 245 244 247 246
963 26 60 190 186 182
964 27 186 190 60 61
965 26 475 477 479 482
966 27 475 477 479 563
967 44 562 477 479 563
968 26 479 477 475 478
969 21 211 208 413 414
970 36 206 208 211 214
971 36 209 208 211 214
972 37 206 208 211 213
973 37 209 208 211 213
974 26 234 232 233 235
975 27 233 232 234 118
976 27 575 577 578 579
977 45 574 577 575 573
978 44 574 577 578 579
979 29 578 577 575 573
980 17 520 358 353 350
981 17 520 358 353 352
982 32 353 358 520 518
983 32 353 358 520 524
984 27 482 480 478 476
985 45 481 480 482 484
986 44 481 480 478 476
987 29 478 480 482 484
988 26 350 353 352 348
989 27 350 353 352 290
990 27 352 353 350 517
991 29 232 234 238 241
992 45 118 234 238 241
993 26 238 234 232 233
994 27 238 234 232 230
995 44 118 234 232 230
996 26 232 234 238 239
997 22 490 486 492 493
998 22 490 486 492 494
999 16 492 486 490 488
1000 8 492 490 487 484
1001 47 486 490 487 484
1002 43 488 490 487 484
1003 7 487 490 492 486
1004 6 487 490 492 493
1005 6 487 490 492 494
1006 9 487 490 486 492
1007 6 492 490 487 485
1008 6 492 490 487 491
1009 42 488 490 492 486
1010 26 580 578 577 575
1011 27 580 578 577 574
1012 36 493 492 490 488
1013 36 494 492 490 488
1014 37 493 492 490 486
1015 37 494 492 490 486
1016 9 310 312 313 311
1017 8 311 312 310 306
1018 6 311 312 310 309
1019 6 311 312 310 377
1020 6 310 312 311 308
1021 6 310 312 311 314
1022 42 315 312 311 313
1023 43 315 312 310 306
1024 47 313 312 310 306
1025 7 310 312 311 313
1026 21 490 487 484 482
1027 37 485 487 490 486
1028 36 485 487 490 488
1029 37 491 487 490 486
1030 36 491 487 490 488
1031 21 312 310 306 304
1032 36 309 310 312 315
1033 36 377 310 312 315
1034 37 309 310 312 313
1035 37 377 310 312 313
1036 26 415 418 417 455
1037 27 417 418 415 416
1038 29 477 479 482 484
1039 26 477 479 482 480
1040 27 482 479 477 562
1041 45 563 479 482 484
1042 26 479 482 480 478
1043 27 479 482 480 481
1044 27 480 482 479 563
1045 26 415 414 412 455
1046 27 415 414 412 411
1047 27 412 414 415 416
1048 10 581 417 418 415
1049 25 418 417 581 460
1050 25 418 417 581 549
1051 26 418 417 455 412
1052 27 418 417 455 454
1053 11 581 417 418 419
1054 27 455 417 418 419
1055 25 455 417 581 460
1056 25 455 417 581 549
1057 11 581 417 455 454
1058 10 581 417 455 412
1059 29 418 415 414 413
1060 45 416 415 414 413
1061 26 414 415 418 417
1062 27 414 415 418 419
1063 44 416 415 418 419
1064 26 418 415 414 412
1065 17 208 413 414 415
1066 17 208 413 414 412
1067 32 414 413 208 206
1068 32 414 413 208 209
1069 17 487 484 482 479
1070 32 482 484 487 485
1071 32 482 484 487 491
1072 17 487 484 482 480
1073 27 417 455 412 411
1074 44 454 455 412 411
1075 29 455 412 414 413
1076 45 411 412 414 413
1077 26 414 412 455 417
1078 27 414 412 455 454
1079 24 580 581 417 418
1080 24 417 581 580 456
1081 24 417 581 580 578
1082 24 580 581 417 455
1083 10 581 580 456 453
1084 11 581 580 456 457
1085 10 581 580 578 577
1086 11 581 580 578 579
1087 25 456 580 581 460
1088 25 578 580 581 460
1089 25 456 580 581 549
1090 25 578 580 581 549
1091 26 456 580 578 577
1092 27 456 580 578 579
1093 27 578 580 456 457
1094 26 580 456 453 575
1095 27 580 456 453 452
1096 44 457 456 453 452
1097 26 453 456 580 578
1098 17 310 306 304 301
1099 17 310 306 304 305
1100 32 304 306 310 309
1101 32 304 306 310 377
1102 26 301 304 305 302
1103 27 301 304 305 307
1104 27 305 304 301 300
1105 29 302 305 304 306
1106 45 307 305 304 306
1107 26 304 305 302 299
1108 27 304 305 302 303
1109 26 453 575 577 578
1110 27 453 575 577 574
1111 27 577 575 453 452
1112 29 343 350 353 358
1113 45 517 350 353 358
1114 26 353 350 343 342
1115 27 353 350 343 339
1116 44 517 350 343 339
1117 26 343 350 353 352
1118 29 456 453 575 573
1119 26 456 453 575 577
1120 27 575 453 456 457
1121 45 452 453 575 573
1122 8 257 140 142 143
1123 47 139 140 142 143
1124 43 138 140 142 143
1125 7 142 140 257 139
1126 6 142 140 257 258
1127 6 142 140 257 254
1128 9 142 140 139 257
1129 6 257 140 142 141
1130 6 257 140 142 144
1131 42 138 140 257 139
1132 22 568 564 569 451
1133 22 568 564 569 567
1134 16 569 564 568 565
1135 22 86 559 84 552
1136 22 86 559 84 82
1137 16 84 559 86 88
1138 9 252 247 243 244
1139 8 244 247 252 461
1140 6 244 247 252 253
1141 6 244 247 252 459
1142 6 252 247 244 242
1143 6 252 247 244 245
1144 42 246 247 244 243
1145 43 246 247 252 461
1146 47 243 247 252 461
1147 7 252 247 244 243
1148 17 55 59 58 60
1149 17 55 59 58 181
1150 32 58 59 55 54
1151 32 58 59 55 52
1152 21 140 142 143 146
1153 37 141 142 140 139
1154 36 141 142 140 138
1155 37 144 142 140 139
1156 36 144 142 140 138
1157 1 545 63 64 66
1158 23 64 63 545 576
1159 23 64 63 545 572
1160 23 64 63 545 546
1161 1 545 63 64 65
1162 33 98 63 545 576
1163 33 98 63 545 572
1164 33 98 63 545 546
1165 33 539 63 545 576
1166 33 539 63 545 572
1167 33 539 63 545 546
1168 17 252 461 462 255
1169 17 252 461 462 421
1170 32 462 461 252 253
1171 32 462 461 252 459
1172 26 231 201 404 400
1173 27 231 201 404 409
1174 44 237 201 404 409
1175 26 404 201 231 445
1176 26 231 445 397 400
1177 27 231 445 397 396
1178 16 244 243 247 246
1179 22 247 243 244 242
1180 22 247 243 244 245
1181 21 79 55 59 58
1182 36 54 55 79 81
1183 36 52 55 79 81
1184 37 54 55 79 77
1185 37 52 55 79 77
1186 29 201 404 400 402
1187 26 201 404 400 397
1188 27 400 404 201 237
1189 45 409 404 400 402
1190 16 196 199 197 200
1191 22 197 199 196 198
1192 22 197 199 196 194
1193 33 160 162 165 164
1194 33 160 162 165 166
1195 33 161 162 165 164
1196 33 161 162 165 166
1197 33 159 162 165 164
1198 33 159 162 165 166
1199 36 451 569 568 565
1200 36 567 569 568 565
1201 37 451 569 568 564
1202 37 567 569 568 564
1203 8 569 568 571 573
1204 47 564 568 571 573
1205 43 565 568 571 573
1206 7 571 568 569 564
1207 6 571 568 569 451
1208 6 571 568 569 567
1209 9 571 568 564 569
1210 6 569 568 571 566
1211 6 569 568 571 570
1212 42 565 568 569 564
1213 27 400 397 445 444
1214 45 396 397 400 402
1215 44 396 397 445 444
1216 29 445 397 400 402
1217 26 404 400 397 445
1218 27 404 400 397 396
1219 27 397 400 404 409
1220 17 406 402 400 404
1221 32 400 402 406 410
1222 32 400 402 406 408
1223 17 406 402 400 397
1224 21 405 406 402 400
1225 37 410 406 405 543
1226 36 410 406 405 538
1227 37 408 406 405 543
1228 36 408 406 405 538
1229 8 544 405 406 402
1230 47 543 405 406 402
1231 43 538 405 406 402
1232 7 406 405 544 543
1233 6 406 405 544 548
1234 6 406 405 544 541
1235 9 406 405 543 544
1236 6 544 405 406 410
1237 6 544 405 406 408
1238 42 538 405 544 543
1239 21 247 252 461 462
1240 36 253 252 247 246
1241 36 459 252 247 246
1242 37 253 252 247 243
1243 37 459 252 247 243
1244 36 548 544 405 538
1245 36 541 544 405 538
1246 37 548 544 405 543
1247 37 541 544 405 543
1248 37 198 196 197 199
1249 36 198 196 197 200
1250 37 194 196 197 199
1251 36 194 196 197 200
1252 9 195 197 199 196
1253 8 196 197 195 394
1254 6 196 197 195 163
1255 6 196 197 195 398
1256 6 195 197 196 198
1257 6 195 197 196 194
1258 42 200 197 196 199
1259 43 200 197 195 394
1260 47 199 197 195 394
1261 7 195 197 196 199
1262 22 405 543 544 548
1263 22 405 543 544 541
1264 16 544 543 405 538
1265 21 197 195 394 442
1266 36 163 195 197 200
1267 36 398 195 197 200
1268 37 163 195 197 199
1269 37 398 195 197 199
1270 26 255 462 421 423
1271 27 255 462 421 420
1272 27 421 462 255 256
1273 17 571 573 575 453
1274 32 575 573 571 566
1275 32 575 573 571 570
1276 17 571 573 575 577
1277 21 568 571 573 575
1278 37 566 571 568 564
1279 36 566 571 568 565
1280 37 570 571 568 564
1281 36 570 571 568 565
1282 17 561 558 556 554
1283 32 556 558 561 537
1284 32 556 558 561 90
1285 17 561 558 556 560
1286 29 423 421 462 461
1287 45 420 421 462 461
1288 26 462 421 423 424
1289 27 462 421 423 422
1290 29 217 255 462 461
1291 45 256 255 462 461
1292 26 462 255 217 424
1293 27 462 255 217 220
1294 44 256 255 217 220
1295 26 217 255 462 421
1296 27 500 498 497 495
1297 45 496 498 500 501
1298 44 496 498 497 495
1299 29 497 498 500 501
1300 17 195 394 442 438
1301 17 195 394 442 393
1302 32 442 394 195 163
1303 32 442 394 195 398
1304 26 218 216 188 371
1305 27 218 216 188 184
1306 27 146 149 25 27
1307 45 147 149 146 143
1308 44 147 149 25 27
1309 29 25 149 146 143
1310 24 218 219 424 217
1311 24 424 219 218 425
1312 24 424 219 218 216
1313 24 218 219 424 423
1314 29 298 301 304 306
1315 45 300 301 304 306
1316 26 304 301 298 299
1317 27 304 301 298 296
1318 44 300 301 298 296
1319 26 298 301 304 305
1320 26 29 25 149 146
1321 27 29 25 149 147
1322 27 424 423 421 420
1323 44 422 423 421 420
1324 27 299 302 305 307
1325 44 303 302 305 307
1326 9 8 4 1 3
1327 8 3 4 8 9
1328 6 3 4 8 6
1329 6 3 4 8 7
1330 6 8 4 3 99
1331 6 8 4 3 2
1332 42 5 4 3 1
1333 43 5 4 8 9
1334 47 1 4 8 9
1335 7 8 4 3 1
1336 29 553 554 556 558
1337 26 553 554 556 560
1338 27 556 554 553 550
1339 45 551 554 556 558
1340 26 554 556 560 557
1341 27 554 556 560 536
1342 27 560 556 554 551
1343 37 99 3 4 1
1344 36 99 3 4 5
1345 37 2 3 4 1
1346 36 2 3 4 5
1347 1 263 262 267 268
1348 23 267 262 263 264
1349 23 267 262 263 259
1350 23 267 262 263 265
1351 1 263 262 267 109
1352 33 261 262 263 264
1353 33 261 262 263 259
1354 33 261 262 263 265
1355 33 260 262 263 264
1356 33 260 262 263 259
1357 33 260 262 263 265
1358 10 219 424 217 255
1359 25 217 424 219 221
1360 25 217 424 219 427
1361 26 217 424 423 421
1362 27 217 424 423 422
1363 11 219 424 217 220
1364 27 423 424 217 220
1365 25 423 424 219 221
1366 25 423 424 219 427
1367 11 219 424 423 422
1368 10 219 424 423 421
1369 10 295 299 298 301
1370 25 298 299 295 293
1371 25 298 299 295 458
1372 26 298 299 302 305
1373 27 298 299 302 303
1374 11 295 299 298 296
1375 27 302 299 298 296
1376 25 302 299 295 293
1377 25 302 299 295 458
1378 11 295 299 302 303
1379 10 295 299 302 305
1380 26 301 298 299 302
1381 27 299 298 301 300
1382 26 255 217 424 423
1383 27 424 217 255 256
1384 26 499 502 503 500
1385 27 499 502 503 505
1386 44 463 502 503 505
1387 26 503 502 499 497
1388 24 499 295 299 298
1389 24 299 295 499 502
1390 24 299 295 499 497
1391 24 499 295 299 302
1392 10 295 499 502 503
1393 11 295 499 502 463
1394 10 295 499 497 498
1395 11 295 499 497 495
1396 25 502 499 295 293
1397 25 497 499 295 293
1398 25 502 499 295 458
1399 25 497 499 295 458
1400 26 502 499 497 498
1401 27 502 499 497 495
1402 27 497 499 502 463
1403 27 556 560 557 440
1404 45 536 560 556 558
1405 44 536 560 557 440
1406 29 557 560 556 558
1407 26 555 557 560 556
1408 27 555 557 560 536
1409 26 555 553 554 556
1410 27 555 553 554 551
1411 44 550 553 554 551
1412 26 554 553 555 557
1413 10 434 555 553 554
1414 11 434 555 553 550
1415 10 434 555 557 560
1416 11 434 555 557 440
1417 25 553 555 434 431
1418 25 557 555 434 431
1419 25 553 555 434 429
1420 25 557 555 434 429
1421 26 553 555 557 560
1422 27 553 555 557 440
1423 27 557 555 553 550
1424 24 555 434 436 435
1425 24 436 434 555 553
1426 24 436 434 555 557
1427 24 555 434 436 439
1428 26 438 442 393 439
1429 27 438 442 393 395
1430 27 393 442 438 437
1431 29 435 438 442 394
1432 45 437 438 442 394
1433 26 442 438 435 436
1434 27 442 438 435 433
1435 44 437 438 435 433
1436 26 435 438 442 393
1437 29 439 393 442 394
1438 45 395 393 442 394
1439 26 442 393 439 436
1440 27 442 393 439 441
1441 27 436 439 393 395
1442 44 441 439 393 395
1443 26 438 435 436 439
1444 27 436 435 438 437
1445 10 434 436 435 438
1446 25 435 436 434 431
1447 25 435 436 434 429
1448 26 435 436 439 393
1449 27 435 436 439 441
1450 11 434 436 435 433
1451 27 439 436 435 433
1452 25 439 436 434 431
1453 25 439 436 434 429
1454 11 434 436 439 441
1455 10 434 436 439 393
1456 16 3 1 4 5
1457 22 4 1 3 99
1458 22 4 1 3 2
1459 26 499 497 498 500
1460 27 499 497 498 496

Impropers

1 25 177 49 47 50
2 25 49 47 174 45
3 9 43 168 167 169
4 9 43 168 172 169
5 17 167 168 172 169
6 7 43 168 167 172
7 27 176 174 47 169
8 24 56 177 49 124
9 25 174 176 124 120
10 25 176 124 177 127
11 2 287 282 279 280
12 2 287 282 483 280
13 13 280 282 279 483
14 3 287 282 279 483
15 30 354 357 359 355
16 10 379 223 193 222
17 10 379 223 193 224
18 7 379 223 222 224
19 16 222 223 224 193
20 26 356 354 349 357
21 12 15 56 177 132
22 12 15 56 177 57
23 13 15 56 132 57
24 13 177 56 132 57
25 24 56 15 13 17
26 30 283 285 286 449
27 24 282 280 283 277
28 26 281 283 280 285
29 3 282 287 289 288
30 3 282 287 289 489
31 3 282 287 288 489
32 14 289 287 288 489
33 13 356 361 363 360
34 13 356 361 363 362
35 13 356 361 360 362
36 14 363 361 360 362
37 24 447 281 278 283
38 25 15 13 11 53
39 27 14 12 11 9
40 25 14 17 15 18
41 25 276 277 280 275
42 13 281 447 446 450
43 13 281 447 446 448
44 13 281 447 450 448
45 14 446 447 450 448
46 22 430 379 223 193
47 21 430 379 223 378
48 23 430 379 193 378
49 23 223 379 193 378
50 2 403 345 346 349
51 2 403 345 340 349
52 13 349 345 346 340
53 3 403 345 346 340
54 3 345 403 401 407
55 3 345 403 401 399
56 3 345 403 407 399
57 14 401 403 407 399
58 24 345 349 354 344
59 25 233 235 239 236
60 12 186 187 185 189
61 12 186 187 185 183
62 13 186 187 189 183
63 13 185 187 189 183
64 25 235 239 238 240
65 25 128 180 185 179
66 25 130 128 180 126
67 9 379 430 432 380
68 9 379 430 428 380
69 17 432 430 428 380
70 7 379 430 432 428
71 24 187 185 136 180
72 8 531 528 507 527
73 8 531 528 529 527
74 16 507 528 529 527
75 7 531 528 507 529
76 22 528 531 532 527
77 21 528 531 532 533
78 23 528 531 527 533
79 23 532 531 527 533
80 25 185 136 135 191
81 9 251 131 134 129
82 9 251 131 133 129
83 17 134 131 133 129
84 7 251 131 134 133
85 27 128 130 135 129
86 25 136 135 130 137
87 25 384 388 392 387
88 25 388 392 334 335
89 27 388 384 386 380
90 22 131 251 250 125
91 21 131 251 250 248
92 23 131 251 125 248
93 23 250 251 125 248
94 8 123 294 297 291
95 8 123 294 249 291
96 16 297 294 249 291
97 7 123 294 297 249
98 24 337 334 390 392
99 25 390 386 384 382
100 10 251 250 125 103
101 10 251 250 125 102
102 7 251 250 103 102
103 16 103 250 102 125
104 25 342 348 352 284
105 8 211 210 207 213
106 8 211 210 212 213
107 16 207 210 212 213
108 7 211 210 207 212
109 22 294 123 121 291
110 21 294 123 121 292
111 23 294 123 291 292
112 23 121 123 291 292
113 11 123 121 241 119
114 11 123 121 241 122
115 7 123 121 119 122
116 17 119 121 122 241
117 25 334 390 386 391
118 22 210 211 208 213
119 21 210 211 208 214
120 23 210 211 213 214
121 23 208 211 213 214
122 11 531 532 534 508
123 11 531 532 534 530
124 7 531 532 508 530
125 17 508 532 530 534
126 27 22 26 32 534
127 25 26 22 23 20
128 24 337 342 348 343
129 8 312 311 308 313
130 8 312 311 314 313
131 16 308 311 314 313
132 7 312 311 308 314
133 25 348 352 353 290
134 12 342 337 334 338
135 12 342 337 334 336
136 13 342 337 338 336
137 13 334 337 338 336
138 27 234 238 239 241
139 25 13 11 12 10
140 24 361 356 351 354
141 30 320 317 464 318
142 13 322 152 154 151
143 13 322 152 154 150
144 13 322 152 151 150
145 14 154 152 151 150
146 22 168 43 41 39
147 21 168 43 41 170
148 23 168 43 39 170
149 23 41 43 39 170
150 10 43 41 39 42
151 10 43 41 39 40
152 7 43 41 42 40
153 16 42 41 40 39
154 25 347 344 349 341
155 26 347 351 356 173
156 30 351 173 171 175
157 30 325 327 156 329
158 3 328 383 512 381
159 3 328 383 512 389
160 3 328 383 381 389
161 14 512 383 381 389
162 26 326 325 322 327
163 24 328 326 323 325
164 1 383 328 326 385
165 1 383 328 326 332
166 3 383 328 385 332
167 13 326 328 385 332
168 24 152 322 325 320
169 26 322 320 321 317
170 25 326 323 321 324
171 24 319 321 320 323
172 2 510 319 316 321
173 2 510 319 465 321
174 13 321 319 316 465
175 3 510 319 316 465
176 26 67 65 64 542
177 30 65 542 547 540
178 24 165 347 344 351
179 3 89 85 110 83
180 3 89 85 110 87
181 3 89 85 83 87
182 14 110 85 83 87
183 10 140 257 139 258
184 10 140 257 139 254
185 7 140 257 258 254
186 16 258 257 254 139
187 24 63 64 65 66
188 1 162 165 347 164
189 1 162 165 347 166
190 3 162 165 164 166
191 13 347 165 164 166
192 24 69 67 70 65
193 13 67 69 46 44
194 13 67 69 46 48
195 13 67 69 44 48
196 14 46 69 44 48
197 22 367 368 372 370
198 21 367 368 372 366
199 23 367 368 370 366
200 23 372 368 370 366
201 25 68 66 64 100
202 25 24 148 146 145
203 25 33 32 26 535
204 26 68 70 67 72
205 10 368 372 370 375
206 10 368 372 370 373
207 7 368 372 375 373
208 16 375 372 373 370
209 30 70 72 74 73
210 24 71 68 66 70
211 9 368 367 364 369
212 9 368 367 365 369
213 17 364 367 365 369
214 7 368 367 364 365
215 1 204 71 68 75
216 1 204 71 68 101
217 3 204 71 75 101
218 13 68 71 75 101
219 25 425 374 371 376
220 30 109 155 153 37
221 27 188 371 374 369
222 26 112 109 267 155
223 24 89 111 268 91
224 26 111 91 112 95
225 24 92 112 91 109
226 13 112 92 93 94
227 13 112 92 93 38
228 13 112 92 94 38
229 14 93 92 94 38
230 30 91 95 97 96
231 10 108 105 107 104
232 10 108 105 107 106
233 7 108 105 104 106
234 16 104 105 106 107
235 1 85 89 111 225
236 1 85 89 111 62
237 3 85 89 225 62
238 13 111 89 225 62
239 22 504 108 105 107
240 21 504 108 105 19
241 23 504 108 107 19
242 23 105 108 107 19
243 9 108 504 506 501
244 9 108 504 582 501
245 17 506 504 582 501
246 7 108 504 506 582
247 25 218 425 374 426
248 25 371 188 216 184
249 24 219 218 425 216
250 25 30 33 32 36
251 25 29 24 148 28
252 25 22 23 30 21
253 24 31 30 33 23
254 24 262 267 109 268
255 27 498 500 503 501
256 25 111 268 267 266
257 27 149 146 148 143
258 11 4 8 9 6
259 11 4 8 9 7
260 7 4 8 6 7
261 17 6 8 7 9
262 3 71 204 203 202
263 3 71 204 203 205
264 3 71 204 202 205
265 14 203 204 202 205
266 25 502 503 500 505
267 25 350 343 342 339
268 24 31 29 24 25
269 12 30 31 29 35
270 12 30 31 29 34
271 13 30 31 35 34
272 13 29 31 35 34
273 26 276 278 281 116
274 30 278 116 227 114
275 24 274 276 277 278
276 25 12 14 17 16
277 3 274 113 115 158
278 3 274 113 115 157
279 3 274 113 158 157
280 14 115 113 158 157
281 1 113 274 276 117
282 1 113 274 276 273
283 3 113 274 117 273
284 13 276 274 117 273
285 10 86 84 559 552
286 10 86 84 559 82
287 7 86 84 552 82
288 16 552 84 82 559
289 12 233 229 231 228
290 12 233 229 231 226
291 13 233 229 228 226
292 13 231 229 228 226
293 11 472 473 467 471
294 11 472 473 467 443
295 7 472 473 471 443
296 17 471 473 443 467
297 27 470 469 331 467
298 25 469 470 585 468
299 25 333 331 469 330
300 25 470 585 516 584
301 25 516 333 331 272
302 24 515 516 333 585
303 12 516 515 475 513
304 12 516 515 475 514
305 13 516 515 513 514
306 13 475 515 513 514
307 8 79 78 80 77
308 8 79 78 76 77
309 16 80 78 76 77
310 7 79 78 80 76
311 8 521 523 522 519
312 8 521 523 526 519
313 16 522 523 526 519
314 7 521 523 522 526
315 24 515 475 477 478
316 24 229 231 201 445
317 22 523 521 520 519
318 21 523 521 520 525
319 23 523 521 519 525
320 23 520 521 519 525
321 11 521 520 358 518
322 11 521 520 358 524
323 7 521 520 518 524
324 17 518 520 524 358
325 22 561 86 84 559
326 21 561 86 84 88
327 23 561 86 559 88
328 23 84 86 559 88
329 24 229 233 235 232
330 8 472 269 271 466
331 8 472 269 270 466
332 16 271 269 270 466
333 7 472 269 271 270
334 22 78 79 55 77
335 21 78 79 55 81
336 23 78 79 77 81
337 23 55 79 77 81
338 22 269 472 473 466
339 21 269 472 473 474
340 23 269 472 466 474
341 23 473 472 466 474
342 25 58 60 190 61
343 24 187 186 182 190
344 25 480 478 475 476
345 27 60 58 181 59
346 25 182 181 58 51
347 25 186 182 181 178
348 9 86 561 537 558
349 9 86 561 90 558
350 17 537 561 90 558
351 7 86 561 537 90
352 8 247 244 242 243
353 8 247 244 245 243
354 16 242 244 245 243
355 7 247 244 242 245
356 25 60 190 186 192
357 25 475 477 479 562
358 11 211 208 413 206
359 11 211 208 413 209
360 7 211 208 206 209
361 17 206 208 209 413
362 25 234 232 233 230
363 25 575 577 578 574
364 25 482 480 478 481
365 27 350 353 352 358
366 25 238 234 232 118
367 22 487 490 492 486
368 21 487 490 492 488
369 23 487 490 486 488
370 23 492 490 486 488
371 25 577 578 580 579
372 10 490 492 486 493
373 10 490 492 486 494
374 7 490 492 493 494
375 16 493 492 494 486
376 22 311 312 310 313
377 21 311 312 310 315
378 23 311 312 313 315
379 23 310 312 313 315
380 9 490 487 485 484
381 9 490 487 491 484
382 17 485 487 491 484
383 7 490 487 485 491
384 11 312 310 306 309
385 11 312 310 306 377
386 7 312 310 309 377
387 17 309 310 377 306
388 25 415 418 417 419
389 25 477 479 482 563
390 27 480 482 479 484
391 27 415 414 412 413
392 24 581 417 455 418
393 25 414 415 418 416
394 25 417 455 412 454
395 25 455 412 414 411
396 12 417 581 580 460
397 12 417 581 580 549
398 13 417 581 460 549
399 13 580 581 460 549
400 24 581 580 456 578
401 25 580 456 453 457
402 27 301 304 305 306
403 25 302 305 304 307
404 27 577 575 453 573
405 25 353 350 343 517
406 25 456 453 575 452
407 22 142 140 257 139
408 21 142 140 257 138
409 23 142 140 139 138
410 23 257 140 139 138
411 22 244 247 252 243
412 21 244 247 252 246
413 23 244 247 243 246
414 23 252 247 243 246
415 9 140 142 141 143
416 9 140 142 144 143
417 17 141 142 144 143
418 7 140 142 141 144
419 2 545 63 98 64
420 2 545 63 539 64
421 13 64 63 98 539
422 3 545 63 98 539
423 25 231 201 404 237
424 3 63 545 576 572
425 3 63 545 576 546
426 3 63 545 572 546
427 14 576 545 572 546
428 25 397 445 231 444
429 3 319 510 583 509
430 3 319 510 583 511
431 3 319 510 509 511
432 14 583 510 509 511
433 11 79 55 59 54
434 11 79 55 59 52
435 7 79 55 54 52
436 17 54 55 52 59
437 25 201 404 400 409
438 3 165 162 160 161
439 3 165 162 160 159
440 3 165 162 161 159
441 14 160 162 161 159
442 10 568 569 564 451
443 10 568 569 564 567
444 7 568 569 451 567
445 16 451 569 567 564
446 22 571 568 569 564
447 21 571 568 569 565
448 23 571 568 564 565
449 23 569 568 564 565
450 25 400 397 445 396
451 27 397 400 404 402
452 9 405 406 410 402
453 9 405 406 408 402
454 17 410 406 408 402
455 7 405 406 410 408
456 22 406 405 544 543
457 21 406 405 544 538
458 23 406 405 543 538
459 23 544 405 543 538
460 11 247 252 461 253
461 11 247 252 461 459
462 7 247 252 253 459
463 17 253 252 459 461
464 10 405 544 543 548
465 10 405 544 543 541
466 7 405 544 548 541
467 16 548 544 541 543
468 8 197 196 198 199
469 8 197 196 194 199
470 16 198 196 194 199
471 7 197 196 198 194
472 22 196 197 195 199
473 21 196 197 195 200
474 23 196 197 199 200
475 23 195 197 199 200
476 11 197 195 394 163
477 11 197 195 394 398
478 7 197 195 163 398
479 17 163 195 398 394
480 27 255 462 421 461
481 9 568 571 566 573
482 9 568 571 570 573
483 17 566 571 570 573
484 7 568 571 566 570
485 25 423 421 462 420
486 25 462 255 217 256
487 25 500 498 497 496
488 25 188 216 218 215
489 25 146 149 25 147
490 12 424 219 218 221
491 12 424 219 218 427
492 13 424 219 221 427
493 13 218 219 221 427
494 25 304 301 298 300
495 25 149 25 29 27
496 25 424 423 421 422
497 25 299 302 305 303
498 22 3 4 8 1
499 21 3 4 8 5
500 23 3 4 1 5
501 23 8 4 1 5
502 25 553 554 556 551
503 27 560 556 554 558
504 8 4 3 99 1
505 8 4 3 2 1
506 16 99 3 2 1
507 7 4 3 99 2
508 2 263 262 261 267
509 2 263 262 260 267
510 13 267 262 261 260
511 3 263 262 261 260
512 24 219 424 423 217
513 24 295 299 302 298
514 3 262 263 264 259
515 3 262 263 264 265
516 3 262 263 259 265
517 14 264 263 259 265
518 25 301 298 299 296
519 25 255 217 424 220
520 25 499 502 503 463
521 12 299 295 499 293
522 12 299 295 499 458
523 13 299 295 293 458
524 13 499 295 293 458
525 24 295 499 502 497
526 25 556 560 557 536
527 25 560 557 555 440
528 25 555 553 554 550
529 24 434 555 553 557
530 12 436 434 555 431
531 12 436 434 555 429
532 13 436 434 431 429
533 13 555 434 431 429
534 27 438 442 393 394
535 25 442 438 435 437
536 25 439 393 442 395
537 25 436 439 393 441
538 25 438 435 436 433
539 24 434 436 439 435
540 25 498 497 499 495
