LAMMPS data file via write_data, version 4 Jul 2026, timestep = 211000, units = real

585 atoms
11 atom types
615 bonds
18 bond types
1090 angles
35 angle types
1466 dihedrals
48 dihedral types
540 impropers
30 improper types

1.2205835323582122 19.933195477641227 xlo xhi
1.2205835323582122 19.933195477641227 ylo yhi
1.2205835323582122 19.933195477641227 zlo zhi

Masses

1 12.01115
2 12.01115
3 12.01115
4 12.01115
5 1.00797
6 1.00797
7 1.00797
8 14.0067
9 15.9994
10 15.9994
11 15.9994

Pair Coeffs # lj/class2/coul/long

1 0.054 4.01
2 0.054 4.01
3 0.054 4.01
4 0.064 4.01
5 0.02 2.995
6 0.013 1.098
7 0.013 1.098
8 0.065 4.07
9 0.24 3.535
10 0.24 3.535
11 0.24 3.535

Bond Coeffs # class2

1 1.53 299.67 -501.77 679.81
2 1.53 299.67 -501.77 679.81
3 1.53 299.67 -501.77 679.81
4 1.501 321.902 -521.821 572.163
5 1.101 345 -691.89 844.6
6 1.457 365.805 -699.637 998.484
7 1.42 400.395 -835.195 1313.01
8 1.42 400.395 -835.195 1313.01
9 1.101 345 -691.89 844.6
10 1.42 400.395 -835.195 1313.01
11 1.101 345 -691.89 844.6
12 1.42 400.395 -835.195 1313.01
13 1.417 470.836 -627.618 1327.63
14 1.0982 372.825 -803.453 894.317
15 1.412 257.775 0 0
16 1.3768 428.88 -738.235 1114.97
17 1.006 466.74 -1073.6 1251.11
18 0.965 532.506 -1282.9 2004.77

Angle Coeffs # class2

1 108.4 43.9594 -8.3924 -9.3379
2 110.77 41.453 -10.604 5.129
3 112.67 39.516 -7.443 -9.5583
4 110.77 41.453 -10.604 5.129
5 111.27 54.5381 -8.3642 -13.0838
6 112.67 39.516 -7.443 -9.5583
7 110.77 41.453 -10.604 5.129
8 111.27 54.5381 -8.3642 -13.0838
9 120.05 44.7148 -22.7352 0
10 112.444 47.2337 -10.6612 -10.2062
11 109 80 0 0
12 110.954 50.8652 -4.4522 -10.0298
13 104.5 35.7454 -10.0067 -6.2729
14 102.969 38.9739 -6.2595 -8.171
15 110.77 41.453 -10.604 5.129
16 111.91 60.7147 -13.3366 -13.0785
17 111.27 54.5381 -8.3642 -13.0838
18 105.8 52.7061 -12.109 -9.8681
19 110.77 41.453 -10.604 5.129
20 111.27 54.5381 -8.3642 -13.0838
21 111.27 54.5381 -8.3642 -13.0838
22 111 44.3234 -9.4454 0
23 111 44.3234 -9.4454 0
24 118.9 61.0226 -34.9931 0
25 117.94 35.1558 -12.4682 0
26 120 102 0 0
27 123.42 73.6781 -21.6787 0
28 110 41.6 0 0
29 107.66 39.641 -12.921 -2.4318
30 110.62 51.3137 -6.7198 -2.6003
31 108.728 58.5446 -10.8088 -12.4006
32 108.728 58.5446 -10.8088 -12.4006
33 108.728 58.5446 -10.8088 -12.4006
34 108.728 58.5446 -10.8088 -12.4006
35 107.067 45.252 -7.5558 -9.512

BondBond Coeffs

1 0 1.53 1.501
2 3.3872 1.53 1.101
3 0 1.53 1.53
4 3.3872 1.53 1.101
5 11.4318 1.53 1.42
6 0 1.53 1.53
7 3.3872 1.53 1.101
8 11.4318 1.53 1.42
9 12.0676 1.501 1.417
10 -2.1113 1.457 1.457
11 0 1.457 1.412
12 -6.4168 1.457 1.006
13 -7.1131 1.42 1.42
14 0 1.42 1.3768
15 3.3872 1.53 1.101
16 4.6217 1.53 1.457
17 11.4318 1.53 1.42
18 -9.6879 1.42 0.965
19 3.3872 1.53 1.101
20 11.4318 1.53 1.42
21 11.4318 1.53 1.42
22 0 1.501 1.501
23 2.9168 1.501 1.101
24 68.2856 1.417 1.417
25 1.0795 1.417 1.0982
26 0 1.417 1.412
27 48.4754 1.417 1.3768
28 0 1.412 1.006
29 5.3316 1.101 1.101
30 12.426 1.101 1.457
31 23.1979 1.101 1.42
32 23.1979 1.101 1.42
33 23.1979 1.101 1.42
34 23.1979 1.101 1.42
35 -1.8749 1.006 1.006

BondAngle Coeffs

1 0 0 1.53 1.501
2 20.754 11.421 1.53 1.101
3 8.016 8.016 1.53 1.53
4 20.754 11.421 1.53 1.101
5 2.6868 20.4033 1.53 1.42
6 8.016 8.016 1.53 1.53
7 20.754 11.421 1.53 1.101
8 2.6868 20.4033 1.53 1.42
9 47.0579 31.0771 1.501 1.417
10 -7.2229 -7.2229 1.457 1.457
11 0 0 1.457 1.412
12 31.8096 20.5799 1.457 1.006
13 -2.8112 -2.8112 1.42 1.42
14 0 0 1.42 1.3768
15 20.754 11.421 1.53 1.101
16 6.0876 16.5702 1.53 1.457
17 2.6868 20.4033 1.53 1.42
18 28.58 18.9277 1.42 0.965
19 20.754 11.421 1.53 1.101
20 2.6868 20.4033 1.53 1.42
21 2.6868 20.4033 1.53 1.42
22 0 0 1.501 1.501
23 26.4608 11.7717 1.501 1.101
24 28.8708 28.8708 1.417 1.417
25 20.0033 24.2183 1.417 1.0982
26 0 0 1.417 1.412
27 58.479 107.681 1.417 1.3768
28 0 0 1.412 1.006
29 18.103 18.103 1.101 1.101
30 13.4582 42.4332 1.101 1.457
31 4.6189 55.327 1.101 1.42
32 4.6189 55.327 1.101 1.42
33 4.6189 55.327 1.101 1.42
34 4.6189 55.327 1.101 1.42
35 28.0322 28.0322 1.006 1.006

Dihedral Coeffs # class2

1 -0.2802 0 -0.0678 0 -0.0122 0
2 0 0 0.0316 0 -0.1681 0
3 0.1764 0 0.1766 0 -0.5206 0
4 0.7137 0 0.266 0 -0.2545 0
5 -0.6732 0 -0.4778 0 -0.167 0
6 0 0 0.0316 0 -0.1681 0
7 0.7137 0 0.266 0 -0.2545 0
8 0.7137 0 0.266 0 -0.2545 0
9 -0.5203 0 -0.3028 0 -0.345 0
10 0 0 4.4072 0 0 0
11 0 0 1.559 0 0 0
12 0 0 3 0 0 0
13 -0.1406 0 0.4168 0 0.015 0
14 0.1904 0 -0.1342 0 -0.246 0
15 0 0 2.25 0 0 0
16 0.5302 0 0 0 -0.3966 0
17 0 0 1.5 0 0 0
18 0 0 0 0 0.05 180
19 -1.1506 0 -0.6344 0 -0.1845 0
20 0 0 0 0 0.13 180
21 0 0 0 0 0.13 180
22 0.5302 0 0 0 -0.3966 0
23 -0.0228 0 0.028 0 -0.1863 0
24 -0.2802 0 -0.0678 0 -0.0122 0
25 -0.2801 0 -0.0678 0 -0.0122 0
26 8.3667 0 1.1932 0 0 0
27 0 0 3.9661 0 0 0
28 0 0 3 0 0 0
29 0 0 4.8498 0 0 0
30 0 0 2.25 0 0 0
31 0 0 0 0 0.05 180
32 0.9513 0 0.1155 0 0.072 0
33 -0.1432 0 0.0617 0 -0.1083 0
34 -0.1432 0 0.0617 0 -0.1083 0
35 -0.1435 0 0.253 0 -0.0905 0
36 -0.1432 0 0.0617 0 -0.1083 0
37 -0.1435 0 0.253 0 -0.0905 0
38 -0.5187 0 -0.4837 0 -0.1692 0
39 -0.2428 0 0.4065 0 -0.3079 0
40 -0.1435 0 0.253 0 -0.0905 0
41 0.1863 0 -0.4338 0 -0.2121 0
42 -0.1435 0 0.253 0 -0.0905 0
43 -0.1435 0 0.253 0 -0.0905 0
44 0 0 1.8769 0 0 0
45 0 0 1.7234 0 0 0
46 0 0 0 0 0.158 180
47 -0.182 0 -0.1084 0 -0.7047 0
48 -0.182 0 -0.1084 0 -0.7047 0

AngleAngleTorsion Coeffs

1 0 108.4 120.05
2 -16.164 112.67 110.77
3 -27.3953 112.67 111.91
4 -29.042 112.67 111.27
5 -12.1038 111.27 105.8
6 -16.164 112.67 110.77
7 -29.042 112.67 111.27
8 -29.042 112.67 111.27
9 -19.0059 111.27 104.5
10 -14.4097 120.05 118.9
11 4.4444 120.05 117.94
12 0 120.05 120
13 -24.3818 112.444 111.91
14 -12.5567 112.444 110.62
15 0 109 120
16 -16.4438 104.5 108.728
17 0 102.969 123.42
18 0 111.91 109
19 -7.5499 111.91 110.954
20 0 111.27 102.969
21 0 111.27 102.969
22 -16.4438 104.5 108.728
23 0 108.4 110.77
24 0 111 120.05
25 -5.8888 120.05 111
26 0 118.9 118.9
27 -4.8141 118.9 117.94
28 0 118.9 120
29 -21.0247 118.9 123.42
30 0 120 110
31 0 109 110.62
32 0 102.969 108.728
33 -12.564 110.77 110.77
34 -12.564 110.77 110.77
35 -20.2006 110.77 111.27
36 -12.564 110.77 110.77
37 -20.2006 110.77 111.27
38 -10.4258 110.62 110.954
39 -15.7572 110.77 111.91
40 -20.2006 110.77 111.27
41 -10.5093 108.728 105.8
42 -20.2006 110.77 111.27
43 -20.2006 110.77 111.27
44 0.3598 117.94 117.94
45 4.2296 117.94 123.42
46 0 111.91 111.27
47 -14.0484 111.27 111.27
48 -14.0484 111.27 111.27

EndBondTorsion Coeffs

1 0 0 0 0 0 0 1.53 1.417
2 0.2486 0.2422 -0.0925 0.0814 0.0591 0.2219 1.53 1.101
3 0.1032 0.5896 -0.4836 0.0579 -0.0043 -0.1906 1.53 1.457
4 -0.319 0.4411 -0.7174 1.1538 0.8409 -0.9138 1.53 1.42
5 -0.58 0.9004 0 0 0.5343 0.9025 1.53 0.965
6 0.2486 0.2422 -0.0925 0.0814 0.0591 0.2219 1.53 1.101
7 -0.319 0.4411 -0.7174 1.1538 0.8409 -0.9138 1.53 1.42
8 -0.319 0.4411 -0.7174 1.1538 0.8409 -0.9138 1.53 1.42
9 -0.2456 1.0517 -0.7795 0.4741 1.2635 0.5576 1.53 1.42
10 0 0.2421 0 0 -0.6918 0 1.501 1.417
11 0 -1.797 0 0 -0.4879 0 1.501 1.0982
12 0 0 0 0 0 0 1.501 1.412
13 -0.0128 -0.0495 -0.1079 0.0997 -0.0046 -0.2657 1.457 1.53
14 0.0628 0.0873 -0.0882 -0.5892 0.714 0.3505 1.457 1.101
15 0 0 0 0 0 0 1.457 1.417
16 -0.162 0.1564 -1.1408 -0.6054 1.3339 0.9648 1.42 1.101
17 0 0 0 0 0 0 1.42 1.417
18 0 0 0 0 0 0 1.53 1.412
19 -0.9466 0.9356 -0.5542 0.057 0.0625 0.4112 1.53 1.006
20 0 0 0 0 0 0 1.53 1.3768
21 0 0 0 0 0 0 1.53 1.3768
22 -0.162 0.1564 -1.1408 -0.6054 1.3339 0.9648 1.42 1.101
23 0 0 0 0 0 0 1.501 1.101
24 0 0 0 0 0 0 1.501 1.417
25 -0.5835 1.122 0.3978 1.3997 0.7756 0 1.417 1.101
26 -0.1185 6.3204 0 -0.1185 6.3204 0 1.417 1.417
27 0 -6.8958 0 0 -0.4669 0 1.417 1.0982
28 0 0 0 0 0 0 1.417 1.412
29 0 0.2655 0 0 4.8905 0 1.417 1.3768
30 0 0 0 0 0 0 1.417 1.006
31 0 0 0 0 0 0 1.412 1.101
32 0 0 0 0 0 0 1.3768 1.101
33 0.213 0.312 0.0777 0.213 0.312 0.0777 1.101 1.101
34 0.213 0.312 0.0777 0.213 0.312 0.0777 1.101 1.101
35 0.9681 0.9551 0.0436 0.5903 0.6669 0.8584 1.101 1.42
36 0.213 0.312 0.0777 0.213 0.312 0.0777 1.101 1.101
37 0.9681 0.9551 0.0436 0.5903 0.6669 0.8584 1.101 1.42
38 -1.1685 0.9266 -0.0993 0.085 0.3061 0.2104 1.101 1.006
39 0.196 0.7056 0.112 0.1022 0.209 0.6433 1.101 1.457
40 0.9681 0.9551 0.0436 0.5903 0.6669 0.8584 1.101 1.42
41 -1.7554 1.3145 0.2263 0.2493 0.6803 0 1.101 0.965
42 0.9681 0.9551 0.0436 0.5903 0.6669 0.8584 1.101 1.42
43 0.9681 0.9551 0.0436 0.5903 0.6669 0.8584 1.101 1.42
44 0 -0.689 0 0 -0.689 0 1.0982 1.0982
45 0 -1.5867 0 0 4.2641 0 1.0982 1.3768
46 0 0 0 0 0 0 1.457 1.42
47 1.0165 0.7553 -0.4609 1.0165 0.7553 -0.4609 1.42 1.42
48 1.0165 0.7553 -0.4609 1.0165 0.7553 -0.4609 1.42 1.42

MiddleBondTorsion Coeffs

1 0 0 0 1.501
2 -14.879 -3.6581 -0.3138 1.53
3 -15.4174 -7.3055 -1.0749 1.53
4 -21.8842 -7.6764 -0.6868 1.53
5 1.2472 0 0.7485 1.42
6 -14.879 -3.6581 -0.3138 1.53
7 -21.8842 -7.6764 -0.6868 1.53
8 -21.8842 -7.6764 -0.6868 1.53
9 -5.9288 -2.7007 -0.3175 1.42
10 0 9.1792 0 1.417
11 0 3.9421 0 1.417
12 0 0 0 1.417
13 -8.0036 -7.7321 -3.064 1.457
14 -6.4529 -6.8122 -1.1632 1.457
15 0 0 0 1.412
16 -6.8007 -4.6546 -1.4101 1.42
17 0 0 0 1.3768
18 0 0 0 1.457
19 -2.2208 0.5479 -0.3527 1.457
20 0 0 0 1.42
21 0 0 0 1.42
22 -6.8007 -4.6546 -1.4101 1.42
23 0 0 0 1.53
24 0 0 0 1.501
25 -5.5679 1.4083 0.301 1.501
26 27.5989 -2.312 0 1.417
27 0 -1.1521 0 1.417
28 0 0 0 1.417
29 0 4.8255 0 1.417
30 0 0 0 1.412
31 0 0 0 1.457
32 0 0 0 1.42
33 -14.261 -0.5322 -0.4864 1.53
34 -14.261 -0.5322 -0.4864 1.53
35 -16.7975 -1.2296 -0.275 1.53
36 -14.261 -0.5322 -0.4864 1.53
37 -16.7975 -1.2296 -0.275 1.53
38 -3.4611 1.6996 -0.6007 1.457
39 -10.4959 -0.7647 -0.0545 1.53
40 -16.7975 -1.2296 -0.275 1.53
41 0 0.9241 -0.5889 1.42
42 -16.7975 -1.2296 -0.275 1.53
43 -16.7975 -1.2296 -0.275 1.53
44 0 4.8228 0 1.417
45 0 5.5432 0 1.417
46 0 0 0 1.53
47 -17.2585 -3.6157 -0.8364 1.53
48 -17.2585 -3.6157 -0.8364 1.53

BondBond13 Coeffs

1 0 1.53 1.417
2 0 1.53 1.101
3 0 1.53 1.457
4 0 1.53 1.42
5 0 1.53 0.965
6 0 1.53 1.101
7 0 1.53 1.42
8 0 1.53 1.42
9 0 1.53 1.42
10 2.5085 1.501 1.417
11 0.8743 1.501 1.0982
12 0 1.501 1.412
13 0 1.457 1.53
14 0 1.457 1.101
15 0 1.457 1.417
16 0 1.42 1.101
17 0 1.42 1.417
18 0 1.53 1.412
19 0 1.53 1.006
20 0 1.53 1.3768
21 0 1.53 1.3768
22 0 1.42 1.101
23 0 1.501 1.101
24 0 1.501 1.417
25 -3.4826 1.417 1.101
26 53 1.417 1.417
27 -6.2741 1.417 1.0982
28 0 1.417 1.412
29 -2.2436 1.417 1.3768
30 0 1.417 1.006
31 0 1.412 1.101
32 0 1.3768 1.101
33 0 1.101 1.101
34 0 1.101 1.101
35 0 1.101 1.42
36 0 1.101 1.101
37 0 1.101 1.42
38 0 1.101 1.006
39 0 1.101 1.457
40 0 1.101 1.42
41 0 1.101 0.965
42 0 1.101 1.42
43 0 1.101 1.42
44 -1.7077 1.0982 1.0982
45 2.0517 1.0982 1.3768
46 0 1.457 1.42
47 0 1.42 1.42
48 0 1.42 1.42

AngleTorsion Coeffs

1 0 0 0 0 0 0 108.4 120.05
2 -0.2454 0 -0.1136 0.3113 0.4516 -0.1988 112.67 110.77
3 -1.9225 -1.345 0.221 2.0125 0.944 -2.7612 112.67 111.91
4 0.5623 -0.3041 -0.4015 0.9672 -0.7566 -1.2331 112.67 111.27
5 -3.5903 2.5225 0.4888 0.8726 -0.3577 0.3888 111.27 105.8
6 -0.2454 0 -0.1136 0.3113 0.4516 -0.1988 112.67 110.77
7 0.5623 -0.3041 -0.4015 0.9672 -0.7566 -1.2331 112.67 111.27
8 0.5623 -0.3041 -0.4015 0.9672 -0.7566 -1.2331 112.67 111.27
9 -2.7466 1.4877 -0.8955 0.5676 0.945 0.0703 111.27 104.5
10 0 -4.4683 0 0 3.8987 0 120.05 118.9
11 0 -0.1242 0 0 3.4601 0 120.05 117.94
12 0 0 0 0 0 0 120.05 120
13 1.2031 1.3645 -0.7071 -2.7883 1.5193 1.4796 112.444 111.91
14 -1.3582 0.1465 -0.5729 -2.6321 0.9353 -0.8398 112.444 110.62
15 0 0 0 0 0 0 109 120
16 -0.7777 0.434 -0.6653 -1.8234 1.6393 0.5144 104.5 108.728
17 0 0 0 0 0 0 102.969 123.42
18 0 0 0 0 0 0 111.91 109
19 -3.343 4.4558 -0.0346 0.2873 -0.8072 -0.096 111.91 110.954
20 0 0 0 0 0 0 111.27 102.969
21 0 0 0 0 0 0 111.27 102.969
22 -0.7777 0.434 -0.6653 -1.8234 1.6393 0.5144 104.5 108.728
23 0 0 0 0 0 0 108.4 110.77
24 0 0 0 0 0 0 111 120.05
25 0.2251 0.6548 0.1237 4.6266 0.1632 0.0461 120.05 111
26 1.9767 1.0239 0 1.9767 1.0239 0 118.9 118.9
27 0 2.5014 0 0 2.7147 0 118.9 117.94
28 0 0 0 0 0 0 118.9 120
29 0 10.0155 0 0 1.7404 0 118.9 123.42
30 0 0 0 0 0 0 120 110
31 0 0 0 0 0 0 109 110.62
32 0 0 0 0 0 0 102.969 108.728
33 -0.8085 0.5569 -0.2466 -0.8085 0.5569 -0.2466 110.77 110.77
34 -0.8085 0.5569 -0.2466 -0.8085 0.5569 -0.2466 110.77 110.77
35 2.3668 2.492 -1.0122 -0.1892 0.4918 0.7273 110.77 111.27
36 -0.8085 0.5569 -0.2466 -0.8085 0.5569 -0.2466 110.77 110.77
37 2.3668 2.492 -1.0122 -0.1892 0.4918 0.7273 110.77 111.27
38 -3.9582 2.0063 0.3213 -0.4294 -0.4442 -0.6141 110.62 110.954
39 0.5111 1.6328 -1.0155 -1.1075 0.282 0.8318 110.77 111.91
40 2.3668 2.492 -1.0122 -0.1892 0.4918 0.7273 110.77 111.27
41 -3.406 1.6396 0.0737 0 -0.281 -0.5944 108.728 105.8
42 2.3668 2.492 -1.0122 -0.1892 0.4918 0.7273 110.77 111.27
43 2.3668 2.492 -1.0122 -0.1892 0.4918 0.7273 110.77 111.27
44 0 2.4501 0 0 2.4501 0 117.94 117.94
45 0 1.8729 0 0 2.5706 0 117.94 123.42
46 0 0 0 0 0 0 111.91 111.27
47 0.5511 0.9737 -0.6673 0.5511 0.9737 -0.6673 111.27 111.27
48 0.5511 0.9737 -0.6673 0.5511 0.9737 -0.6673 111.27 111.27

Improper Coeffs # class2

1 0 0
2 0 0
3 0 0
4 0 0
5 0 0
6 0 0
7 0 0
8 0 0
9 0 0
10 0 0
11 0 0
12 0 0
13 0 0
14 0 0
15 0 0
16 0 0
17 0 0
18 0 0
19 0 0
20 0 0
21 0 0
22 0 0
23 0 0
24 7.8153 0
25 4.8912 0
26 0 0
27 13.0421 0
28 0 0
29 0 0
30 0 0

AngleAngle Coeffs

1 2.0403 -1.8202 1.0827 108.4 110.77 111
2 1.0827 -1.8202 2.0403 110.77 108.4 111
3 0.2738 -0.4825 0.2738 110.77 110.77 107.66
4 0.2738 -0.4825 0.2738 110.77 110.77 107.66
5 2.4286 0.5381 -2.5301 110.77 111.91 110.62
6 0.1689 2.5926 3.9177 111.27 110.77 108.728
7 0.2738 -0.4825 0.2738 110.77 110.77 107.66
8 3.9177 2.5926 0.1689 110.77 111.27 108.728
9 3.9177 2.5926 0.1689 110.77 111.27 108.728
10 0.1689 2.5926 3.9177 111.27 110.77 108.728
11 0.1689 2.5926 3.9177 111.27 110.77 108.728
12 0 0 0 111 111 111
13 2.3794 3.0118 2.3794 111 111 107.66
14 -0.3157 -0.3157 -0.3157 107.66 107.66 107.66
15 2.4321 2.4321 -3.5496 107.66 110.62 110.62
16 2.4259 2.4259 2.1283 107.66 108.728 108.728
17 2.4259 2.4259 2.1283 107.66 108.728 108.728
18 -1.3199 -1.3199 0.1184 112.67 110.77 110.77
19 -0.833 -0.833 -3.5744 112.67 111.27 111.27
20 0.1689 2.5926 3.9177 111.27 110.77 108.728
21 -1.3199 -1.3199 0.1184 112.67 110.77 110.77
22 -0.833 -0.833 -3.5744 112.67 111.27 111.27
23 0.1689 2.5926 3.9177 111.27 110.77 108.728
24 0 0 0 120.05 120.05 118.9
25 0 0 0 118.9 117.94 117.94
26 0 0 0 118.9 120 120
27 0 0 0 118.9 123.42 123.42
28 0 0 0 112.444 109 109
29 0 0 0 110.954 109 110
30 0 0 0 110 110 107.067

Atoms # full

45 1 5 0.1268 2.9385909805077253 6.060019243980926 4.413317483347299 0 0 0
47 1 4 -0.1268 3.8126555753031823 5.818182910937663 3.7734790284538495 0 0 0
168 1 1 0.027 4.570392118568031 9.124956476206169 2.3446773850575395 0 0 0
174 1 4 0.0265 4.421361348913387 6.809874936752374 2.957832567251291 0 0 0
169 1 10 -0.1595 3.974624797098854 8.087393859678196 3.069323942482624 0 0 0
223 12 1 0.027 6.9980826833316945 6.603143988930691 5.44523079823867 -1 0 0
222 12 5 0.053 6.3266988859986775 5.8085636229970365 5.069106767267523 -1 0 0
224 12 5 0.053 6.528954606637508 7.046333058062645 6.305790835471751 -1 0 0
193 12 9 -0.266 7.676878097363074 7.3625276144677 4.470329653644868 -1 0 0
283 8 4 0 5.482496627145913 9.777876923025408 7.815211237539061 0 0 0
379 12 3 0.08 8.410062331530922 6.426497689600792 5.234862659895527 -1 0 0
378 12 5 0.053 8.64405635758298 5.563078353428293 4.62397157314071 -1 0 0
281 8 4 0 6.745098399110182 9.982080494005926 8.388577432681599 0 0 0
176 1 4 -0.1268 5.48937154543205 6.354110218617651 2.124568863156248 0 0 0
278 8 4 0 7.162400160128913 9.427057208606644 9.586201353322412 0 0 0
286 8 6 0.2487 4.538245352712643 9.689827742434465 6.063284100034526 0 0 0
49 1 4 -0.1268 4.091879772381488 4.4726153143373235 3.6723616429041326 0 0 0
432 12 5 0.053 9.964608764307412 7.876801343739717 5.449521287400987 -1 0 0
177 1 4 0 5.166864018337637 4.061328504899253 2.946296344728915 0 0 0
50 1 5 0.1268 3.6823090754950796 3.7996488650076534 4.3831287153751095 0 0 0
15 1 4 0 7.157498530787134 2.384599191309074 2.939467508698702 0 0 0
277 8 4 -0.1268 4.873608023332826 8.576531057378633 9.691492827372828 0 0 0
282 8 1 -0.106 3.2506322146496505 8.85651637627518 7.685753494762489 0 0 0
483 8 5 0.053 3.402154866996705 8.249864090354333 6.768572191889101 0 0 0
280 8 4 0 4.531603958415289 9.043788741038373 8.483210431118984 0 0 0
279 8 5 0.053 3.0000732475297207 9.889445018309017 7.307446937716885 0 0 0
285 8 8 -0.4974 5.14979096501218 10.292085029902502 6.525169938327162 0 0 0
172 1 5 0.053 5.575543331634153 8.946888405623096 2.069638949677288 0 0 0
276 8 4 0 6.1557031528076465 8.744531036441723 10.264165292581069 0 0 0
124 1 4 -0.1268 5.827078130420268 4.982115377523055 2.189110351073165 0 0 0
127 1 5 0.1268 6.654737151368928 4.6292362423388 1.5303650782465734 0 0 0
12 1 4 0.0265 9.972881534809469 2.2357680289070077 3.262269237871515 0 0 0
116 8 8 -0.4974 8.498496894558818 9.562892384844298 10.09587019034616 0 0 0
57 1 5 0.053 5.170550755803256 2.0191396593094586 3.7136006262132226 0 0 0
56 1 1 -0.106 5.629413793532701 2.579713155202162 2.8774259973428995 0 0 0
13 1 4 -0.1268 7.775423660543812 2.7356621867885647 4.141205872603095 0 0 0
11 1 4 -0.1268 9.148420038773468 2.661597585920684 4.316996531991126 0 0 0
53 1 5 0.1268 7.222674200157361 2.9441396265774977 5.039550673017104 0 0 0
289 8 5 0.053 2.23590862782713 7.256090272084549 8.75815878391898 0 0 0
287 8 1 -0.159 2.1502056546690396 8.342297497929025 8.584808388046124 0 0 0
275 8 5 0.1268 3.9982771101499606 8.06742394497406 10.243697288989036 0 0 0
10 1 5 0.1268 9.641452882164549 2.928945429877669 5.2560894239310025 0 0 0
288 8 5 0.053 2.1331039050420983 8.871843574788736 9.550344770837738 0 0 0
533 3 5 0.053 2.017485245968727 3.905208969142198 8.144136767200738 1 0 1
430 12 1 0.027 9.588973324822083 7.0511411300020574 6.077388517463412 -1 0 0
428 12 5 0.053 9.101923806094506 7.573952254958601 6.894970331484786 -1 0 0
179 6 5 0.1268 10.71523316959235 7.742414138569881 2.8568858792829825 0 0 0
132 1 5 0.053 5.239460325441831 2.1591251142839987 1.9261451581425004 0 0 0
17 1 4 -0.1268 7.970298575810299 1.91384846112214 1.924786363302536 0 0 0
401 10 5 0.053 7.5374207727200115 3.8646603059974955 7.123077040987015 0 1 0
407 10 5 0.053 7.845339585472783 4.788254083396213 8.587438128149211 0 1 0
403 10 1 -0.159 8.31967343199687 4.0332491251395926 7.935773498001827 0 1 0
167 1 5 0.053 4.677097398024752 10.023779832714261 3.035851402619093 0 0 0
399 10 5 0.053 9.197587543308448 4.484659788306559 7.413345828603496 0 1 0
508 3 5 0.053 1.709893891349189 1.6728977200682933 7.2673454842950225 1 0 1
349 10 4 0 7.310284792584676 2.297994426156705 9.370957941905115 0 1 0
345 10 1 -0.106 8.608782656759768 2.849244660566714 8.798430262161197 0 1 0
14 1 4 -0.1268 9.327811573167546 1.8634048085795807 2.0963386623529052 0 0 0
529 3 5 0.053 1.9250643852031302 5.543631760067556 6.449304595073707 1 0 1
380 12 10 -0.1595 10.553569377697462 6.191752058783295 6.54249917147595 -1 0 0
496 2 5 0.1268 16.797394133835514 15.067560583950826 3.4380158778226773 0 -1 1
576 5 5 0.053 2.2005768195983846 1.654034595889875 3.734326424186172 0 1 0
191 6 5 0.1268 14.536279454724527 9.14548285166363 1.5817929711299528 0 0 0
270 14 5 0.053 19.9081893826251 5.481144442338333 2.470930354099757 0 1 1
450 8 5 0.053 7.652600556669047 10.292416267687035 6.348674654623553 0 0 0
447 8 1 -0.159 7.836714276892399 10.545565488672118 7.467616269257877 0 0 0
449 8 6 0.2487 5.995106064902035 10.547534878323086 6.010017729717075 0 0 0
448 8 5 0.053 8.846265638128406 10.091852902514663 7.593185482968799 0 0 0
346 10 5 0.053 9.194169949597534 2.058374387702937 8.250631598961203 0 1 0
382 12 5 0.1268 10.508458146782015 8.16974907464439 8.49712731762278 -1 0 0
489 8 5 0.053 19.871907510735266 8.465764039191626 8.02932871880094 -1 0 0
9 1 10 -0.1595 11.395091099787043 2.2055999655899567 3.326424593170677 0 0 0
350 12 4 -0.1268 17.400177075236005 7.537913341066611 10.009936151765352 -1 0 0
531 3 3 0.08 19.931589041992076 3.742048365151097 7.390861647116281 0 0 1
532 3 1 0.027 19.516335668809255 2.2883619514913462 7.364554163029146 0 0 1
528 3 1 0.027 19.85428192624617 4.783308984230388 6.341261368198153 0 0 1
507 3 5 0.053 19.540744540275288 4.659814122165999 5.252824268345976 0 0 1
534 3 10 -0.1595 18.94303157215631 1.9019098682562094 8.611004404501433 0 0 1
180 6 4 -0.1268 11.775686277272374 7.685885518471986 2.7294418140134376 0 0 0
527 3 9 -0.266 18.8699620619064 4.722634650707212 7.346731981076795 0 0 1
126 6 5 0.1268 11.52441732303992 5.677000586038667 3.652300301598961 0 0 0
373 11 5 0.053 12.4838461694004 9.608805602747083 5.270182864882986 0 0 0
128 6 4 -0.1268 12.209969272569426 6.452881760408203 3.221495667851285 0 0 0
391 12 5 0.1268 12.570218547700637 9.39156906422922 9.096532754336344 -1 0 0
384 12 4 0.0265 11.654450809114037 6.958970602377977 7.001168314306657 -1 0 0
119 9 5 0.053 15.650190849156392 2.9727303030108643 9.330882793263562 -1 0 0
343 12 4 -0.1268 16.71399996827614 8.062085221473009 8.943611568155017 -1 0 0
387 12 5 0.1268 12.961848449155184 5.902708924963357 5.686568131964866 -1 0 0
122 9 5 0.053 15.586736265635128 4.540140285812329 8.528428352520333 -1 0 0
131 6 1 0.027 15.344201246564209 4.529665798062304 3.1496965906500707 0 0 0
129 6 10 -0.1595 14.112188463812062 4.979405249032125 3.6411860380926853 0 0 0
130 6 4 0.0265 13.643267890080827 6.211525543804534 3.1214623027757953 0 0 0
388 12 4 -0.1268 12.910123656947516 6.669066402852674 6.45415086003673 -1 0 0
335 12 5 0.1268 15.000734626703247 7.442715976864469 6.429483214931547 -1 0 0
392 12 4 -0.1268 13.949132901302274 7.491543918197471 6.748015535798019 -1 0 0
251 6 3 0.08 15.898027040467303 3.320151304323471 3.913015248533167 0 0 0
103 6 5 0.053 15.718563670024773 4.256064226875237 5.952828837773068 0 0 0
334 12 4 0 13.844793055483374 8.539723751684694 7.639358282763719 -1 0 0
386 12 4 -0.1268 11.512061916655606 7.910701672149285 8.018789469134326 -1 0 0
250 6 1 0.027 16.078475929810224 3.3632702396893963 5.389806467085637 0 0 0
123 9 3 0.08 13.613888644567627 3.6843461228939014 8.809705348336042 -1 0 0
121 9 1 0.027 15.132751059462834 3.8830392784316112 9.322188825169452 -1 0 0
390 12 4 -0.1268 12.599737012167951 8.705622258299357 8.278142989412476 -1 0 0
292 9 5 0.053 13.450961334966728 3.4248326223559813 7.755650525026436 -1 0 0
125 6 9 -0.266 17.202961405594444 3.571750476931593 4.516560245078889 0 0 0
342 12 4 0 15.82704592574853 9.125251982011614 9.103433737847725 -1 0 0
339 12 5 0.1268 16.658558481240547 7.5756802643067385 7.987458909015163 -1 0 0
248 6 5 0.053 15.822939401396455 2.2864053999435523 3.4561457510027016 0 0 0
133 6 5 0.053 16.184979925060645 5.19938806387497 3.165175563671319 0 0 0
530 3 5 0.053 18.805075694357523 2.0044271192322864 6.532867311187259 0 0 1
102 6 5 0.053 15.953884053393505 2.5028361579516893 6.006695493567868 0 0 0
291 9 9 -0.266 12.864382323248735 2.745090209473946 9.659569532003188 -1 0 0
337 12 1 -0.106 15.023395889342284 9.51650024101972 7.88084564996553 -1 0 0
336 12 5 0.053 15.728242909264788 9.66595239688128 7.016342424268286 -1 0 0
297 9 5 0.053 11.551923535723208 4.401905198551221 9.198853900603893 -1 0 0
134 6 5 0.053 15.215691291806172 4.233968172804392 2.1020081556848655 0 0 0
466 14 9 -0.266 19.09975386270542 3.4542293567756386 2.289212490758288 0 1 1
6 1 5 0.053 12.650664043976304 1.5640590935878125 4.6800425151154865 0 0 0
135 6 4 -0.1268 14.420717597243934 7.149939909856944 2.4932067553492905 0 0 0
185 6 4 0 12.536871378342306 8.583416796947759 2.0976336332989125 0 0 0
517 12 5 0.1268 17.856726083156456 6.561430764690548 9.891053597972455 -1 0 0
372 11 1 0.027 12.313895962352717 10.641025688488375 5.331331471274398 0 0 0
37 4 6 0.2487 17.342185725525717 9.655544015275185 2.774549924466706 0 0 0
155 4 8 -0.4974 17.567909023301752 10.360896512127692 2.0335557124941266 0 0 0
240 9 5 0.1268 17.882272523238054 3.938327228659703 9.646794547899452 -1 0 0
338 12 5 0.053 14.562579941243383 10.509500629361456 7.942646378958955 -1 0 0
38 4 5 0.053 16.61137634054458 10.258594462282902 4.6241860999914355 0 0 0
294 9 1 0.027 12.486839739348275 4.091680452061913 9.694628070564086 -1 0 0
120 1 5 0.1268 6.197641966129752 7.013850991896646 1.5798255514901691 0 0 0
183 6 5 0.053 11.923503595233992 10.672247625757695 2.2644968452937757 0 0 0
284 12 5 0.1268 15.018441245035124 10.556832876589572 10.45676253395189 -1 0 0
269 14 1 0.027 19.029067502964917 4.8549154899242035 2.0456233466683624 0 1 1
348 12 4 -0.1268 15.667094889819959 9.732509396911286 10.375512178675834 -1 0 0
137 6 5 0.1268 15.549805477084533 6.96821246326697 2.487145424382625 0 0 0
94 4 5 0.053 17.255665041903793 11.880586410269784 4.889038497848739 0 0 0
271 14 5 0.053 18.119397685975546 5.41019006332758 2.2239589646181632 0 1 1
136 6 4 -0.1268 13.917231309862379 8.375008674788827 2.048068116876764 0 0 0
187 6 1 -0.106 11.975864199764088 9.888233143182303 1.5234713543038922 0 0 0
443 14 5 0.053 2.680839375822674 3.6340564452507556 1.5528970133356093 1 1 1
340 10 5 0.053 9.221003025736897 3.1598038822530015 9.659631579274494 0 1 0
319 7 1 -0.106 5.987760048780284 17.511351973864567 1.3541426828055478 0 -1 1
366 11 5 0.053 10.856000815040158 10.669189008271092 7.021691189751768 0 0 0
465 7 5 0.053 6.0690963641632925 18.52637157984337 1.8198947465401405 0 -1 1
227 8 6 0.2487 8.913682109811866 10.35288532139225 9.673994052663721 0 0 0
351 10 4 0 5.0083145262865 1.3259387654986075 10.544658400078239 0 1 0
565 13 5 0.053 9.132426007428698 16.26052679917447 9.883746861914375 0 0 0
354 10 4 0 6.470780580383373 1.4480382500529458 8.682131555960016 0 1 0
361 10 1 -0.159 4.259461953074103 18.836786497596776 8.450248599423357 0 0 0
356 10 4 0 5.231046398657449 19.754594769033346 9.20190904729662 0 0 0
362 10 5 0.053 4.2958088073333816 17.804188156472573 8.950550782602301 0 0 0
357 10 8 -0.4974 6.757455327870102 19.69763096690736 7.325298673468816 0 0 0
363 10 5 0.053 4.293012576149193 18.747194240557295 7.412329913131357 0 0 0
359 10 6 0.2487 5.992233598611155 19.18268198937694 6.896653150000218 0 0 0
360 10 5 0.053 3.210863542225784 19.15609777212794 8.607860830752902 0 0 0
572 5 5 0.053 2.9300929785937146 19.557299216422862 5.107071203378827 0 0 0
355 10 6 0.2487 7.439955702489385 1.450075632376832 6.740354028300314 0 1 0
254 3 5 0.053 5.903678025045724 12.747508522898698 9.717579639116847 1 -1 1
446 8 5 0.053 8.019802138118223 11.651861434489545 7.446814999119495 0 0 0
545 5 1 -0.159 2.310770695128114 19.409185259649387 4.265043131278503 0 0 0
258 3 5 0.053 4.140233882584575 12.19819954421331 9.165610036082631 1 -1 1
178 6 5 0.1268 9.451965112455618 11.055410861128319 2.1108599306459075 0 0 0
98 5 5 0.053 2.157478938643175 18.01670288620552 2.615716392778096 0 0 0
540 5 6 0.2487 5.138217478433939 18.463450875310002 4.2413239133411045 0 0 0
547 5 6 0.2487 6.18779794969303 17.318536658697305 4.804191199026885 0 0 0
150 7 5 0.053 7.037123943839557 12.238343752077169 4.090511339062651 0 -1 1
154 7 5 0.053 6.14820951054874 12.222777616737929 2.5809394264529857 0 -1 1
151 7 5 0.053 5.3161926681620635 12.980721238817985 3.997004144054714 0 -1 1
464 7 6 0.2487 4.60470021388776 13.88868792153334 2.3830946062809417 0 -1 1
152 7 1 -0.159 6.284924152225337 12.837592137206027 3.5262058725039287 0 -1 1
317 7 8 -0.3314 4.885614832752275 14.782650269704233 1.9515682983354026 0 -1 1
156 7 6 0.2487 8.18978291543091 13.049698997265532 5.036466772287023 0 -1 1
329 7 6 0.2487 9.490202749598769 14.10649506500816 5.093632592493858 0 -1 1
327 7 8 -0.4974 8.787561054685138 13.740714693223543 4.572829991833438 0 -1 1
383 7 1 -0.159 9.408951981637749 17.236965424025044 5.494535984362715 0 -1 1
325 7 4 0 8.091323114299907 14.641997844040107 3.7523724807197847 0 -1 1
326 7 4 0 8.508687135296741 15.983367597524182 3.561446837067795 0 -1 1
328 7 1 -0.106 9.780566259487891 16.533705333198817 4.1908735946393545 0 -1 1
322 7 4 0 6.900373977581398 14.25441659278438 3.174218611248227 0 -1 1
320 7 4 0 6.138927374650945 15.186237685572838 2.408183294325846 0 -1 1
323 7 4 -0.1268 7.869732800486144 16.783402629556324 2.674739288254591 0 -1 1
324 7 5 0.1268 8.299636732147075 17.730487859619522 2.3330520063840723 0 -1 1
321 7 4 0 6.673193069416821 16.427184500425184 2.1522572661700337 0 -1 1
65 5 4 0 4.162280156057144 16.72559141308674 4.988531634255333 0 0 0
542 5 8 -0.4974 5.251082207593535 17.711992977471365 4.899485916999909 0 0 0
512 7 5 0.053 8.754566505983439 16.619038951257835 6.124245074075195 0 -1 1
46 5 5 0.053 6.213923881295444 14.666922242249703 6.066925350634344 0 0 0
64 5 4 0 3.0009944980375094 16.993337091675176 4.331982180296123 0 0 0
48 5 5 0.053 5.261473054272573 14.848548719392989 7.581967575437699 0 0 0
67 5 4 0 4.259989251697715 15.570799118139298 5.77750447082461 0 0 0
69 5 1 -0.159 5.484726336433756 15.380977630880013 6.606994217702577 0 0 0
44 5 5 0.053 6.008890938976469 16.317170561927913 6.854572142633252 0 0 0
381 7 5 0.053 8.741241310937081 18.081837446357323 5.263201863955938 0 -1 1
70 5 4 0 3.2120296425425536 14.649488609294632 5.791307062094638 0 0 0
63 5 1 -0.106 2.8814428405883374 18.234210413635083 3.4160167723563695 0 0 0
539 5 5 0.053 3.7770349827680083 18.51112403007958 2.9626122614338577 0 0 0
564 13 9 -0.266 8.588521534954634 14.422448733053947 8.873159193577429 0 0 0
66 5 4 -0.1268 2.022054481041244 15.999621501773493 4.339129150392997 0 0 0
72 5 8 -0.4974 3.349731686789224 13.36602164115754 6.498792530024321 0 0 0
68 5 4 0 2.1690442325931443 14.759593882835162 4.911289440540566 0 0 0
74 5 6 0.2487 4.123889358317886 13.355179080159138 7.190438996749924 0 0 0
73 5 6 0.2487 2.513527605347023 13.103159466673821 6.891951151448189 0 0 0
332 7 5 0.053 10.505997346378456 15.740379839265506 4.358775142227067 0 -1 1
385 7 5 0.053 10.085943199699232 17.33356704236465 3.5161826907645484 0 -1 1
567 13 5 0.053 7.031876403955473 15.936453376032539 8.83459044009711 0 0 0
257 3 1 0.027 4.833579557813552 12.591234914230439 10.002700039160318 1 -1 1
569 13 1 0.027 7.423389600344618 15.08746459608245 9.39811042961193 0 0 0
218 11 4 0 12.585178879095658 16.49624313327362 9.858676452246813 0 0 0
370 11 9 -0.266 10.981841744669305 11.081595299312538 4.873633288936948 0 0 0
202 5 5 0.053 2.085656912361854 11.834857659951304 4.157964836381133 0 0 0
389 7 5 0.053 10.281236013033157 17.535256702023208 6.027593993428891 0 -1 1
364 11 5 0.053 10.646242123914382 13.144607774126232 6.877249793521111 0 0 0
205 5 5 0.053 2.0134213456400465 13.148721831468746 2.971873695844944 0 0 0
451 13 5 0.053 6.645923444233271 14.511499864254986 9.909750723294716 0 0 0
568 13 3 0.08 8.712854357285707 15.30647502542849 10.08432770007813 0 0 0
99 1 5 0.053 14.468458748671809 19.149674386075837 1.5040057914845584 0 -1 0
503 2 4 -0.1268 17.781855363711315 18.363822666423985 2.7926738446940176 0 -1 1
110 4 5 0.053 11.484190719044195 14.88990288794028 1.680120631924952 0 0 0
8 1 1 0.027 11.977355035969074 19.844321901564065 3.929562343230906 0 -1 0
104 2 5 0.053 15.832466511074415 19.38605230589207 7.06862920984046 0 -1 1
40 1 5 0.053 2.5404622637807943 11.102380963954573 1.538588433248687 0 0 0
546 5 5 0.053 1.3124371411939693 19.069484115317106 4.631500519909776 0 0 0
422 11 5 0.1268 10.047790738750102 18.856874761222894 10.520021822506163 0 0 0
30 3 4 0 17.879437171404525 16.642796873579563 9.401805313628333 0 -1 1
203 5 5 0.053 19.25009759587926 12.222980054316235 3.485615623664274 -1 0 0
35 3 5 0.053 17.25600198912232 14.747125890595576 8.691731380943375 0 -1 1
22 3 4 -0.1268 17.891786429564622 18.918534831803257 9.966682130029438 0 -1 1
505 2 5 0.1268 17.904170932968665 19.341882432864352 3.2347926814471033 0 -1 1
106 2 5 0.053 14.896293483636612 18.76087075578489 8.490437788076115 0 -1 1
105 2 1 0.027 15.136312239106415 18.62439955066376 7.421276692817982 0 -1 1
93 4 5 0.053 15.557436581173985 11.549618388838743 5.234815435678352 0 0 0
221 11 5 0.053 12.722094676366403 18.732790788837626 10.170119216244982 0 0 0
3 1 1 0.027 13.443474609311798 19.333463177866864 1.7586900627841877 0 -1 0
365 11 5 0.053 11.95547838462382 13.226510675055408 5.898752797728762 0 0 0
89 4 1 -0.106 13.71762696566266 14.542739995632646 1.6569793111803925 0 0 0
188 11 4 -0.1268 13.196404406095555 14.152754657991192 9.742986318867574 0 0 0
96 4 6 0.2487 14.146101284989427 14.451268068189838 4.125580662559405 0 0 0
83 4 5 0.053 12.00771439764508 13.277708838066667 2.3257797421640802 0 0 0
1 1 9 -0.266 12.501449834389383 18.288914253494664 1.946411176313664 0 -1 0
23 3 4 -0.1268 17.51930900820847 17.67451594254431 10.294254565487396 0 -1 1
34 3 5 0.053 16.484116561453007 15.178337128562273 10.15149873926175 0 -1 1
145 3 5 0.1268 19.72639404612992 11.076753952214798 9.371108057839063 0 -1 1
95 4 8 -0.4974 14.614747519600451 13.577514681448422 4.253251451226768 0 0 0
4 1 3 0.08 12.969687028914471 18.989164008041083 3.0887277582252497 0 -1 0
501 2 10 -0.1595 16.833693168656957 17.51929914214428 4.837638983933079 0 -1 1
371 11 4 0.0265 12.53483327437946 14.038360041437155 8.501360783663163 0 0 0
7 1 5 0.053 11.307208932195342 19.20357524737913 4.474905014513156 0 -1 0
367 11 1 0.027 11.569850462436122 12.707097293790552 6.7750258194600645 0 0 0
498 2 4 -0.1268 17.08955793294922 16.029242914980138 2.934351595789291 0 -1 1
374 11 4 -0.1268 11.857822036889273 15.160632694996453 8.008228916942436 0 0 0
62 4 5 0.053 13.63918402559339 15.149522560728064 2.5915618329638206 0 0 0
85 4 1 -0.159 12.210635745886503 14.007954187593132 1.547612738236228 0 0 0
97 4 6 0.2487 15.22796795159696 13.409710409175823 5.107510650300054 0 0 0
582 2 5 0.053 15.070291443917121 16.524128297858354 4.737010364218559 0 -1 1
36 3 5 0.1268 18.74063199167479 16.22719838944029 7.458571138305247 0 -1 1
204 5 1 -0.159 1.4592796407385031 12.694151915751876 3.776318893644085 0 0 0
500 2 4 0.0265 17.183831557483757 17.304141387469766 3.500278755497019 0 -1 1
502 2 4 -0.1268 18.07155334870746 18.102864482829947 1.3932431512753711 0 -1 1
26 3 4 0.0265 18.626567629263306 19.2633349270255 8.848319836852276 0 -1 1
29 3 4 0 18.540577799551606 14.238497728779633 10.15725521700553 0 -1 1
376 11 5 0.1268 11.251078575391913 15.2150215154169 7.095184625931401 0 0 0
32 3 4 -0.1268 19.018673416368365 18.242111066285954 7.987683752980679 0 -1 1
506 2 5 0.053 16.242425391252763 15.828324869105318 5.765475479292509 0 -1 1
100 5 5 0.1268 19.8248527971255 16.198239925721936 3.7585956994181307 -1 0 0
497 2 4 -0.1268 17.427897151854953 15.83845166447383 1.6484280966944185 0 -1 1
216 11 4 -0.1268 13.310888445763721 15.431045385766687 10.352385126048995 0 0 0
71 5 1 -0.106 19.803768812126577 13.672197221428345 4.8819831301153815 -1 0 0
75 5 5 0.053 19.60831694815574 13.141290417808271 5.836976300453786 -1 0 0
31 3 1 -0.106 17.467361859175227 15.214740021699841 9.638704540283209 0 -1 1
107 2 9 -0.266 14.009199320171707 18.395330966910954 6.565831646449474 0 -1 1
5 1 5 0.053 13.693000949219707 18.464394980541762 3.757226001620662 0 -1 0
92 4 1 -0.159 16.398582431421048 11.332085858325643 4.538515495372364 0 0 0
111 4 4 0 14.80944882445506 13.468078583574403 1.8237691884869367 0 0 0
91 4 4 0 15.18275308987427 12.996443631315152 3.093217528896337 0 0 0
101 5 5 0.053 18.8020125604298 14.117367358223984 4.706753032391168 -1 0 0
426 11 5 0.1268 11.117700025922105 17.070708909368506 8.27668191858659 0 0 0
112 4 4 0 16.032001270898153 11.90341668663551 3.158530435692482 0 0 0
535 3 5 0.1268 19.73886096490167 18.400046987238134 7.171630271396502 0 -1 1
109 4 4 0 16.5842856655673 11.36891719590448 1.9844400700039886 0 0 0
184 11 5 0.1268 13.851812780559724 13.352751459687955 10.185973683800396 0 0 0
24 3 4 -0.1268 18.79109742292168 13.020819429863497 9.511433729363638 0 -1 1
369 11 10 -0.1595 12.402148505741577 12.818473297534814 7.91858544755286 0 0 0
504 2 1 0.027 15.803606890866616 16.77136352580158 5.515269521958152 0 -1 1
425 11 4 -0.1268 11.784147331594884 16.337055191851917 8.709543685666251 0 0 0
33 3 4 -0.1268 18.573148504185937 16.969761831347906 8.240779427487539 0 -1 1
19 2 5 0.053 14.509937972191825 16.53393336677828 7.208884715002188 0 -1 1
108 2 3 0.08 15.033763747865518 17.337361709005865 6.7111923584621795 0 -1 1
28 3 5 0.1268 18.176345616563143 12.808347747449076 8.55111499554403 0 -1 1
148 3 4 -0.1268 19.601516135260393 12.05296615001791 10.018243564415345 0 -1 1
375 11 5 0.053 13.083413297276095 11.174071490146865 4.795464141065205 0 0 0
368 11 3 0.08 11.308485907970722 11.257708702131037 6.253748577767356 0 0 0
316 7 5 0.053 4.813942996175795 17.338638150033752 1.3990416415118436 0 -1 1
16 1 5 0.1268 9.969206827203035 1.4774763191255509 1.3202004361033328 0 0 0
20 3 5 0.1268 17.513470538714746 19.802811941115607 10.561294939231358 0 -1 1
182 6 4 -0.1268 9.444939785998764 10.225889276658329 1.3656999945096358 0 0 0
318 7 7 0.4241 2.4599199736303308 15.041423521158977 1.3771590981979445 0 -1 1
467 14 10 -0.1595 2.778280320891416 4.980172953429953 18.722143712519067 1 1 0
226 9 5 0.053 2.0178682308657114 3.978118635909751 13.43602165237673 0 0 0
584 14 5 0.1268 6.123774193219742 7.092011482458689 16.389829335574746 1 1 0
469 14 4 0.0265 3.9861604298195754 4.970577178135789 18.06013903481032 1 1 0
470 14 4 -0.1268 4.4882052784374356 6.1677998034294745 17.517725198219946 1 1 0
331 14 4 -0.1268 4.679696401838853 3.7903582072205424 17.71733953424517 1 1 0
272 14 5 0.1268 6.36717884084095 2.8820018359629467 16.677670529836544 1 1 0
585 14 4 -0.1268 5.630565762048334 6.176458727575266 16.795971300529104 1 1 0
333 14 4 -0.1268 5.887616685435544 3.8093440582566895 17.071706931197525 1 1 0
516 14 4 0 6.333766326446418 5.00216828323733 16.585716151399463 1 1 0
468 14 5 0.1268 4.009177307398543 7.13912623692127 17.665367506426946 1 1 0
60 6 4 -0.1268 9.352961930285998 8.448074600937925 17.9477874764136 0 0 -1
519 12 9 -0.266 1.4633199747906367 8.237587399722587 14.561523784492142 0 0 0
190 6 4 -0.1268 10.548179014795355 8.591906027967095 18.598600932342777 0 0 -1
61 6 5 0.1268 9.173594112607052 7.8328814665548325 17.061142380171102 0 0 -1
117 8 5 0.053 5.484359783556343 7.902803008412466 12.076360236369572 0 0 0
186 6 4 0 10.645839069925806 9.596830428130739 19.608606626954163 0 0 -1
515 14 1 -0.106 7.598466196296322 5.046788657677732 15.603541993150317 1 1 0
514 14 5 0.053 7.6179543109031576 4.036852966559538 15.20522516884422 1 1 0
513 14 5 0.053 7.462372812735924 5.904680030758321 14.931871480802666 1 1 0
562 14 5 0.1268 8.320128109356645 4.735772501435432 18.422987283759227 1 1 0
475 14 4 0 9.003088493557781 5.0831277601332605 16.33651041854087 1 1 0
477 14 4 -0.1268 9.202646992117408 4.866550350559079 17.74323928344343 1 1 0
579 13 5 0.1268 8.665398840474179 9.40340472005477 13.612224064272795 0 0 0
578 13 4 -0.1268 9.226039297898705 10.091114286183116 12.973416058722096 0 0 0
476 14 5 0.1268 10.11656098319666 5.394971414455459 14.450337273750385 1 1 0
478 14 4 -0.1268 10.106289459875919 5.126619383504252 15.524733320149473 1 1 0
330 14 5 0.1268 4.329626717582447 2.7623691042064014 17.85651265256563 1 1 0
231 9 4 0 1.5831782195948825 1.9514467131976292 13.874854369011555 0 0 0
526 12 5 0.053 2.452317710145941 6.370891954266236 15.004566622378867 0 0 0
273 8 5 0.053 6.8544022978923715 8.942828018674241 12.335997396917346 0 0 0
521 12 3 0.08 1.6973883906821055 7.601418013531453 13.258781328381364 0 0 0
525 12 5 0.053 2.751980398987568 7.933061239527022 12.929097042368753 0 0 0
160 10 5 0.053 5.30330100804724 4.344517489976299 13.111299609987325 0 1 0
161 10 5 0.053 3.925876383399668 3.3056150803394133 13.03241460732411 0 1 0
245 11 5 0.053 9.297966731248492 1.7151524034803778 14.854807880948812 0 1 0
518 12 5 0.053 19.623777236625212 7.341785801445235 11.281443373419556 -1 0 0
157 8 5 0.053 6.72151225218059 6.165796164400847 10.886170742535791 0 0 0
77 6 9 -0.266 5.6750167483931 9.746602847463443 14.7049796299978 0 0 -1
162 10 1 -0.159 4.984948469763911 3.294843752830796 13.341683790341119 0 1 0
159 10 5 0.053 4.960387243292211 3.366428621585729 14.451401712368162 0 1 0
274 8 1 -0.106 6.425694026109372 8.155689322210153 11.638463637676836 0 0 0
115 8 5 0.053 7.390813289905733 6.277492547913164 12.582591025597539 0 0 0
139 3 9 -0.266 4.514059795993056 13.667444181458846 10.80316903391453 1 -1 1
473 14 1 0.027 2.214592152936658 3.861367251678123 19.32185802947229 1 1 0
471 14 5 0.053 2.3616668940782826 2.9723728947885246 18.70201914972194 1 1 0
18 1 5 0.1268 7.561135594039081 1.5755634523645123 19.684468602558148 0 0 -1
460 13 5 0.053 10.319692643231535 7.696470017798903 13.336256050908514 0 0 0
237 9 5 0.1268 2.91996628243177 2.415696095898575 15.53603109209811 0 0 0
170 1 5 0.053 3.701993396326321 8.381814720420024 19.142663320411405 0 0 -1
523 12 1 0.027 1.534609895504602 6.7666265490835 14.560124427326057 0 0 0
42 1 5 0.053 1.9285815089800282 10.113037044838581 18.77010586624923 0 0 -1
347 10 4 0 5.920105461495372 2.014799650670764 11.334967446624411 0 1 0
165 10 1 -0.106 5.790540727953822 2.1212305424568267 12.855168648121428 0 1 0
41 1 1 0.027 2.769822672223543 10.356299969281363 19.46265205676784 0 0 -1
164 10 5 0.053 5.4834662558681515 19.848031103692612 13.135481933161772 0 0 0
201 9 4 -0.1268 2.5459813640636524 1.6034047193850811 14.858711300200332 0 0 0
166 10 5 0.053 6.776669075094558 2.027416323719083 13.359098261931495 0 1 0
479 14 4 -0.1268 10.453378902181127 4.7303522241393505 18.2678807880205 1 1 0
563 14 5 0.1268 10.656244926504648 4.604769777891782 19.35841930739899 1 1 0
43 1 3 0.08 3.787027969525277 9.29293447657648 19.766227218760957 0 0 -1
113 8 1 -0.159 7.297692035006679 6.8678814274820015 11.633105716768824 0 0 0
580 13 4 0 10.480406659996055 9.744459092964759 12.469429348869959 0 0 0
76 6 5 0.053 4.192504647696152 8.853789057867449 16.064119995764703 0 0 -1
78 6 1 0.027 4.556810040445493 9.703224091748746 15.494826252587128 0 0 -1
58 6 4 0.0265 8.235739720149505 9.180026676909375 18.203219083294314 0 0 -1
59 6 10 -0.1595 7.077719929755051 9.247639766266582 17.410756089098914 0 0 -1
80 6 5 0.053 3.6369271748483025 10.1059730524901 15.08486360105598 0 0 -1
244 11 1 0.027 9.806911952099265 1.4887760859316594 15.80961374001843 0 1 0
243 11 9 -0.266 8.927754098761959 1.2985726629060377 16.864510831239564 0 1 0
499 2 4 0 17.822688474734385 16.88348437678037 19.51892637091151 0 -1 0
255 11 4 -0.1268 10.702060361475876 17.270888082515214 13.927382120304422 0 0 0
341 10 5 0.1268 7.72433870715035 3.172718872797076 11.271858602045581 0 1 0
393 7 4 -0.1268 13.325937702764284 12.605540247846442 14.249907201728858 -1 0 0
114 8 6 0.2487 8.538215950728501 9.50189200083289 11.07568031045163 0 0 0
171 10 6 0.2487 3.0462248577567883 19.191544810892122 10.698109381142006 0 0 0
520 12 1 0.027 19.35345011858747 7.937628248628609 12.180043146731634 -1 0 0
192 6 5 0.1268 11.447914928178472 8.009480891014967 18.370106232111418 0 0 -1
522 12 5 0.053 19.278412290933428 6.39181699567541 14.853730640986974 -1 0 0
229 9 1 -0.106 19.879731533134322 3.4102855962407346 13.84726317303716 -1 0 0
524 12 5 0.053 19.437860288374143 8.94806781674939 11.966625030538866 -1 0 0
228 9 5 0.053 19.626487748202173 3.7261335456147298 14.876515627942482 -1 0 0
236 9 5 0.1268 19.783088846703965 3.572631619050062 11.087645345695671 -1 0 0
480 14 4 -0.1268 11.364583998829723 5.061231755332085 16.042456272627163 1 1 0
242 11 5 0.053 10.67364627438717 2.1776501565174655 15.988028106324863 0 1 0
239 9 4 -0.1268 17.723968998285418 4.016170205063706 10.719895681832728 -1 0 0
233 9 4 0 18.675769708902862 3.658468351334338 12.965610797068516 -1 0 0
235 9 4 -0.1268 18.810811079819434 3.717182677869077 11.579816342336853 -1 0 0
241 9 10 -0.1595 15.31304946987422 4.415988222435369 10.643424093530415 -1 0 0
214 13 5 0.053 18.70687049111395 8.172536300759234 16.723731191242535 0 0 0
358 12 10 -0.1595 17.963386310111783 7.726806327570289 12.453461452466456 -1 0 0
311 2 1 0.027 12.139591640210439 1.9953672580203594 13.190439123046808 0 0 0
208 13 1 0.027 16.742080943283057 7.596996234041705 15.886421831339133 0 0 0
486 14 9 -0.266 15.99594612227005 3.9605005975950105 18.516063028497403 1 1 0
232 9 4 -0.1268 17.44235850095551 3.965743549248467 13.539562894432747 -1 0 0
481 14 5 0.1268 12.248465524168699 5.214793133066863 15.351941564677508 1 1 0
230 9 5 0.1268 17.22073291343454 3.997126910866727 14.58404370575702 -1 0 0
485 14 5 0.053 13.287328305447492 3.268203889252921 16.728342645451377 1 1 0
490 14 3 0.08 14.819508400091292 3.322649160375526 17.926709984307593 1 1 0
492 14 1 0.027 16.144718486534867 3.014494263548522 17.379368134198806 1 1 0
487 14 1 0.027 13.800022346263738 4.075039984639453 17.161958735273732 1 1 0
419 13 5 0.1268 13.806881211109372 7.967295121756217 12.04879591095889 0 0 0
418 13 4 -0.1268 13.649295609750293 8.038144892492237 13.172354299692646 0 0 0
482 14 4 0.0265 11.550474826163795 4.842008363191386 17.437395720653804 1 1 0
414 13 4 0.0265 14.4641731862608 7.69784123523714 15.412465852058732 0 0 0
417 13 4 0 12.327217378748301 8.262857520941273 13.64521627435168 0 0 0
416 13 5 0.1268 15.598400866702393 7.463203632018614 13.50595233869282 0 0 0
415 13 4 -0.1268 14.66448863944153 7.6611470365711565 14.032571387630423 0 0 0
413 13 10 -0.1595 15.387245397248082 7.459157270112091 16.409103390068807 0 0 0
484 14 10 -0.1595 12.82443071269567 4.7255628441696205 17.979082400555303 1 1 0
455 13 4 -0.1268 12.175618178565115 8.330924620880944 14.983396359121242 0 0 0
412 13 4 -0.1268 13.189130207796135 8.099456861454051 15.833139528919906 0 0 0
581 13 1 -0.106 11.022486072750624 8.332709279895894 12.789515533627611 0 0 0
493 14 5 0.053 16.654460598330992 3.557427857247622 16.542350462374074 1 1 0
549 13 5 0.053 11.146715646708268 7.906957420532423 11.761974895986954 0 0 0
234 9 4 -0.1268 16.359562297115502 4.335310320063019 12.682746520941944 -1 0 0
209 13 5 0.053 16.867781880739074 8.51420443148109 15.24833381165595 0 0 0
491 14 5 0.053 14.349621284257454 4.713646481805906 16.448877957869485 1 1 0
118 9 5 0.1268 15.388960445173435 4.671849783974309 13.121729803624712 -1 0 0
313 2 9 -0.266 12.856540479664837 3.1717536030523172 13.633221015184187 0 0 0
312 2 3 0.08 13.551479151713808 2.1126832121235504 12.856574022098012 0 0 0
206 13 5 0.053 16.984789830672973 6.789536959614336 15.23416306643838 0 0 0
494 14 5 0.053 16.67712446764007 2.115792575193976 17.61548854347146 1 1 0
488 14 5 0.053 14.318746847074998 2.5644903618159187 18.58931031424899 1 1 0
238 9 4 0.0265 16.45522280594472 4.187469053055732 11.323643156360868 -1 0 0
353 12 4 0.0265 17.206166931050994 8.061696025513989 11.296680551209509 -1 0 0
314 2 5 0.053 11.428858493006793 2.2274336308527096 12.409612205822077 0 0 0
315 2 5 0.053 13.790480779189197 2.4774933786326923 11.870281881079023 0 0 0
211 13 3 0.08 17.767163255232273 7.662634129337444 16.995870911440065 0 0 0
352 12 4 -0.1268 16.34742493020837 9.142403538759496 11.43701878616815 -1 0 0
454 13 5 0.1268 11.18829647353767 8.46917140903741 15.484604381956435 0 0 0
213 13 9 -0.266 17.9423619819493 6.4565351543718 17.823041684530033 0 0 0
210 13 1 0.027 17.40280665466373 7.615787303553737 18.44928912094622 0 0 0
411 13 5 0.1268 13.008029880527596 8.165964058363855 16.90768593595033 0 0 0
189 6 5 0.053 12.657006558938233 10.310147354726018 19.4476782135486 0 0 -1
207 13 5 0.053 16.391256450909584 7.490783818736374 18.7860712777565 0 0 0
457 13 5 0.1268 12.062005340675825 10.393383092845397 11.218379911184302 0 0 0
290 12 5 0.1268 16.236903216187088 9.49384733300297 12.42521441093259 -1 0 0
212 13 5 0.053 17.984041148431917 8.064783468782625 19.194657806020142 0 0 0
474 14 5 0.053 18.612615324354124 3.6552119219250994 18.880974498786124 0 1 0
472 14 3 0.08 19.381202411286644 3.961551902402883 19.62509331655726 0 1 0
158 8 5 0.053 8.332759855337862 6.9971500364018855 11.174620170309295 0 0 0
308 2 5 0.053 11.771548767081466 1.3105451151994059 13.980345454478083 0 0 0
309 2 5 0.053 15.501835835306812 2.0768936399712183 13.798907629554162 0 0 0
456 13 4 -0.1268 11.23247220649287 10.678790757336811 11.765312632067733 0 0 0
261 4 5 0.053 17.44409349494776 10.472761103540364 18.21289158442924 0 0 -1
444 9 5 0.1268 19.187530727233746 19.78973693014213 12.149262899287793 -1 -1 0
445 9 4 -0.1268 1.225126708191001 19.66400371309719 12.933271960859402 0 -1 0
259 4 5 0.053 16.215885518012385 10.75971926872062 16.082205871869697 0 0 -1
143 3 10 -0.1595 2.3881204840599333 11.21810131571603 11.679810249688998 1 -1 1
39 1 9 -0.266 4.083940555130649 10.535459125174993 18.99234685835773 0 0 -1
141 3 5 0.053 4.049658011698944 10.624128253254105 12.535383227307936 1 -1 1
25 3 4 -0.1268 19.314201553622514 14.44792855818878 11.303089921659286 0 -1 1
149 3 4 -0.1268 1.4015240789936296 13.494036998859059 11.86691503616576 1 -1 1
175 10 6 0.2487 3.715671217347998 19.80575532923651 12.082974086685375 0 0 0
173 10 8 -0.4974 3.661378487359685 19.899422671889983 11.093276120275394 0 0 0
27 3 5 0.1268 19.4063082309241 15.415252287748675 11.868091069390994 0 -1 1
263 4 1 -0.159 15.821775680710491 11.098924873789521 17.016712091884244 0 0 -1
138 3 5 0.053 5.69150923432453 12.364345355733656 12.004642177134068 1 -1 1
147 3 5 0.1268 2.033378235176412 13.73473966129879 12.704101234232427 1 -1 1
181 6 4 -0.1268 8.295080133007776 10.077862995719073 19.265778502630237 0 0 -1
79 6 3 0.08 5.603903377494984 10.65272775765694 15.839735514980875 0 0 -1
577 13 4 -0.1268 8.738134274979515 11.429151179687452 12.849242188800538 0 0 0
140 3 3 0.08 4.727421148927052 12.307249405175677 11.465847228366144 1 -1 1
82 7 5 0.053 5.551471839111142 14.156316190385478 18.66050983393695 0 0 0
84 7 1 -0.0233 4.706625881639104 14.699732186031909 19.161869143470696 0 0 0
54 6 5 0.053 6.671457193040546 11.243366219789207 17.570273969967303 0 0 -1
55 6 1 0.027 6.799301966498412 10.489391189420743 16.793674982052046 0 0 -1
81 6 5 0.053 5.530481397835814 11.624342951004879 15.475513123790567 0 0 -1
52 6 5 0.053 7.690867411368732 10.741908154832242 16.173015189397333 0 0 -1
574 13 5 0.1268 7.770551603104274 11.688044342630523 13.239163376358817 0 0 0
575 13 4 0.0265 9.447924981131427 12.362972179691836 12.12559854365724 0 0 0
537 7 5 0.053 4.3387810021790045 13.72538570100456 16.730568228608107 0 0 0
404 9 4 -0.1268 3.0616871023173013 19.05504093972795 14.872162331846399 0 -1 0
509 7 5 0.053 7.560731063799931 17.93139873521215 18.645002985208336 0 -1 0
583 7 5 0.053 6.575313207428773 16.51192908430761 18.138410786859062 0 -1 0
561 7 1 0.027 3.333202336032124 14.007048595460821 17.078089532610548 0 0 0
90 7 5 0.053 3.2155072125972888 14.969429914749588 16.654486105215113 0 0 0
198 7 5 0.053 9.19967204523418 14.00347314103665 18.756010683570427 -1 0 0
199 7 9 -0.266 8.689494166732011 13.71769252180877 16.60339815734688 -1 0 0
397 9 4 -0.1268 1.7209336110794338 18.390880635403896 12.94744516133222 0 -1 0
400 9 4 0.0265 2.8006850235918064 18.126237516272212 13.843138115659261 0 -1 0
406 9 1 0.027 4.746877599929517 16.821597715702943 14.222830678341895 0 -1 0
405 9 3 0.08 5.515273154532181 15.739263869824981 13.49121891585239 0 -1 0
538 9 5 0.053 5.619000842558788 15.818104292738267 12.408874233022749 0 -1 0
541 9 5 0.053 7.227525375453154 14.337980253273473 14.011632105495618 0 -1 0
544 9 1 0.027 6.423983652188375 14.985443000432864 14.350938365195328 0 -1 0
548 9 5 0.053 6.509733935205299 15.223202639531094 15.38290892977158 0 -1 0
408 9 5 0.053 4.852508013069434 16.68687717525123 15.298864685961654 0 -1 0
410 9 5 0.053 5.253505839501493 17.806499211209804 13.911612414522228 0 -1 0
543 9 9 -0.266 5.176774497156655 14.387782014137873 13.998191627717382 0 -1 0
402 9 10 -0.1595 3.4322973944998916 16.854205582294416 13.84023446445909 0 -1 0
200 7 5 0.053 9.507457779669158 11.92681481965606 17.310906868902844 -1 0 0
510 7 1 -0.159 6.527849387250271 17.488558732725608 18.648575516150675 0 -1 0
409 9 5 0.1268 3.9094137678479797 18.79287520807453 15.522907026441722 0 -1 0
573 13 10 -0.1595 8.886994349520942 13.578049349413275 11.97444400284697 0 0 0
197 7 3 0.08 9.8425862866571 12.886638828952805 16.918864775832112 -1 0 0
196 7 1 0.027 9.537835378283058 14.140547106123531 17.710112462264636 -1 0 0
511 7 5 0.053 5.87652115752311 18.191386417671243 18.00157014988523 0 -1 0
552 7 5 0.053 4.695075256309469 15.813328955868766 18.82806909648766 0 0 0
86 7 2 0.08 3.3523748055266354 14.167361101422362 18.579032946961654 0 0 0
144 3 5 0.053 3.4605902632959356 12.147592086626911 13.229914238809677 1 -1 1
559 7 11 -0.5571 2.295845063686935 14.962449924394184 19.107863651393995 0 0 0
558 7 10 -0.1595 2.489898275039434 12.97326815749587 16.53394557040314 0 0 0
461 11 10 -0.1595 8.426875019201109 17.712548490698566 14.594162928270743 0 0 0
459 11 5 0.053 7.8723441547275215 17.65524527853817 16.565162747370458 0 0 0
88 7 5 0.053 3.2000916901847027 13.17690605882808 18.984023235882272 0 0 0
252 11 1 0.027 8.800574853312181 17.680521437173883 15.992261524023972 0 0 0
253 11 5 0.053 9.308247965122572 16.707908603847546 16.166427105506223 0 0 0
462 11 4 0.0265 9.47706183940883 17.792397824830157 13.67648370319572 0 0 0
247 11 3 0.08 9.690587669166723 18.85565957662416 16.441312231935555 0 0 0
142 3 1 0.027 3.626297168918079 11.592990402260234 12.292662745835177 1 -1 1
420 11 5 0.1268 8.22526901078247 18.770331244995873 12.196193382322845 0 0 0
551 7 5 0.1268 1.4275778475181116 15.282316216263554 15.726886245466332 0 0 0
396 9 5 0.1268 1.438815232690846 17.740303329319776 12.173094662559013 0 -1 0
571 13 1 0.027 9.314760076103097 14.752427162073708 11.329642846850534 0 0 0
421 11 4 -0.1268 9.238300720638572 18.378705117601452 12.41929494126922 0 0 0
453 13 4 -0.1268 10.74370213826455 11.95328904605695 11.661770779860824 0 0 0
536 7 5 0.1268 19.699317976705412 11.023167233455894 15.634164219224884 -1 0 0
556 7 4 0.0265 1.3979774720637483 13.096100086805729 15.746533318938367 0 0 0
570 13 5 0.053 9.437076937425356 15.607973332456991 11.974297764447154 0 0 0
246 11 5 0.053 10.375020789885038 18.587302629951758 17.272141492090054 0 0 0
194 7 5 0.053 10.098395478511824 15.04064320773393 17.56505623388867 -1 0 0
51 6 5 0.1268 7.349958763477915 10.563233417276736 19.471714444129642 0 0 -1
87 4 5 0.053 12.000070700281793 13.453281962119348 19.322152414864092 0 0 -1
437 7 5 0.1268 13.498994182337551 15.936791852886786 15.234889794904669 -1 0 0
260 4 5 0.053 17.538369417761018 12.231514568060254 17.793574466372075 0 0 -1
301 2 4 -0.1268 14.721374993492335 18.16934434461355 16.72319223300816 0 -1 0
146 3 4 0.0265 1.5631006183637453 12.209596768284344 11.261060833666482 1 -1 1
305 2 4 -0.1268 16.51151450750839 18.70418215390279 15.151942792778666 0 -1 0
304 2 4 0.0265 15.133886443591543 18.806853713714748 15.49929703824012 0 -1 0
268 4 4 -0.1268 15.319356722738721 12.879952885172393 19.42291674121263 0 0 -1
225 4 5 0.053 13.969082428863334 15.248436970540617 19.61651660525178 0 0 -1
298 2 4 -0.1268 15.660756215269608 17.4605310541914 17.499425651198898 0 -1 0
553 7 4 -0.1268 18.528620641184972 14.535815498225656 14.546883964659223 -1 0 0
295 2 1 -0.106 18.00798602376173 16.693221281025338 17.984785064468838 0 -1 0
296 2 5 0.1268 15.305606361966552 16.946098183614932 18.469950490467003 0 -1 0
306 2 10 -0.1595 14.156765039991216 19.48347129153095 14.791779190078389 0 -1 0
265 4 5 0.053 14.945226056182525 10.472143362174366 17.293868186550732 0 0 -1
427 11 5 0.053 13.633399491989696 17.705857577613482 11.144197410744752 0 0 0
440 7 5 0.1268 17.583005839559366 11.406164657915525 14.048907534653036 -1 0 0
566 13 5 0.053 10.364225213917692 14.624271397648918 11.104303674855252 0 0 0
555 7 4 0 17.86613628039228 13.456592731520411 14.02760741435889 -1 0 0
424 11 4 0 11.567838658710054 17.855493179278305 11.7434579863469 0 0 0
163 7 5 0.053 11.911447560510341 12.31185775435476 16.428429506649216 -1 0 0
442 7 4 0.0265 12.903710616538586 13.799659007100146 14.800100164310075 -1 0 0
431 7 5 0.053 16.865857189135006 14.617749724804982 12.503326354158874 -1 0 0
195 7 1 0.027 11.079506746538485 12.725470888789458 15.927987472469399 -1 0 0
302 2 4 -0.1268 17.43451162822188 18.109044817771306 16.026473631273586 0 -1 0
217 11 4 -0.1268 11.75552143103831 17.300711754893534 13.028449526975157 0 0 0
557 7 4 -0.1268 18.297760347218862 12.191404382166745 14.372138650427265 -1 0 0
560 7 4 -0.1268 19.43349012548553 12.036067031110077 15.1971983183475 -1 0 0
436 7 4 0 15.412423547113264 13.672129174693474 13.633265156676893 -1 0 0
310 2 1 0.027 14.670952350395007 1.3756475873286158 13.628487540547257 0 0 0
307 2 5 0.1268 16.8958149214228 19.025384460280566 14.208049091436592 0 -1 0
21 3 5 0.1268 16.951931431484102 17.539254182500976 11.242432251547422 0 -1 1
398 7 5 0.053 10.777040169132361 12.054782120698473 15.152146713089824 -1 0 0
256 11 5 0.1268 10.959618601289309 16.75112076420597 14.873825273692958 0 0 0
438 7 4 -0.1268 13.73356792192704 14.93386273948882 14.775369177877781 -1 0 0
220 11 5 0.1268 12.790412374161217 17.07896642867472 13.444593414041462 0 0 0
550 7 5 0.1268 18.24509509765279 15.59299033151921 14.235643162642594 -1 0 0
395 7 5 0.1268 12.824974989657116 11.654335352496203 14.241403284321416 -1 0 0
439 7 4 -0.1268 14.593676053793443 12.560362137083402 13.693933787454027 -1 0 0
293 2 5 0.053 17.811631850448155 15.644796425164035 17.722743289585853 0 -1 0
441 7 5 0.1268 14.811260416251125 11.612797751720395 13.23836426907979 -1 0 0
299 2 4 0 17.009436369310812 17.47637656318739 17.18532782568886 0 -1 0
267 4 4 0 16.26196453617351 11.898602442835788 19.451923960340242 0 0 -1
262 4 1 -0.106 16.858022174084095 11.434593673693406 18.178787923676 0 0 -1
433 7 5 0.1268 15.666276726531729 15.73654960283183 14.217022742494006 -1 0 0
300 2 5 0.1268 13.678591783135069 18.205603920141186 16.971507542320843 0 -1 0
554 7 4 -0.1268 19.64613691140247 14.359084454927194 15.334588549713219 -1 0 0
215 11 5 0.1268 13.842777949480462 15.452169869145296 11.33100315669973 0 0 0
394 7 10 -0.1595 11.646120790084261 13.921028803416322 15.327180590443803 -1 0 0
423 11 4 -0.1268 10.25935806744712 18.371001702896177 11.465006198822097 0 0 0
219 11 1 -0.106 12.664330979212975 17.765746095600733 10.744585504977183 0 0 0
458 2 5 0.053 19.020014529284197 17.017926641896686 17.83220347910243 0 -1 0
266 4 5 0.1268 15.12371408851667 13.221939492779224 18.422680931868662 0 0 -1
429 7 5 0.053 16.820691066128976 12.764967576787788 12.249279409863176 -1 0 0
435 7 4 -0.1268 14.96000142294822 14.843842569984819 14.147370028291723 -1 0 0
303 2 5 0.1268 18.483096506301585 18.06976089199786 15.617158769958882 0 -1 0
434 7 1 -0.106 16.75443875474572 13.639526897158518 12.997353074861545 -1 0 0
264 4 5 0.053 15.437789815324946 12.007865880170652 16.616507986838087 0 0 -1
377 2 5 0.053 15.10209698693708 19.329710617467263 13.031904429964351 0 -1 0
463 2 5 0.1268 18.56087522605496 18.85331047897789 19.37637655338201 0 -1 0
452 13 5 0.1268 11.419046080910897 12.636839593631175 11.138491953877613 0 0 0
344 10 4 -0.1268 7.030534302042986 2.536824300017656 10.652838053663707 0 1 0
153 4 6 0.2487 17.642653452379665 9.82821905317843 19.864175464741862 0 0 -1
249 9 5 0.053 12.586498618026958 4.658557869082191 10.608559779488028 -1 0 0
495 2 5 0.1268 17.385917357076192 14.88999457640743 19.89450429716671 0 -1 0
2 1 5 0.053 13.09731898770796 1.439509203747354 19.835917652429124 0 0 -1

Velocities

45 -0.006678754393870145 -0.007735187063032188 -0.005971206030617432
47 -1.835728571659813e-05 -0.0034870853570438663 0.006175523013466311
168 -0.005509691847862849 -0.008361691970431587 0.005981931911225358
174 0.0014127323108880502 0.00013966258781614218 0.0026106172797649187
169 0.003191055966212723 -0.001700181065980566 0.0022374444855586604
223 0.003795292058568519 0.0021589449774217623 -0.002021712929754777
222 0.04909259436594802 0.0031441198543568872 -0.00028067642250569297
224 -0.007961754760318584 -0.02318159838661427 0.013505092945088575
193 0.0024557770354352703 0.00401277313116344 -0.0034607083511028354
283 0.0037659843630370314 -0.005733304944190933 -0.0008172651498198971
379 0.005629380387117374 -0.00018188899469155406 0.0014506518730877597
378 0.00896405623055895 0.008545219955039752 -0.03152271107487414
281 0.006631828616080164 0.005864463772821509 0.005009096652316898
176 0.0009064968214376746 -0.005523672372663678 0.008432065022954356
278 -0.006819417351729533 -0.00022879292447451543 0.002979305354067586
286 0.002961956064789171 0.025555096286042106 0.0018271206774839264
49 1.989805850819271e-05 0.0052868934778913445 -0.006078262407841922
432 -0.00015101603245500642 0.015433952264238472 -0.009257335248480995
177 -0.0008505897665396524 0.0011205851715604311 0.013754546563338696
50 -0.0028654957273505557 0.012542667189131676 -0.014250362600800525
15 -0.0032261254949905254 -0.0050908827061227225 0.000863814384787602
277 -0.00703574616940319 0.0030441956615081104 0.0014290724298142812
282 0.001224039227761085 0.005147724500133053 0.00292432053109554
483 -0.0019962736081090052 -0.014450748140725953 0.002852676367146015
280 0.0006056724823130661 0.007986505919271702 0.0017064905341487514
279 -0.021182481244192825 -0.01636470729686344 0.012382841620769058
285 0.0032340045045218305 0.0026816364364521104 -0.010279158172449062
172 -0.018123837371817594 -0.01444722698151229 0.003801960626592476
276 0.0032515305965914463 -0.007738624682125918 -0.0009681744807221631
124 -0.0032018141199589684 0.008634586791423643 0.0021038991570227032
127 -0.0038661348735313547 0.015899865825462746 0.009797365911180623
12 0.004952003287458204 0.007587877447034617 -0.00030533177607833457
116 -0.00131784164029718 0.003368126925097473 0.0022314913645981307
57 -0.0028856387212102264 -0.007999274540561842 0.0007474032897693833
56 -0.002086571259606465 -0.008676991615506767 -0.002180888296438451
13 0.00390163629721492 0.008379136732047902 -0.001971567316450247
11 0.002944131815521949 -0.0021142779609586364 0.0032254164380771414
53 -0.010612984579860754 0.006040269341380167 -0.008834528459972978
289 0.0022205120941769367 0.009294545106891835 0.0032371364531732397
287 0.0005830799445030061 0.0014336920593748654 0.0030915087726971
275 0.015772142755083287 -0.002309628133220485 -0.023589077170361624
10 -0.01569021490965592 -0.007773244629676944 0.0023848318507030497
288 0.006715524488276039 0.02303517228980761 -0.0014158516723835218
533 -0.013565410111201617 -0.009306171461093492 0.00975002687442605
430 -0.00587342346046774 -0.004585815448110634 -0.0030212190730894393
428 0.028990825833175447 0.012501995219355931 -0.004726134407654524
179 0.021280928223867096 0.001544530312885017 -0.0004341010160613517
132 -0.014647396732693593 0.00843718538535159 -0.018513597832103688
17 0.0036805325919639803 0.002476581468853556 -0.0018153254923280648
401 0.003279578677136492 -0.026076472751873348 0.017691715055143276
407 -0.006096796738707791 -0.026441418229318794 -0.027399349683746004
403 0.003458233151302844 0.0012699348687677857 -0.0020043447044671985
167 -0.016279164639881487 0.0012429711445240083 0.002888531392953497
399 -0.006207577941441949 -0.018851782593314853 0.019719414683533512
508 0.01020997988043944 -0.0007893900804888289 0.0028916071387883836
349 -0.006639038328644865 0.002236718562201787 0.0035368917759979516
345 -0.0009293409428104501 0.007325213485478021 0.005258151186543555
14 0.010898807802023344 0.0010312875487616911 -0.001019954358897976
529 -0.016199974569406913 -0.01997507863701263 0.009498596158422667
380 -0.0021744151904653578 -0.0001640610791728294 0.0035887384961274227
496 0.028467797443750043 -0.007130829792135823 -0.030940700669579376
576 -0.032074993405666746 0.00040378991940572814 -0.004619212727551087
191 0.004733307640745467 -0.018049319992234112 -0.009995887529846165
270 -0.0025797397122825985 0.010630706212525468 -0.02028363189530809
450 -0.01925005520289047 0.01659100182646906 0.023490342911683136
447 0.0016550897815787466 -0.004790730501287253 -0.0033334680213947805
449 0.023883848619940168 0.0027854284672122523 -0.005997242943700447
448 -0.009697630881166824 0.012730269014602702 0.013649443192355568
346 -0.002842391745372047 -0.0009503809666461226 -0.02033127476508136
382 -0.0017480909630943713 0.020230922797200762 0.016964010983219195
489 -0.009492060933471092 2.41269899004417e-05 -0.006619216751146389
9 -0.004258006520532607 -0.0008108977290786821 0.004154063753327714
350 0.0026056681217835253 0.005045859332341006 -0.000529789766039849
531 -0.0009854326300313683 -0.008705755622518373 -0.005173511585321124
532 -0.004529625627718538 -0.00369247850816888 0.0037222888301268035
528 -0.0014761653064607732 0.0025711751216635774 0.006401958242375052
507 0.021898482789064064 -0.03314103494354705 -0.003431401408329207
534 -0.00014992167083573515 0.007053112049747933 0.006511893354343635
180 0.0011248299098675617 -0.006689666247470154 0.0017695443835527758
527 0.00034690716994473296 -0.0004649303341231698 -0.004624692631569444
126 0.010939235490613078 -0.015323410900745476 0.002009638343582164
373 0.006853052575261627 -0.002258842485396348 0.001354246278639276
128 0.003248482153038915 0.00032945851672500895 -0.005749168301589262
391 -0.002762376493149691 -0.005857368845303182 -0.02071353032398816
384 -0.002931917459150833 0.004129588587126266 -0.0020870232161960115
119 -0.01803998145093917 -0.015390401807146773 0.01638500490545631
343 0.001820614703127119 0.0019476891807832881 0.011796111943525471
387 -0.0006339513956105195 0.006942060642907566 0.02742308043501601
122 0.008423726595270187 0.022797554546677583 0.019794805689576228
131 -0.005790923521342208 -0.0009411513406590328 -0.00414730125208812
129 0.007997358349468159 0.005401313394233285 -0.000663485689887877
130 -0.006690840791336314 0.00257590429103166 0.011054458622723386
388 -0.0027772875397525944 -0.003389680833790601 -0.0015164744963536553
335 -0.019453009304857015 0.004478611963986913 0.01268610929042335
392 0.00038114312825731337 0.009886016131718214 0.0016383232697392443
251 -0.0005429174720168203 -0.002328558386981627 0.00507784911721267
103 -0.023378026048881062 0.02162934789990526 0.0027781744689167067
334 -0.0033345280766002437 -0.005660844378863731 -0.0051545488532482
386 0.000750484458978066 0.006304148180435305 -0.004313452599807909
250 0.006686078650958801 -0.002116715937913178 -0.0030208093122116872
123 -0.009099042533338719 -0.0006483187675888507 0.002092523061417488
121 -0.00022615226545206335 -0.0026423271844794242 0.00012785540467263193
390 0.004463313929004348 -0.003162824567255814 0.006254358344946662
292 -0.0014765373326460919 -0.006089849527873308 -0.026685153070449285
125 0.001776810998378966 0.00039262968901774295 0.005005306612009004
342 0.010303840666258262 0.0007381431052896766 -0.0005601642373419121
339 -0.07192379479399189 0.0069291151174615115 -0.02374357953108274
248 -0.0015150150123893335 0.007417691467581555 0.006670975533278731
133 0.017015209649446902 0.006665787212682052 -0.01633090032396417
530 0.017513178548009295 -0.02450469424497489 -0.017975005727077425
102 0.024559692691654266 -0.017002863634998082 -0.005237262419056379
291 0.0009557169707542754 0.0055193372200138665 0.005976978422601423
337 0.0018029726866461138 0.0025393804650853083 -0.0036275370889007025
336 -0.0017680002748663355 0.017061297794780834 0.007546267032936249
297 -0.02390056897208677 -0.005176992509603302 0.022526977297971866
134 0.005244998360664981 -0.007526551149891548 0.00552216638826673
466 -0.003635566838633611 -0.00033218359612703256 0.00014229119343002347
6 0.026084984018538006 -0.006253510949661287 0.02021038574151919
135 -0.0044595140700985116 0.0013031512645829627 -0.0015381016434111452
185 0.004278902604170109 -0.005257822976147162 0.0023194517570229068
517 -0.021818014706009536 0.006347379998070589 0.002873826794845147
372 0.0032993486572181516 0.00248458902821819 0.0019985629813995516
37 0.012935502996422776 0.008195107161300756 -0.018734894190982874
155 -0.0007842923497101646 0.001459801761525731 -0.004729511675688233
240 0.015559399646772661 0.01930654077711418 0.007331386947742631
338 -0.009066264037129887 0.002046101659458572 -0.010228481593534743
38 -0.004321821795238249 0.002055654948452824 -0.03071818240666478
294 0.0007812356074962188 -0.005630703592958885 0.0023663613059018975
120 -0.005839042495450407 -0.02333647743174395 -0.00722173302133873
183 -0.012313256014976078 -0.02445164064370206 0.013540698649970507
284 -0.02056186189957703 -0.01770914407094358 -0.003541282442674401
269 0.00016286401381930172 -0.007023561205546637 0.0020835930182546325
348 -0.0026220014136585437 0.0021409840457743026 0.00841231157093443
137 0.02606883193676663 0.004848673198337212 0.01565981974019735
94 0.011992605750116379 0.01798458449219505 0.005020803505634693
271 0.008909609681952676 0.032679462351722685 0.018078796965848427
136 -0.0042849083877340806 -0.004254381630647614 -0.002331633849518257
187 0.008306924202385465 -0.0012977629249406564 0.0057986942209181215
443 0.015517546856157145 0.02469764140772885 0.034260006339693456
340 0.0109695972466729 0.008222163244300555 0.015661630432478944
319 0.0063773627257398885 -0.006612587272480828 -0.008102547798395296
366 0.0011028162570706458 -0.008783540449422094 -0.0015709459954753935
465 0.007849402329098153 0.021399648285502792 0.043442566595552526
227 -0.0029087565117512956 0.010766382404374641 -0.005199850673623623
351 -0.0010583797414411497 -0.00988246386231503 0.007167427338322193
565 0.0014286539711026742 -0.013988001441293283 -0.00032227429196853913
354 0.002716396452550703 0.0054741072218408345 -0.0070899228462367805
361 0.0022028995223937397 -0.0010464445529689548 0.004853092600065293
356 -0.0021641377413182923 0.0002624820736858115 -0.0026454092681831368
362 0.020390803340192925 0.015142564215730419 0.018745449530780348
357 0.002920844921450239 0.003031488390542932 -0.0005162426223659731
363 0.008224667108226223 -0.018562823352698418 0.014319935158380745
359 0.0025534395327228864 0.021334307023704164 -0.011910527945298847
360 0.015248991304060431 -0.012617061105439873 -0.016806918416346853
572 0.003340162743833936 0.0054900379471805785 -0.009550508754943487
355 0.014804953350267899 0.011341694139132 -0.006633270647231139
254 0.011011424554598494 0.005403795956888369 0.0029446220239620746
446 0.004165100616132664 0.004901919691731564 -0.017257435557572046
545 0.0009125047619637672 0.0014839458999766505 -0.0018374268246271704
258 -0.009053938400207335 0.01846361137574628 -0.0004966348158046832
178 0.016838253990603205 -0.013344638647950212 0.0412834161305634
98 0.002087619811468733 0.004154933589996115 0.015130759287360364
540 0.00294755357411056 -0.020956313037153364 -0.009530892906988402
547 -0.006380206669084927 0.003691851342628196 0.0031374043683320843
150 -0.01395138839666615 -0.002714203229003099 0.010716539726694283
154 0.0089518122270199 -0.010227085154822822 -0.004185014753601492
151 -0.016862237801375718 0.0023473376351671096 -0.029075370556648394
464 0.029523618614140813 -0.012380563487695872 0.013433923211312943
152 0.0012042460862183215 -0.006765203149110073 9.602912719679255e-05
317 0.0036574298991411086 -0.0009839534643723525 -0.0022257854905305316
156 -0.0029400320720976585 -0.014450927776381045 0.019273473451296305
329 0.006656848309356576 -0.00011532527686165369 0.007082141132174497
327 -0.0002838910118183355 -0.002483074716518621 -0.00299378159456358
383 0.002795155045863417 0.0011085328412422646 -0.00284144147943292
325 -0.001771077829596665 -0.004783934416010381 -0.002799870563770431
326 -0.00927137973280651 0.010290170182627616 0.0013966792035481315
328 0.0026778140558105256 -0.009502845312885146 -0.008833956529483407
322 0.01622707542527853 -0.002003660738268687 -0.003035478385139571
320 -0.004470830319079573 -0.0017430401784355757 0.0021075560989405133
323 -0.0011624402513108997 0.006359834169287042 -0.0021496185077603436
324 -0.018956031245326833 -0.0008200916878921086 -0.027498505425612184
321 0.002948409831652905 0.004569613374021605 0.0007547619578397252
65 0.004520101112083396 0.005918753039453888 0.008157543555846506
542 0.0036408341428510356 0.009013876269896571 0.007362967115118863
512 0.006310324924143666 0.004707982993950787 -0.001006026023497781
46 -0.017771083527319865 -0.015500736570619374 -0.02440617681540676
64 -0.0008313576418420339 -0.0014139997738575585 -0.00013868820866178754
48 -0.004762494457421588 -0.033081119831375544 -0.010535163509141906
67 0.005131939132273336 -0.005444199368063038 -0.0027703074978645795
69 0.0021105523866298097 -0.0026479897286007317 0.0032090078044478493
44 -0.0022377888961541367 -0.016401856454113437 0.0028161547822380894
381 -0.012502868434953381 -0.011753134551377165 0.001003323526792284
70 -0.003600506877709281 -0.0019291065126568314 -0.003903562460835789
63 -0.0004904503811671083 0.0010323617787997357 4.29587028768867e-05
539 -0.029454177687168733 0.02025124138895876 -0.0016581418536628608
564 0.0020417586169890643 0.0051859957998039085 -0.004040871615301694
66 -0.0004980985357594328 -0.0033415764688484997 -0.007538728070268537
72 -0.003310280022078621 0.0014074578576687392 0.0011270440707640422
68 -0.0015200536169924898 0.00411906118877524 -0.002809791723265127
74 -0.01431443232661509 0.004920739960285469 0.013289037234175943
73 -0.01829993817860214 0.007345524686661889 -0.0012010844556583087
332 -0.0012257627200639805 -0.006142118816268536 0.0031942296550218465
385 0.0039182932203751485 0.030248930788672725 -0.01852612144285479
567 0.020009335100381814 0.014256865993075383 -0.013212613708068095
257 0.01216388380003021 0.007404214222657003 -0.0058235973925273255
569 0.005861664426899302 0.0022529171569444896 -0.0005811202338483873
218 -0.0001213812049870414 0.002122150315968243 -7.936087518825749e-06
370 0.0070713483658513465 -0.0035639988451228043 -0.00034044042129633415
202 0.007943801141204661 -0.016090605331187807 -0.020458934654741474
389 -0.0023120675056847854 0.005544679718057293 0.00633222002770643
364 0.01972848820946703 -0.012479879135189938 0.0014500243921764097
205 -0.022060523565523966 0.0045537072218124605 -0.00961032555148649
451 0.016111595618968088 0.018886370026819276 0.013122862033223357
568 -0.005734451799698116 -0.005311526768674748 -0.009995438169918597
99 -0.03585126028639808 0.018112812740136777 0.01281237928915689
503 -0.0045273990427383455 -0.0001744740554430063 -0.002721963122306001
110 0.0025571195146058064 -0.003521286302264315 0.02056399168774123
8 0.006805460775489685 -0.007269447875951931 -0.0016010268314938288
104 -0.01344481828584474 0.013614787806098086 -0.01797117409077574
40 0.006422348694349473 -0.01227244513729385 -0.0092753833238445
546 -0.0149964836983611 -0.002123557435324817 0.015573382835914567
422 -0.013979951726906099 -0.025014248871961253 0.03248508881023813
30 0.005077246420056341 -0.0014590556819033922 0.0008456095764279301
203 -0.020961420650795464 0.011570594146243306 0.02315375630137258
35 -0.0023165459244990517 0.02035968037249133 0.009929590969789537
22 0.002125025764919617 0.0014155084206350693 -0.006090094289600114
505 0.01941163726787545 -0.007449689531672605 0.010304160767882766
106 0.009427063910227247 0.005323084787568395 -0.012781494267304048
105 -0.00528035671827207 -0.0071542736257027536 0.0038854751934613583
93 -0.009943806329603039 -0.006324937674387663 0.015350134840155518
221 0.012802380516200225 -0.01656472227444801 -0.0033778724711429485
3 0.0029971136865162237 0.00960908834086607 0.006376297648223227
365 0.0036030709153587292 -0.011834712710770587 -0.010186891241543618
89 -0.003713278957495997 -0.0028363655713173792 -0.005384319342069702
188 -0.006356864446752574 0.005659725019011592 -0.001144316515805262
96 -0.002435052543480165 -0.009715423149656871 -0.0067851283877853425
83 -0.015927058997627322 -0.001443690463489931 -0.00507010885581195
1 -0.007193101258769083 -0.0025377162549856435 0.004394245839664108
23 0.00030866864981537014 0.0020058754118867377 0.0019019870359563893
34 -0.030530129030223372 -0.010508850354432824 0.006058043427134528
145 0.0005334230598875682 -7.353435579959509e-05 0.006848581975658292
95 0.00820930560576006 -0.0021533668770078273 0.005390764707890544
4 0.0002637752875514577 0.0044837284624120064 -0.0027214937576014
501 -0.004072401778045441 -0.005597498624640737 -0.004553748276201827
371 -0.00440787896982227 0.00020383754547139335 0.006097116802863914
7 -0.03457212934049394 0.025447212584197482 -0.03509873514551557
367 0.00825193097997314 0.0019491831708336915 0.004235342569929361
498 0.006375933853665065 0.0048264098873350885 0.005640315230816747
374 0.0023791575983255217 -9.010154315647574e-05 0.0021700431267428376
62 0.005767580962044472 -0.006433377223297931 -0.0011015867765427104
85 -0.0033734477047289877 -0.0007794153599373445 -0.0018996209339300334
97 0.03355979634247531 0.03177175352657161 -0.0031414968688347994
582 0.016532874314350878 -0.04562782552019079 0.01890464715723406
36 0.012819973288323915 0.020837153465510246 -0.0029668606936439673
204 0.004708132312358828 -0.0027703266318638634 0.0023908828591021783
500 -0.0006345958431767067 0.004229582748075117 -0.0004859391103915246
502 -0.0013047785710664814 -0.0025405292176821385 -0.004309434671208898
26 -0.0004739149927696866 0.0003632915763309524 -0.00699755697042497
29 0.002337740829518858 -0.0002954141619502789 0.003348575464169617
376 0.010653652696676213 -0.0037802656827907017 -0.0043541242769776865
32 -0.0032372635012920376 -0.004317136539803064 0.009111823620441587
506 0.03452055824141575 -0.01796832368053671 0.017712833997212945
100 -0.004824720482300933 -0.002114029131897142 0.0094975286313339
497 0.0012014055414893811 -0.008415278288857212 0.00789386018483154
216 -0.005123873891891085 -0.0026193073182612953 -0.004354222893391582
71 0.002193704178361333 -0.009462859553285524 -0.0019461716171090592
75 0.0022550325535665317 0.00238194464212621 0.015397673687125779
31 -0.010951661839246112 0.0012110699538973794 0.0016831579599165202
107 0.009031056910845119 -0.002048306659103039 -0.0003700467085103517
5 0.015023821629730502 -0.0036590358554926977 0.014500066377436753
92 -0.0018378487064106862 -0.0017873198991950445 -0.0023150016370886532
111 -0.003983621594531614 0.0072761582442183404 -0.0021583713239180387
91 0.0026783140968232484 0.0053095326050989575 -0.0009481415817043743
101 0.009824682349678553 -0.00998988507512055 -0.006258546657891999
426 -0.00013580878562824633 0.009061291295429775 0.020587458584452226
112 -0.001092654569493411 0.014066811135790343 0.001398732987028461
535 0.012005120959184738 0.023543630114224588 -0.012653506966810618
109 0.004062847338983581 0.001275474943425281 0.00778308953952406
184 -0.01517098975747727 0.003562662480155401 0.007857881628671792
24 -0.0017470553160783705 0.001990154714766785 -0.0023958912190683583
369 0.0002462987726180369 -0.0031424410212131664 0.002492999436272955
504 0.010585960159780153 -0.0021562984885433317 0.0016442980802271244
425 0.0049873940015113475 0.001401254382846977 -0.003298948682407343
33 -0.003748190948900023 -0.004024454555632676 -0.0022708567801589595
19 0.0004870353116121567 -0.00496564876261099 0.02081971887812422
108 -0.004957459232017746 -0.006304342530559253 0.004564350929055267
28 0.001010657789931755 -0.015771068446819976 0.007841912750857253
148 0.0026011834090717903 0.0033961327053460963 -0.00010025265239197134
375 0.0003495528654746167 -0.02181322038067545 -0.02657486814904305
368 -0.002332076592623764 0.0055325618788247466 0.0001346390904868241
316 0.0037647910317507687 0.009786699907323943 -0.0018485695734858948
16 -0.015015550448766542 0.01149313199672077 -0.021031962374241618
20 0.027348796079125697 -0.00896032958871991 -0.004943658193404904
182 0.005054436066766744 -0.0015937915130284747 0.0010113133996230315
318 0.017027734836528755 0.006588276867850361 -0.01565722332734243
467 -0.006581690889481148 0.00047848872169832524 0.0015882025586092256
226 -0.004454729877666414 -0.004919261396924036 0.006467047554554364
584 -0.01860405102440333 -0.002750618444029221 -0.027478371421905397
469 0.0026398010837689998 -0.0013495935410161297 -0.007931020337949455
470 0.0074479808739300974 0.0037876406930669767 -0.002062323701147525
331 0.0023608043388467707 -0.0002823127350905088 -0.001146913837308754
272 0.01306366395990252 -0.01641450162296109 0.0015282768082419621
585 -0.0007221468960161467 0.0003503146686746023 -0.01009556242057592
333 -0.0055675665524021695 -0.0011910716383762624 0.0032540942795024784
516 -0.002214951573556594 -0.00029246324554204364 0.0008098811010532224
468 0.012167193005121849 0.00534375418828028 0.011344954524663385
60 -0.002654078298822892 0.002805024822917016 0.004798586219348117
519 -0.003081291079199191 0.00027296201954360645 0.003434462803190886
190 -0.003921532158308833 -0.002990873994321878 0.0001810657759309157
61 0.018126612084282873 0.0013555769822209073 -0.017109997758281398
117 0.005798648311087561 0.02297162047364013 -0.016129989094473593
186 0.0004462853479449948 0.013695391077433899 0.004031205944303539
515 0.002849636003634471 -0.0014138776009438524 0.0006037637678661008
514 0.004257994002216977 -0.010506675381846652 0.004593898083157873
513 -0.012772093964031794 0.0003346331874712156 0.03693855628248984
562 0.017641866425878207 -0.005341931165453816 0.026343516532092118
475 -0.004394629770498347 -0.008099179821043077 -0.0003482496920627135
477 -0.003602143574146348 0.0007116621686205325 -0.000258569938975848
579 -0.026554757547710032 0.02082799974716362 -0.0057239474276610585
578 0.0005838275520215967 -0.00435048017844039 0.004501558146506236
476 -0.010805899132146581 0.0035883990818086652 0.019165121195793312
478 -0.006655723067289258 -0.0016998471260136483 0.0025676882377380916
330 0.009181172716976965 0.012346464353490742 -0.0038387491896399316
231 -0.001458182917642957 -0.0041429707244387565 -0.0034809224869721336
526 0.0027665045491774187 0.02669124786641972 0.0017845662376852445
273 0.016101561998345375 -0.014402809217529976 0.020518474443601813
521 0.006668143386465557 -0.00042615351569394216 0.0014663487180728095
525 -0.02539197606074102 -0.01276303185768945 0.009425023960759999
160 -0.028152622242457452 -0.02089630381965901 -0.013842603177831713
161 -0.006764745413896367 0.015675910376638107 0.021766514542863376
245 0.0009215335857058876 -0.018362759508732462 0.028278191354507935
518 -0.02305323901796396 0.012440464429507716 -0.0031961543372878033
157 0.0186812356868587 0.004993957775820058 -0.013649715266067234
77 -0.006560412981482986 -0.0072072504188429335 0.005678579688911444
162 -0.0062227573055328505 -0.0008702935379239647 0.005448994652393143
159 0.006291495731267737 0.005810507202312697 -0.00845885425535414
274 8.167052087770486e-05 -0.0004380281942583363 0.005479660557425349
115 -0.0265853740098427 0.008712730892268436 -0.002725525844163301
139 -0.002213686881558959 0.0005333568278913502 0.003071141786957247
473 -0.0018128865386189087 -0.0064363792414285715 -0.003498842323457553
471 -0.013826533652098393 0.020605212192600465 -0.008130325588551071
18 -0.025270569947972603 0.04514194717751549 -0.021633712015160567
460 -0.01826245857566297 -0.0004442634461299921 0.036937048969548636
237 0.0007952320793879166 -0.005125412115627586 -0.033546470702050454
170 -0.002498584753906962 0.015600879446039431 0.0024814887687760463
523 0.0030710100429733713 -0.008050429838273355 0.003044371183278826
42 0.019279221819379088 -0.020725553905357658 0.018831148108652346
347 -0.0019827871007477805 -0.007954394306177103 0.0006086215936127127
165 -0.0031807963697602186 0.006106519587607072 -0.0035264937389476976
41 -0.0029834265441412997 0.0018339652611918898 0.006554160892061384
164 0.009561069750379916 -0.012080960843070554 0.009214428193550167
201 -0.0019579118937184162 0.0015132072656564772 -0.010640347473450853
166 0.009199463153447635 0.00530778150314279 -0.0035776733552346915
479 0.000521131086472137 -0.008220875430491555 0.0056054430429471076
563 -0.03994647848927131 0.003798792680042573 0.024304054702427854
43 0.002722471466248299 -0.002639333972098977 -0.004594843304877959
113 0.005289093630008664 -0.0005835506207414058 0.0016163631607457667
580 -0.001568914357905226 0.0026287084566807193 -0.0002516641683407384
76 -0.006386144483680504 -0.011036186253346549 -0.00032906801924980044
78 0.002230813751655198 0.0025457228077825026 -0.003747624131788892
58 -0.005360284200107147 0.004661692904523394 0.008567140073798957
59 -0.004045574000718516 -0.0012850271022760156 0.0041440686636325524
80 -0.022021841108624936 0.01575503336227489 0.029798646744868148
244 0.007162947867281964 -0.0021050730870520312 -0.005768962534290623
243 -0.00015132570999080972 -0.0036689681852663317 -0.007380983800509894
499 -0.001066041048710773 0.00010116868495382112 0.0004941912144133454
255 -0.0026481593132097873 0.0022537631226816944 -0.001747456108063818
341 -0.01915716216816045 -0.016292469147395055 -0.01941601898650736
393 -0.001578643165721582 -0.0063986191908405165 0.0007445978260742782
114 0.005568734423105187 -0.006576725518674381 -0.008679080180642087
171 0.011270942901158707 -0.008432413127813601 -0.00922956360847453
520 -0.005760823072102383 0.0035926462164333223 0.0037023422078973365
192 0.025722075381584733 0.001435850427090914 -0.004520246387987217
522 -0.025424822576452035 -0.0044527501136264625 0.016305359863846527
229 0.004561903716697366 -0.013124820685127016 0.001093798813586988
524 -0.02227270187321471 0.0038553709355467927 -0.020045773993716095
228 -0.023584372263625877 0.007494290817034061 -0.02360277214133163
236 0.0021409162382725866 0.010072486406971264 -0.004121289799980132
480 0.003223782475214634 -0.0055235647055825185 0.002040145943113692
242 -0.008855648926051781 0.012851894225622213 0.011022980923514215
239 0.0020233765892756286 -0.0034229746637716584 -0.004078193701758595
233 0.0029692587614296227 0.0007794003622100882 -0.0026929983997008786
235 0.0015499469547327596 -0.006629618248939771 -0.00459186699870175
241 0.0040219538446907045 0.0028906467938016266 0.0018869523072740444
214 -0.00014880695334932364 -0.01406482774082304 -0.021203252747557196
358 -0.0011226176343848001 -0.000568252231457049 -0.0009245302973765536
311 -0.0038422663773419025 0.0012981356001766852 0.0015653164688683777
208 -0.0018837921801801234 0.0017640963347865513 -0.0038722732209657247
486 -0.0014115703287179446 -0.0067590070044044335 0.003388286877784704
232 -0.004349116130368696 -0.0019883631145632408 0.0015599164624967741
481 -0.038849432287882305 0.025494127353300238 0.007987137016048185
230 0.012084609160366055 0.0024552251286530037 0.023775344246574546
485 0.009840299507831019 0.005094481922699996 0.03315957460793156
490 -0.0027530164551977884 -0.0011488465153302232 0.00040720100317501103
492 0.0005268001539875594 0.0025692162499739352 -0.006058370264988183
487 0.004714715662171752 -0.0028122572248515877 0.004961415322025611
419 -0.01571549862748999 -0.00513705017896132 -0.014718667045618404
418 0.004365998298237655 -0.002925273274847522 0.0011462196597080416
482 1.9643296271539116e-05 0.0010849836870272095 -0.007769353914419477
414 -0.004324779544178904 0.004684807637729342 0.0012112997600620358
417 0.0050419215466565685 -0.001241839464031823 0.003906579491635117
416 0.003518593011291789 0.01536797736947318 0.003520255540337724
415 -0.0007242724807755556 0.0031300012583440067 -0.00048317957108107515
413 -0.0020939964843687425 0.0017352226771806451 0.0022098310814718273
484 0.0001677972679435106 -0.000562242305021554 -0.004145441222110242
455 -0.006459265508574622 -0.0018362371499727075 -0.0018785402459528923
412 0.005991007248094603 0.004391439928158543 -0.013194430791687112
581 0.0010739604936531298 -0.005060378531937797 -0.0026991830378646966
493 0.001896457103485065 -0.01550556884246452 0.025066744644593807
549 -0.007844597595073043 -0.006443450302569234 0.01883502988235985
234 0.002081073994105284 -0.004612044402794566 0.004194466454816336
209 0.02754778100543306 0.016835855363951175 0.0008321482008632322
491 0.00016107935398101503 -0.001342043340093681 -0.025749951362242302
118 -0.003816961706440037 0.015333433081626725 -0.02612688685382693
313 -0.0021185331064132074 0.004775763425303869 -0.0012147148298223146
312 -0.003160436470407949 0.0033971538332902627 0.0007090025762034283
206 -0.0015364188013065677 -0.017228612801754303 -0.014083405867727113
494 -0.0042265095295518475 0.032042315449245386 -0.01238740781783099
488 -0.00865779548338079 -0.03029576750281522 -0.0017051854938036203
238 0.007391699722729275 -0.013187816422489222 0.003526477237934207
353 0.0055329627455122515 -0.0014684086649878712 -0.007095080496001241
314 0.0062064034054883765 0.010605028102279587 -0.022275907594058734
315 0.005804766281139205 0.004240791818842169 0.013971968584215
211 -0.004239778101203002 0.005267598547537936 0.0014127390743242912
352 0.0006341884980162706 -0.0036242402767799517 0.00016544536349948766
454 0.0013723536774802368 -0.009193830763368013 0.015322076772401097
213 0.003381441561062524 -0.003918167287656553 0.008714397822377231
210 -0.0023781048059751085 0.00833187046695932 0.008358595619543566
411 -0.0009331010442505737 0.003771864059746562 -0.005306757020647944
189 0.017380429238565906 0.005960785417196912 0.007094708335587574
207 -0.02702917919689464 0.01930406293718815 0.011591934182347422
457 -0.01022448070537707 0.00893694445631007 -0.009604178106659103
290 0.0036060895701978037 0.036267213197893985 -0.0010601494364733826
212 -0.007257370368718282 0.006700788297761887 -0.00459227898056091
474 -0.014643732560792565 -0.005780349717496011 0.0229723692114141
472 0.004572446526966994 -0.0005091351089009484 -0.009131696851134656
158 0.012258528318870355 -0.013075311438301141 -0.015551690117137477
308 -0.023495760612892942 0.006804561164521485 -0.0050001202156980205
309 -0.013009968468936215 0.021601505796758635 -0.02057150872697684
456 0.007062001237381147 0.0018463401784770642 -0.00029530012856427036
261 0.010330091864534754 -0.008627873606531519 -0.010525453404286072
444 0.01491472106571864 0.010556057679327947 -0.0008891121033289956
445 -0.004547415430103701 -0.001961648092108006 -0.0005763189121009431
259 -0.025765048645459546 -0.0007207088977215458 0.003653953695897241
143 -0.000953297675062695 -0.004206814900421202 -0.0005106580982997137
39 -0.0031342167534925626 0.0012184209572645153 0.0006176993179316973
141 -0.012399203583033836 -0.007461389840434673 -0.00786527297250398
25 -4.4676480832816845e-05 -0.007034109629718765 -0.008917730036802917
149 -0.0009943272551069576 7.116369064959171e-05 -0.006493724175492137
175 -0.007663982204432243 -0.00045671672357370396 0.026747331735821486
173 0.004407286971800076 0.00678239832779755 0.0036733784071397856
27 -0.005431433249547086 0.007364455433459731 -0.003767336323158466
263 -0.004711589369114617 -0.0008850063557411528 0.008057779714381272
138 -0.007979945646742393 0.0004416187850388638 0.00046487376303588565
147 -0.00868045576657768 -0.02273020499727341 0.0066977799422126
181 0.006082553828167731 -0.005707308860456305 0.007067259752371545
79 0.007071607292305721 0.001519338788397957 -0.006288654095635704
577 0.0025815622439308225 -0.005781312465689305 -0.009004261667709176
140 -0.00612425473170416 0.001511723325826297 -0.0015176592781388134
82 0.009914956646895153 0.011331895841994876 -0.027272022034844058
84 -0.004650312374579801 -0.00019186427042409 -0.0003492579547017311
54 -0.018322889906904116 0.02960206848680738 0.02572070677449966
55 -0.0024354674780247445 0.00302259183907466 -0.004920108831768308
81 0.009569463405521414 -0.0006962308072225256 -0.009632287579285165
52 0.01893556144327388 -0.006980863911014631 0.0290261943637833
574 0.018748053574117653 -0.0049017619494734965 -0.000792263409195425
575 0.0028834715629287963 -0.001759049468426477 -0.0005822892127868637
537 -0.019763379375193728 -0.008861913999565813 0.0007034332082630614
404 -0.004385707492210699 -0.009862627809797634 -0.0020452994718752893
509 -0.008900509264324714 0.02222892396532264 -0.0009882187098670862
583 0.012312412007546618 -0.012465233375243983 0.014068482662976193
561 0.00206076721289459 0.00519594354555061 0.006316563518476747
90 -0.007379285715671344 -0.00024122041859776734 -0.03370419273790511
198 0.03271872319511125 0.014057678654493715 0.018768424084173525
199 -0.005511076354692654 0.003403696984636903 -0.0006758060656013867
397 -0.00030528605251798745 -0.0023151904057134736 -0.0007780215617670045
400 0.00014500846590943326 0.008225653335486024 0.0017031948258331203
406 0.0017523580413765893 -0.0013810454931164231 -0.0009961809440704292
405 -0.002908561009239021 0.005108958549482425 -0.004017405709822326
538 -0.01427690094636372 -0.029063097859884174 -0.027197281736427895
541 -0.009945845669527584 -0.002552925561397366 -0.006192784088700566
544 -0.012601518062818793 -0.00243413882185974 -0.0014238508915005975
548 0.007344913851658265 0.0046981103914363245 -0.028377796044329693
408 -0.032346540674232746 -0.015138152046567056 -0.010107214484991885
410 0.013392128983146555 -0.00414020072028659 0.016426117551006775
543 -5.9219891780437707e-05 0.00015916024100382482 0.0030220801074190397
402 0.0013854676516124231 -0.002059314719831272 -0.002949436855422101
200 -0.008117465480079833 -0.019604393534036414 -0.008904910015669586
510 -0.0018543553585128115 0.004101447482664007 0.0021544772985118677
409 -0.0016759191225168258 -0.009211731670494263 0.022018460518047882
573 0.0015987678814770472 0.00704470562472821 -0.0029627007672301912
197 -0.0026447543767168374 -0.005574574195815866 0.006512967848354089
196 0.0012908595899110745 -0.00034222571299691047 0.0018827993066193474
511 0.00044261497307541167 -0.01534963949341288 0.00883233157480585
552 -0.013501131218221368 -0.003497105565096997 -0.02031197313488217
86 0.0015363101017744358 -0.00039437930909160706 -0.0017581420774013478
144 0.010111847870307016 -0.008901462592156226 -0.0012486101164480507
559 -0.0006716336782351537 0.005229690768703466 0.003214386875929037
558 -0.0015752308467689871 0.005771654205625803 -0.0022437926589954542
461 -0.007280234103168633 -0.002348550804623661 -3.7627794042151534e-05
459 0.032309426820292066 -0.02105709071247758 -0.01037695567327677
88 0.0044729825534480855 0.009780475429745347 0.010046327896810552
252 -0.0020515176778762127 -0.004340631602118865 0.00037454730708001217
253 0.0017659344639805352 -0.03488888926318646 0.006080931671722182
462 0.016262226578823594 -0.0028623393179742903 0.004401484321921996
247 -0.0034563199234885302 0.006705191466792931 -0.004753351342610573
142 -0.000927464160976481 0.0012672661049824342 0.004295312327092109
420 -0.011024672122366252 0.007071621233748606 -0.016863398046015776
551 -0.012203922540004188 -0.047098688032678575 0.023156095548355772
396 0.02078677490452261 -0.01004875575857856 -0.01706209546067614
571 -0.0011630514222425738 6.633373699020826e-05 0.006318746611767226
421 -0.0018041827896201673 -0.0012866402804992225 -0.0023863912255242823
453 0.003772231316981213 0.0027945262763906975 -0.0004245096795157963
536 -0.03485536041635029 0.008202417311284847 0.03589587991053648
556 0.008059817041350625 0.006366360118251622 -0.012773887165109549
570 -0.003517410177055161 -0.018110205159420054 0.011148772184351664
246 8.567981871367012e-05 -0.007764165433967667 -0.012187862299179574
194 0.0029804781213424872 -0.007957415160995825 -0.017227248909620754
51 -0.023473781943331967 -0.008851443992070638 0.00439413070592702
87 -0.018478844200898292 0.005904706407846353 -0.02065070699648401
437 0.03144314711131378 0.024189150704819095 0.009149018634843766
260 -0.024515643581609226 0.04171676038101697 -0.01672043533737224
301 -0.005862834263036455 0.0006874840578128322 -0.001574600028743862
146 0.0031935575616892347 -0.00028198801216927557 0.008486741846102392
305 -0.007533952260894187 0.0058140789476975405 -0.008411946477634425
304 -0.005031627121663138 -0.004958607689114589 -0.0023895443632875025
268 -0.00046743375723336776 0.003523266960279764 -0.004581259597885191
225 0.017652069319619226 -0.008626183565723224 0.010029958575563299
298 0.005655071019577599 -0.0006385842439863355 -0.0019926332056229667
553 -0.0022728116906937414 -0.001778802820115278 -0.006200855182345858
295 -0.00302317612983401 0.004508276608505141 0.0024228308573802245
296 0.012338189415956245 0.0010916134856277032 -0.007209122966287568
306 0.004851175316321294 -0.0005515618341137195 -0.004848487632677232
265 0.025453410692920845 0.0031921211730202076 0.002641241539771604
427 0.016423990147046687 0.024857779334321973 -0.023706705695617978
440 -0.007239409873458313 -0.003514039720865768 0.022033805358423104
566 0.016995306102602546 0.0022196058493637446 0.02373776720295388
555 -0.0009655146333896627 0.00028812137768303693 -0.0039679864627761375
424 -0.00147918457720661 -0.0022276978238040994 -0.004052683005935057
163 -0.02103556788752526 0.007531980838785595 -0.0090954649947672
442 -0.0006710909187750925 -0.000627439906393659 -0.006886531226807265
431 -0.0042849443445714805 0.009239902576214766 0.012355856227569562
195 -0.005566448376980626 -0.0034972215106105963 0.00084996080996499
302 -0.00011375212633506369 0.0027362476877233477 0.004590004291269056
217 -0.0029928611916243504 0.004411921427763368 -0.010712675338773011
557 -0.0006285389319321613 -0.002666392345965824 -0.004461852424062839
560 -0.0008171633008527317 0.0004053968248486804 0.00034751687227063097
436 -0.004578677008381887 0.0017313931738556726 -0.003977405032576556
310 -0.0074089366324612185 -0.002149591480357813 -0.00472697793321405
307 -0.0045451146482343215 0.008999137779813338 0.013371847209449606
21 0.005774423248622698 0.02769388587508688 -0.009459996268884921
398 -0.019761327692351227 0.017516262607670374 -0.022713011263997558
256 0.008791288242860138 0.007003013831598652 -0.0002615106921885419
438 -0.0008051858320352553 0.003962189142620133 -0.005867148967369955
220 0.008564300784636816 0.00473002033835987 -0.0006102487680893816
550 0.004599282869041049 -0.0013411175981505065 0.011405977832195808
395 0.001834483244639401 0.02176417772377111 0.01199936421766564
439 0.003703346944728065 0.0036358036721133784 0.002104793146035697
293 -0.008473292854946954 -0.028935179930441406 0.009818767288147678
441 0.009730224845728493 0.007311473617713329 -0.0006630960479809674
299 0.006539544864530108 0.006119281134911542 -0.006699624556070099
267 -0.0038688563022968026 -0.002384684993646841 -0.0008457562102487007
262 -0.001849930173647159 0.007640224141790477 0.0008261400871795728
433 0.017257343873686756 0.018514781241709674 -0.01626702950201559
300 0.003399114527624402 0.00025328718627146835 0.009556471423389853
554 0.006194833425554317 0.002777983974469134 -0.0010794128024361807
215 -0.011814086838856284 0.0025012667909583472 -0.029277364735745166
394 0.003700445278274733 -0.006133697601387565 0.004564234123678681
423 0.010356641837159293 0.0011455650724852445 -0.00034474040008182835
219 -0.006100627493601612 -0.008019955402045776 0.000741721604769513
458 -0.017934391976350952 0.011242818462852794 -0.019651546489945142
266 -0.014605054086905957 -0.029374513397848297 -0.020225940294868225
429 -0.0027631756137475646 0.009028377869584424 0.024172194586229365
435 -0.002855873834913351 0.002042202988042025 0.00038456001474615123
303 -0.005457292433260517 -0.00402718273140116 -0.0006722725267226707
434 0.0023329725945280275 0.003790021126131358 0.0007294561613550958
264 -0.013500140110649072 0.019240267451760208 0.0031121740486101976
377 -0.022386834015675913 0.013775397163924214 -0.0013057449276330634
463 -0.00012826459710740422 -0.007437088620529792 -0.020962074920670745
452 -0.004279910353404205 0.0027434243034855856 0.005332631384655231
344 -0.00675460797565046 0.0036194625851240763 0.0020239947185142207
153 -0.013885240208195333 -0.010747592588154577 -0.00608535519071268
249 0.005155829123563959 -0.00024219283747439567 0.0169813259528091
495 0.02746063535925657 0.00926786189047448 -0.022636206178016843
2 -0.03173813496292975 -0.030352498007204534 -0.02259340150463453

Bonds

1 13 47 174
2 14 47 45
3 8 168 169
4 3 168 43
5 5 168 167
6 5 168 172
7 16 174 169
8 13 174 176
9 3 223 379
10 7 223 193
11 5 223 222
12 5 223 224
13 15 283 285
14 13 283 281
15 12 379 193
16 11 379 378
17 13 281 278
18 13 176 124
19 14 176 120
20 15 278 116
21 17 286 285
22 13 49 47
23 14 49 50
24 13 177 49
25 13 177 124
26 13 15 13
27 13 277 280
28 14 277 275
29 4 282 280
30 1 282 287
31 5 282 279
32 5 282 483
33 13 280 283
34 13 276 277
35 13 276 278
36 14 124 127
37 16 12 9
38 13 12 14
39 13 12 11
40 4 56 15
41 4 56 177
42 5 56 132
43 5 56 57
44 13 13 11
45 14 13 53
46 14 11 10
47 5 287 289
48 5 287 288
49 5 287 489
50 8 430 380
51 3 430 379
52 5 430 432
53 5 430 428
54 13 17 15
55 14 17 18
56 5 403 401
57 5 403 407
58 5 403 399
59 13 349 354
60 4 345 349
61 1 345 403
62 5 345 346
63 5 345 340
64 13 14 17
65 14 14 16
66 4 447 281
67 5 447 446
68 5 447 450
69 5 447 448
70 17 449 285
71 13 350 343
72 14 350 517
73 12 531 527
74 11 531 533
75 3 532 531
76 8 532 534
77 5 532 508
78 5 532 530
79 7 528 527
80 3 528 531
81 5 528 507
82 5 528 529
83 14 180 179
84 13 128 180
85 14 128 126
86 16 384 380
87 13 384 388
88 13 343 342
89 14 343 339
90 8 131 129
91 3 131 251
92 5 131 134
93 5 131 133
94 16 130 129
95 13 130 128
96 13 388 392
97 14 388 387
98 14 392 335
99 12 251 125
100 11 251 248
101 13 334 390
102 13 334 392
103 13 386 384
104 14 386 382
105 3 250 251
106 7 250 125
107 5 250 103
108 5 250 102
109 12 123 291
110 11 123 292
111 3 121 123
112 8 121 241
113 5 121 119
114 5 121 122
115 13 390 386
116 14 390 391
117 13 342 348
118 4 337 342
119 4 337 334
120 5 337 338
121 5 337 336
122 13 135 130
123 14 135 137
124 13 185 136
125 13 185 180
126 3 372 368
127 7 372 370
128 5 372 375
129 5 372 373
130 17 37 155
131 7 294 291
132 3 294 123
133 5 294 297
134 5 294 249
135 7 269 466
136 3 269 472
137 5 269 271
138 5 269 270
139 13 348 352
140 14 348 284
141 13 136 135
142 14 136 191
143 4 187 186
144 4 187 185
145 5 187 189
146 5 187 183
147 4 319 321
148 1 319 510
149 5 319 316
150 5 319 465
151 17 227 116
152 15 351 173
153 15 354 357
154 13 354 356
155 4 361 356
156 5 361 363
157 5 361 360
158 5 361 362
159 13 356 351
160 17 359 357
161 17 355 357
162 5 545 576
163 5 545 572
164 5 545 546
165 17 540 542
166 17 547 542
167 17 464 317
168 4 152 322
169 5 152 154
170 5 152 151
171 5 152 150
172 17 156 327
173 17 329 327
174 1 383 328
175 5 383 512
176 5 383 381
177 5 383 389
178 15 325 327
179 13 326 323
180 13 326 325
181 4 328 326
182 5 328 385
183 5 328 332
184 13 322 325
185 13 320 322
186 15 320 317
187 13 323 321
188 14 323 324
189 13 321 320
190 15 65 542
191 13 65 67
192 13 64 65
193 13 67 70
194 4 69 67
195 5 69 46
196 5 69 44
197 5 69 48
198 15 70 72
199 4 63 64
200 1 63 545
201 5 63 98
202 5 63 539
203 13 66 64
204 14 66 100
205 13 68 66
206 13 68 70
207 17 74 72
208 17 73 72
209 3 257 140
210 7 257 139
211 5 257 258
212 5 257 254
213 3 569 568
214 7 569 564
215 5 569 451
216 5 569 567
217 13 218 425
218 13 218 216
219 12 568 564
220 11 568 565
221 13 503 500
222 14 503 505
223 3 8 4
224 8 8 9
225 5 8 6
226 5 8 7
227 13 30 33
228 13 22 23
229 14 22 20
230 3 105 108
231 7 105 107
232 5 105 104
233 5 105 106
234 7 3 1
235 3 3 4
236 5 3 99
237 5 3 2
238 4 89 111
239 5 89 225
240 5 89 62
241 13 188 216
242 14 188 184
243 17 96 95
244 13 23 30
245 14 23 21
246 12 4 1
247 11 4 5
248 16 371 369
249 13 371 188
250 8 367 369
251 3 367 368
252 5 367 364
253 5 367 365
254 13 498 497
255 14 498 496
256 13 374 371
257 14 374 376
258 1 85 89
259 5 85 110
260 5 85 83
261 5 85 87
262 17 97 95
263 1 204 71
264 5 204 203
265 5 204 202
266 5 204 205
267 16 500 501
268 13 500 498
269 13 502 503
270 14 502 463
271 16 26 534
272 13 26 22
273 13 26 32
274 13 29 24
275 13 29 25
276 14 32 535
277 14 497 495
278 14 216 215
279 4 71 68
280 5 71 75
281 5 71 101
282 4 31 30
283 4 31 29
284 5 31 35
285 5 31 34
286 4 92 112
287 5 92 93
288 5 92 94
289 5 92 38
290 13 111 268
291 13 111 91
292 15 91 95
293 13 112 91
294 15 109 155
295 13 109 112
296 13 24 148
297 14 24 28
298 8 504 501
299 3 504 108
300 5 504 506
301 5 504 582
302 13 425 374
303 14 425 426
304 13 33 32
305 14 33 36
306 12 108 107
307 11 108 19
308 13 148 146
309 14 148 145
310 12 368 370
311 11 368 366
312 13 182 181
313 14 182 178
314 18 318 559
315 16 469 467
316 13 469 470
317 13 469 331
318 13 470 585
319 14 470 468
320 14 331 330
321 13 585 516
322 14 585 584
323 13 333 331
324 14 333 272
325 13 516 333
326 13 60 190
327 14 60 61
328 13 190 186
329 14 190 192
330 13 186 182
331 4 515 516
332 4 515 475
333 5 515 513
334 5 515 514
335 13 475 477
336 13 475 478
337 13 477 479
338 14 477 562
339 14 578 579
340 14 478 476
341 13 231 201
342 13 231 445
343 12 521 519
344 11 521 525
345 1 162 165
346 5 162 160
347 5 162 161
348 5 162 159
349 4 274 276
350 5 274 117
351 5 274 273
352 3 473 472
353 8 473 467
354 5 473 471
355 5 473 443
356 7 523 519
357 3 523 521
358 5 523 522
359 5 523 526
360 13 347 344
361 13 347 351
362 4 165 347
363 5 165 164
364 5 165 166
365 3 41 43
366 7 41 39
367 5 41 42
368 5 41 40
369 13 201 404
370 14 201 237
371 13 479 482
372 14 479 563
373 12 43 39
374 11 43 170
375 1 113 274
376 5 113 115
377 5 113 158
378 5 113 157
379 13 580 456
380 13 580 578
381 7 78 77
382 3 78 79
383 5 78 80
384 5 78 76
385 16 58 59
386 13 58 60
387 13 58 181
388 7 244 243
389 3 244 247
390 5 244 242
391 5 244 245
392 13 499 502
393 13 499 497
394 13 255 217
395 14 255 256
396 14 393 395
397 17 114 116
398 17 171 173
399 3 520 521
400 8 520 358
401 5 520 518
402 5 520 524
403 4 229 233
404 4 229 231
405 5 229 228
406 5 229 226
407 13 480 478
408 14 480 481
409 14 239 240
410 13 233 235
411 13 235 239
412 14 235 236
413 7 311 313
414 3 311 312
415 5 311 308
416 5 311 314
417 3 208 211
418 8 208 413
419 5 208 206
420 5 208 209
421 13 232 233
422 14 232 230
423 12 490 486
424 11 490 488
425 3 492 490
426 7 492 486
427 5 492 493
428 5 492 494
429 8 487 484
430 3 487 490
431 5 487 485
432 5 487 491
433 13 418 417
434 14 418 419
435 16 482 484
436 13 482 480
437 16 414 413
438 13 414 415
439 13 414 412
440 13 417 455
441 13 415 418
442 14 415 416
443 13 455 412
444 14 455 454
445 14 412 411
446 4 581 417
447 4 581 580
448 5 581 460
449 5 581 549
450 13 234 232
451 14 234 118
452 12 312 313
453 11 312 315
454 16 238 241
455 13 238 234
456 13 238 239
457 16 353 358
458 13 353 350
459 13 353 352
460 12 211 213
461 11 211 214
462 14 352 290
463 7 210 213
464 3 210 211
465 5 210 207
466 5 210 212
467 12 472 466
468 11 472 474
469 13 456 453
470 14 456 457
471 14 445 444
472 14 25 27
473 13 149 25
474 14 149 147
475 17 175 173
476 5 263 264
477 5 263 259
478 5 263 265
479 14 181 51
480 12 79 77
481 11 79 81
482 13 577 578
483 14 577 574
484 12 140 139
485 11 140 138
486 6 84 317
487 2 84 86
488 5 84 82
489 5 84 552
490 3 55 79
491 8 55 59
492 5 55 54
493 5 55 52
494 16 575 573
495 13 575 577
496 13 404 400
497 14 404 409
498 8 561 558
499 2 561 86
500 5 561 90
501 5 561 537
502 13 397 445
503 14 397 396
504 16 400 402
505 13 400 397
506 8 406 402
507 3 406 405
508 5 406 410
509 5 406 408
510 12 405 543
511 11 405 538
512 3 544 405
513 7 544 543
514 5 544 548
515 5 544 541
516 5 510 583
517 5 510 509
518 5 510 511
519 12 197 199
520 11 197 200
521 7 196 199
522 3 196 197
523 5 196 198
524 5 196 194
525 10 86 559
526 9 86 88
527 3 252 247
528 8 252 461
529 5 252 253
530 5 252 459
531 16 462 461
532 13 462 255
533 13 462 421
534 12 247 243
535 11 247 246
536 8 142 143
537 3 142 140
538 5 142 141
539 5 142 144
540 8 571 573
541 3 571 568
542 5 571 566
543 5 571 570
544 14 421 420
545 13 453 575
546 14 453 452
547 16 556 558
548 13 556 560
549 13 301 298
550 14 301 300
551 16 146 143
552 13 146 149
553 14 305 307
554 16 304 306
555 13 304 301
556 13 304 305
557 13 268 267
558 14 268 266
559 13 298 299
560 14 298 296
561 13 553 554
562 14 553 550
563 4 295 299
564 4 295 499
565 5 295 293
566 5 295 458
567 13 555 553
568 13 555 557
569 13 424 423
570 16 442 394
571 13 442 438
572 13 442 393
573 3 195 197
574 8 195 394
575 5 195 163
576 5 195 398
577 13 302 305
578 14 302 303
579 13 217 424
580 14 217 220
581 14 557 440
582 13 560 557
583 14 560 536
584 13 436 439
585 3 310 312
586 8 310 306
587 5 310 309
588 5 310 377
589 13 438 435
590 14 438 437
591 13 439 393
592 14 439 441
593 13 299 302
594 13 267 109
595 4 262 267
596 1 262 263
597 5 262 261
598 5 262 260
599 13 554 556
600 14 554 551
601 13 423 421
602 14 423 422
603 4 219 424
604 4 219 218
605 5 219 221
606 5 219 427
607 13 435 436
608 14 435 433
609 4 434 436
610 4 434 555
611 5 434 431
612 5 434 429
613 13 344 349
614 14 344 341
615 17 153 155

Angles

1 24 49 47 174
2 25 49 47 45
3 25 174 47 45
4 21 43 168 169
5 32 167 168 169
6 32 172 168 169
7 19 43 168 167
8 29 167 168 172
9 19 43 168 172
10 27 47 174 169
11 24 47 174 176
12 27 176 174 169
13 14 168 169 174
14 20 379 223 193
15 19 379 223 222
16 19 379 223 224
17 31 222 223 193
18 29 222 223 224
19 31 224 223 193
20 13 223 193 379
21 26 280 283 285
22 24 280 283 281
23 26 281 283 285
24 6 430 379 223
25 8 430 379 193
26 7 430 379 378
27 7 223 379 378
28 34 378 379 193
29 8 223 379 193
30 9 447 281 283
31 24 283 281 278
32 9 447 281 278
33 24 174 176 124
34 25 174 176 120
35 25 124 176 120
36 24 276 278 281
37 26 276 278 116
38 26 281 278 116
39 24 177 49 47
40 25 177 49 50
41 25 47 49 50
42 9 56 177 49
43 9 56 177 124
44 24 49 177 124
45 9 56 15 17
46 24 17 15 13
47 9 56 15 13
48 24 276 277 280
49 25 276 277 275
50 25 280 277 275
51 1 287 282 280
52 23 280 282 279
53 23 280 282 483
54 2 287 282 279
55 29 279 282 483
56 2 287 282 483
57 9 282 280 277
58 24 277 280 283
59 9 282 280 283
60 28 283 285 286
61 28 283 285 449
62 35 286 285 449
63 9 274 276 277
64 9 274 276 278
65 24 277 276 278
66 24 177 124 176
67 25 177 124 127
68 25 176 124 127
69 27 14 12 9
70 27 11 12 9
71 24 14 12 11
72 28 278 116 227
73 28 278 116 114
74 35 227 116 114
75 22 15 56 177
76 23 15 56 132
77 23 15 56 57
78 23 177 56 132
79 29 132 56 57
80 23 177 56 57
81 24 15 13 11
82 25 15 13 53
83 25 11 13 53
84 24 12 11 13
85 25 12 11 10
86 25 13 11 10
87 2 282 287 289
88 2 282 287 288
89 2 282 287 489
90 29 289 287 288
91 29 289 287 489
92 29 288 287 489
93 21 379 430 380
94 32 432 430 380
95 32 428 430 380
96 19 379 430 432
97 29 432 430 428
98 19 379 430 428
99 24 14 17 15
100 25 14 17 18
101 25 15 17 18
102 2 345 403 401
103 2 345 403 407
104 2 345 403 399
105 29 401 403 407
106 29 401 403 399
107 29 407 403 399
108 9 345 349 344
109 24 344 349 354
110 9 345 349 354
111 1 403 345 349
112 23 349 345 346
113 23 349 345 340
114 2 403 345 346
115 29 346 345 340
116 2 403 345 340
117 24 12 14 17
118 25 12 14 16
119 25 17 14 16
120 14 430 380 384
121 23 281 447 446
122 23 281 447 450
123 23 281 447 448
124 29 446 447 450
125 29 446 447 448
126 29 450 447 448
127 14 8 9 12
128 24 353 350 343
129 25 353 350 517
130 25 343 350 517
131 6 528 531 532
132 8 528 531 527
133 7 528 531 533
134 7 532 531 533
135 34 533 531 527
136 8 532 531 527
137 21 531 532 534
138 19 531 532 508
139 19 531 532 530
140 32 508 532 534
141 29 508 532 530
142 32 530 532 534
143 31 507 528 527
144 19 531 528 507
145 29 507 528 529
146 31 529 528 527
147 19 531 528 529
148 20 531 528 527
149 14 532 534 26
150 24 185 180 128
151 25 185 180 179
152 25 128 180 179
153 13 528 527 531
154 24 130 128 180
155 25 130 128 126
156 25 180 128 126
157 27 386 384 380
158 24 386 384 388
159 27 388 384 380
160 24 350 343 342
161 25 350 343 339
162 25 342 343 339
163 21 251 131 129
164 32 134 131 129
165 32 133 131 129
166 19 251 131 134
167 29 134 131 133
168 19 251 131 133
169 14 131 129 130
170 27 135 130 129
171 24 135 130 128
172 27 128 130 129
173 24 384 388 392
174 25 384 388 387
175 25 392 388 387
176 24 334 392 388
177 25 334 392 335
178 25 388 392 335
179 6 131 251 250
180 8 131 251 125
181 7 131 251 248
182 7 250 251 248
183 34 248 251 125
184 8 250 251 125
185 9 337 334 390
186 9 337 334 392
187 24 390 334 392
188 24 390 386 384
189 25 390 386 382
190 25 384 386 382
191 20 251 250 125
192 19 251 250 103
193 19 251 250 102
194 31 103 250 125
195 29 103 250 102
196 31 102 250 125
197 6 294 123 121
198 8 294 123 291
199 7 294 123 292
200 7 121 123 292
201 34 292 123 291
202 8 121 123 291
203 21 123 121 241
204 19 123 121 119
205 19 123 121 122
206 32 119 121 241
207 29 119 121 122
208 32 122 121 241
209 24 334 390 386
210 25 334 390 391
211 25 386 390 391
212 13 250 125 251
213 9 337 342 343
214 24 343 342 348
215 9 337 342 348
216 13 294 291 123
217 22 342 337 334
218 23 342 337 338
219 23 342 337 336
220 23 334 337 338
221 29 338 337 336
222 23 334 337 336
223 13 269 466 472
224 24 136 135 130
225 25 136 135 137
226 25 130 135 137
227 9 187 185 136
228 9 187 185 180
229 24 136 185 180
230 20 368 372 370
231 19 368 372 375
232 19 368 372 373
233 31 375 372 370
234 29 375 372 373
235 31 373 372 370
236 28 109 155 153
237 28 109 155 37
238 35 153 155 37
239 31 297 294 291
240 19 123 294 297
241 29 297 294 249
242 31 249 294 291
243 19 123 294 249
244 20 123 294 291
245 31 271 269 466
246 19 472 269 271
247 29 271 269 270
248 31 270 269 466
249 19 472 269 270
250 20 472 269 466
251 24 342 348 352
252 25 342 348 284
253 25 352 348 284
254 24 185 136 135
255 25 185 136 191
256 25 135 136 191
257 22 186 187 185
258 23 186 187 189
259 23 186 187 183
260 23 185 187 189
261 29 189 187 183
262 23 185 187 183
263 1 510 319 321
264 23 321 319 316
265 23 321 319 465
266 2 510 319 316
267 29 316 319 465
268 2 510 319 465
269 24 347 351 356
270 26 347 351 173
271 26 356 351 173
272 26 349 354 357
273 24 349 354 356
274 26 356 354 357
275 23 356 361 363
276 23 356 361 360
277 23 356 361 362
278 29 363 361 360
279 29 363 361 362
280 29 360 361 362
281 9 361 356 354
282 24 354 356 351
283 9 361 356 351
284 28 354 357 359
285 28 354 357 355
286 35 359 357 355
287 2 63 545 576
288 2 63 545 572
289 2 63 545 546
290 29 576 545 572
291 29 576 545 546
292 29 572 545 546
293 23 322 152 154
294 23 322 152 151
295 23 322 152 150
296 29 154 152 151
297 29 154 152 150
298 29 151 152 150
299 11 84 317 320
300 28 320 317 464
301 12 84 317 464
302 28 325 327 156
303 28 325 327 329
304 35 156 327 329
305 2 328 383 512
306 29 512 383 381
307 29 512 383 389
308 2 328 383 381
309 29 381 383 389
310 2 328 383 389
311 24 326 325 322
312 26 326 325 327
313 26 322 325 327
314 9 328 326 323
315 9 328 326 325
316 24 323 326 325
317 1 383 328 326
318 2 383 328 385
319 2 383 328 332
320 23 326 328 385
321 29 385 328 332
322 23 326 328 332
323 9 152 322 320
324 24 320 322 325
325 9 152 322 325
326 24 321 320 322
327 26 322 320 317
328 26 321 320 317
329 24 326 323 321
330 25 326 323 324
331 25 321 323 324
332 9 319 321 323
333 24 323 321 320
334 9 319 321 320
335 26 64 65 542
336 24 64 65 67
337 26 67 65 542
338 28 65 542 547
339 28 65 542 540
340 35 547 542 540
341 9 63 64 66
342 24 66 64 65
343 9 63 64 65
344 9 69 67 65
345 24 65 67 70
346 9 69 67 70
347 23 67 69 46
348 23 67 69 44
349 23 67 69 48
350 29 46 69 44
351 29 46 69 48
352 29 44 69 48
353 24 68 70 67
354 26 68 70 72
355 26 67 70 72
356 1 545 63 64
357 23 64 63 98
358 23 64 63 539
359 2 545 63 98
360 29 98 63 539
361 2 545 63 539
362 13 569 564 568
363 24 68 66 64
364 25 68 66 100
365 25 64 66 100
366 28 70 72 74
367 28 70 72 73
368 35 74 72 73
369 9 71 68 66
370 9 71 68 70
371 24 66 68 70
372 20 140 257 139
373 19 140 257 258
374 19 140 257 254
375 31 258 257 139
376 29 258 257 254
377 31 254 257 139
378 20 568 569 564
379 19 568 569 451
380 19 568 569 567
381 31 451 569 564
382 29 451 569 567
383 31 567 569 564
384 9 219 218 425
385 9 219 218 216
386 24 425 218 216
387 13 372 370 368
388 6 571 568 569
389 8 571 568 564
390 7 571 568 565
391 7 569 568 565
392 34 565 568 564
393 8 569 568 564
394 24 502 503 500
395 25 502 503 505
396 25 500 503 505
397 21 4 8 9
398 19 4 8 6
399 19 4 8 7
400 32 6 8 9
401 29 6 8 7
402 32 7 8 9
403 9 31 30 23
404 24 23 30 33
405 9 31 30 33
406 24 26 22 23
407 25 26 22 20
408 25 23 22 20
409 20 108 105 107
410 19 108 105 104
411 19 108 105 106
412 31 104 105 107
413 29 104 105 106
414 31 106 105 107
415 31 99 3 1
416 19 4 3 99
417 29 99 3 2
418 31 2 3 1
419 19 4 3 2
420 20 4 3 1
421 1 85 89 111
422 2 85 89 225
423 2 85 89 62
424 23 111 89 225
425 29 225 89 62
426 23 111 89 62
427 24 371 188 216
428 25 371 188 184
429 25 216 188 184
430 13 3 1 4
431 24 22 23 30
432 25 22 23 21
433 25 30 23 21
434 28 91 95 97
435 28 91 95 96
436 35 97 95 96
437 6 3 4 8
438 8 3 4 1
439 7 3 4 5
440 7 8 4 5
441 34 5 4 1
442 8 8 4 1
443 14 504 501 500
444 27 374 371 369
445 24 374 371 188
446 27 188 371 369
447 21 368 367 369
448 32 364 367 369
449 32 365 367 369
450 19 368 367 364
451 29 364 367 365
452 19 368 367 365
453 24 500 498 497
454 25 500 498 496
455 25 497 498 496
456 24 425 374 371
457 25 425 374 376
458 25 371 374 376
459 2 89 85 110
460 29 110 85 83
461 29 110 85 87
462 2 89 85 83
463 29 83 85 87
464 2 89 85 87
465 2 71 204 203
466 29 203 204 202
467 29 203 204 205
468 2 71 204 202
469 29 202 204 205
470 2 71 204 205
471 27 503 500 501
472 24 503 500 498
473 27 498 500 501
474 24 499 502 503
475 25 499 502 463
476 25 503 502 463
477 27 22 26 534
478 27 32 26 534
479 24 22 26 32
480 9 31 29 24
481 9 31 29 25
482 24 24 29 25
483 24 26 32 33
484 25 26 32 535
485 25 33 32 535
486 24 499 497 498
487 25 499 497 495
488 25 498 497 495
489 24 218 216 188
490 25 218 216 215
491 25 188 216 215
492 1 204 71 68
493 2 204 71 75
494 2 204 71 101
495 23 68 71 75
496 29 75 71 101
497 23 68 71 101
498 22 30 31 29
499 23 30 31 35
500 23 30 31 34
501 23 29 31 35
502 29 35 31 34
503 23 29 31 34
504 13 105 107 108
505 23 112 92 93
506 23 112 92 94
507 23 112 92 38
508 29 93 92 94
509 29 93 92 38
510 29 94 92 38
511 9 89 111 268
512 9 89 111 91
513 24 268 111 91
514 24 111 91 112
515 26 111 91 95
516 26 112 91 95
517 9 92 112 109
518 24 109 112 91
519 9 92 112 91
520 26 267 109 155
521 24 267 109 112
522 26 112 109 155
523 24 29 24 148
524 25 29 24 28
525 25 148 24 28
526 14 367 369 371
527 21 108 504 501
528 32 506 504 501
529 32 582 504 501
530 19 108 504 506
531 29 506 504 582
532 19 108 504 582
533 24 218 425 374
534 25 218 425 426
535 25 374 425 426
536 24 30 33 32
537 25 30 33 36
538 25 32 33 36
539 6 504 108 105
540 8 504 108 107
541 7 504 108 19
542 7 105 108 19
543 34 19 108 107
544 8 105 108 107
545 24 24 148 146
546 25 24 148 145
547 25 146 148 145
548 6 367 368 372
549 8 367 368 370
550 7 367 368 366
551 7 372 368 366
552 34 366 368 370
553 8 372 368 370
554 24 186 182 181
555 25 186 182 178
556 25 181 182 178
557 14 473 467 469
558 27 470 469 467
559 27 331 469 467
560 24 470 469 331
561 24 469 470 585
562 25 469 470 468
563 25 585 470 468
564 24 469 331 333
565 25 469 331 330
566 25 333 331 330
567 24 470 585 516
568 25 470 585 584
569 25 516 585 584
570 24 516 333 331
571 25 516 333 272
572 25 331 333 272
573 9 515 516 585
574 24 585 516 333
575 9 515 516 333
576 24 58 60 190
577 25 58 60 61
578 25 190 60 61
579 13 523 519 521
580 24 60 190 186
581 25 60 190 192
582 25 186 190 192
583 9 187 186 190
584 24 190 186 182
585 9 187 186 182
586 22 516 515 475
587 23 516 515 513
588 23 516 515 514
589 23 475 515 513
590 29 513 515 514
591 23 475 515 514
592 9 515 475 477
593 9 515 475 478
594 24 477 475 478
595 24 475 477 479
596 25 475 477 562
597 25 479 477 562
598 24 580 578 577
599 25 580 578 579
600 25 577 578 579
601 24 475 478 480
602 25 475 478 476
603 25 480 478 476
604 9 229 231 201
605 9 229 231 445
606 24 201 231 445
607 6 523 521 520
608 8 523 521 519
609 7 523 521 525
610 7 520 521 525
611 34 525 521 519
612 8 520 521 519
613 13 78 77 79
614 2 165 162 160
615 29 160 162 161
616 29 160 162 159
617 2 165 162 161
618 29 161 162 159
619 2 165 162 159
620 1 113 274 276
621 2 113 274 117
622 2 113 274 273
623 23 276 274 117
624 29 117 274 273
625 23 276 274 273
626 13 257 139 140
627 21 472 473 467
628 19 472 473 471
629 19 472 473 443
630 32 471 473 467
631 29 471 473 443
632 32 443 473 467
633 31 522 523 519
634 19 521 523 522
635 29 522 523 526
636 31 526 523 519
637 19 521 523 526
638 20 521 523 519
639 9 165 347 344
640 9 165 347 351
641 24 344 347 351
642 1 162 165 347
643 2 162 165 164
644 2 162 165 166
645 23 347 165 164
646 29 164 165 166
647 23 347 165 166
648 20 43 41 39
649 19 43 41 42
650 19 43 41 40
651 31 42 41 39
652 29 42 41 40
653 31 40 41 39
654 24 231 201 404
655 25 231 201 237
656 25 404 201 237
657 24 477 479 482
658 25 477 479 563
659 25 482 479 563
660 6 168 43 41
661 8 168 43 39
662 7 168 43 170
663 7 41 43 170
664 34 170 43 39
665 8 41 43 39
666 2 274 113 115
667 29 115 113 158
668 29 115 113 157
669 2 274 113 158
670 29 158 113 157
671 2 274 113 157
672 9 581 580 456
673 9 581 580 578
674 24 456 580 578
675 31 80 78 77
676 19 79 78 80
677 29 80 78 76
678 31 76 78 77
679 19 79 78 76
680 20 79 78 77
681 27 60 58 59
682 27 181 58 59
683 24 60 58 181
684 14 55 59 58
685 31 242 244 243
686 19 247 244 242
687 29 242 244 245
688 31 245 244 243
689 19 247 244 245
690 20 247 244 243
691 13 244 243 247
692 9 295 499 502
693 9 295 499 497
694 24 502 499 497
695 24 462 255 217
696 25 462 255 256
697 25 217 255 256
698 24 442 393 439
699 25 442 393 395
700 25 439 393 395
701 21 521 520 358
702 19 521 520 518
703 19 521 520 524
704 32 518 520 358
705 29 518 520 524
706 32 524 520 358
707 22 233 229 231
708 23 233 229 228
709 23 233 229 226
710 23 231 229 228
711 29 228 229 226
712 23 231 229 226
713 24 482 480 478
714 25 482 480 481
715 25 478 480 481
716 24 238 239 235
717 25 238 239 240
718 25 235 239 240
719 9 229 233 232
720 24 232 233 235
721 9 229 233 235
722 24 233 235 239
723 25 233 235 236
724 25 239 235 236
725 14 121 241 238
726 14 520 358 353
727 31 308 311 313
728 19 312 311 308
729 29 308 311 314
730 31 314 311 313
731 19 312 311 314
732 20 312 311 313
733 21 211 208 413
734 19 211 208 206
735 19 211 208 209
736 32 206 208 413
737 29 206 208 209
738 32 209 208 413
739 13 492 486 490
740 24 234 232 233
741 25 234 232 230
742 25 233 232 230
743 6 487 490 492
744 8 487 490 486
745 7 487 490 488
746 7 492 490 488
747 34 488 490 486
748 8 492 490 486
749 20 490 492 486
750 19 490 492 493
751 19 490 492 494
752 31 493 492 486
753 29 493 492 494
754 31 494 492 486
755 21 490 487 484
756 32 485 487 484
757 32 491 487 484
758 19 490 487 485
759 29 485 487 491
760 19 490 487 491
761 24 415 418 417
762 25 415 418 419
763 25 417 418 419
764 27 479 482 484
765 24 479 482 480
766 27 480 482 484
767 27 415 414 413
768 27 412 414 413
769 24 415 414 412
770 9 581 417 418
771 24 418 417 455
772 9 581 417 455
773 24 414 415 418
774 25 414 415 416
775 25 418 415 416
776 14 208 413 414
777 14 487 484 482
778 24 417 455 412
779 25 417 455 454
780 25 412 455 454
781 24 414 412 455
782 25 414 412 411
783 25 455 412 411
784 22 417 581 580
785 23 417 581 460
786 23 417 581 549
787 23 580 581 460
788 29 460 581 549
789 23 580 581 549
790 24 238 234 232
791 25 238 234 118
792 25 232 234 118
793 13 311 313 312
794 6 311 312 310
795 8 311 312 313
796 7 311 312 315
797 7 310 312 315
798 34 315 312 313
799 8 310 312 313
800 27 234 238 241
801 27 239 238 241
802 24 234 238 239
803 27 350 353 358
804 27 352 353 358
805 24 350 353 352
806 6 210 211 208
807 8 210 211 213
808 7 210 211 214
809 7 208 211 214
810 34 214 211 213
811 8 208 211 213
812 24 353 352 348
813 25 353 352 290
814 25 348 352 290
815 13 210 213 211
816 31 207 210 213
817 19 211 210 207
818 29 207 210 212
819 31 212 210 213
820 19 211 210 212
821 20 211 210 213
822 6 269 472 473
823 8 269 472 466
824 7 269 472 474
825 7 473 472 474
826 34 474 472 466
827 8 473 472 466
828 24 580 456 453
829 25 580 456 457
830 25 453 456 457
831 24 231 445 397
832 25 231 445 444
833 25 397 445 444
834 14 142 143 146
835 13 41 39 43
836 24 29 25 149
837 25 29 25 27
838 25 149 25 27
839 24 146 149 25
840 25 146 149 147
841 25 25 149 147
842 28 351 173 171
843 28 351 173 175
844 35 171 173 175
845 2 262 263 264
846 2 262 263 259
847 2 262 263 265
848 29 264 263 259
849 29 264 263 265
850 29 259 263 265
851 24 58 181 182
852 25 58 181 51
853 25 182 181 51
854 6 78 79 55
855 8 78 79 77
856 7 78 79 81
857 7 55 79 81
858 34 81 79 77
859 8 55 79 77
860 24 575 577 578
861 25 575 577 574
862 25 578 577 574
863 6 142 140 257
864 8 142 140 139
865 7 142 140 138
866 7 257 140 138
867 34 138 140 139
868 8 257 140 139
869 16 86 84 317
870 30 82 84 317
871 30 552 84 317
872 15 86 84 82
873 29 82 84 552
874 15 86 84 552
875 21 79 55 59
876 19 79 55 54
877 19 79 55 52
878 32 54 55 59
879 29 54 55 52
880 32 52 55 59
881 27 453 575 573
882 24 453 575 577
883 27 577 575 573
884 24 201 404 400
885 25 201 404 409
886 25 400 404 409
887 17 86 561 558
888 15 86 561 90
889 15 86 561 537
890 32 90 561 558
891 29 90 561 537
892 32 537 561 558
893 13 196 199 197
894 24 400 397 445
895 25 400 397 396
896 25 445 397 396
897 27 404 400 402
898 24 404 400 397
899 27 397 400 402
900 21 405 406 402
901 32 410 406 402
902 32 408 406 402
903 19 405 406 410
904 29 410 406 408
905 19 405 406 408
906 6 406 405 544
907 8 406 405 543
908 7 406 405 538
909 7 544 405 538
910 34 538 405 543
911 8 544 405 543
912 20 405 544 543
913 19 405 544 548
914 19 405 544 541
915 31 548 544 543
916 29 548 544 541
917 31 541 544 543
918 13 544 543 405
919 14 406 402 400
920 2 319 510 583
921 2 319 510 509
922 2 319 510 511
923 29 583 510 509
924 29 583 510 511
925 29 509 510 511
926 14 571 573 575
927 6 196 197 195
928 8 196 197 199
929 7 196 197 200
930 7 195 197 200
931 34 200 197 199
932 8 195 197 199
933 31 198 196 199
934 19 197 196 198
935 29 198 196 194
936 31 194 196 199
937 19 197 196 194
938 20 197 196 199
939 3 84 86 561
940 5 84 86 559
941 4 84 86 88
942 4 561 86 88
943 33 88 86 559
944 5 561 86 559
945 18 86 559 318
946 14 561 558 556
947 14 252 461 462
948 21 247 252 461
949 19 247 252 253
950 19 247 252 459
951 32 253 252 461
952 29 253 252 459
953 32 459 252 461
954 27 255 462 461
955 27 421 462 461
956 24 255 462 421
957 6 244 247 252
958 8 244 247 243
959 7 244 247 246
960 7 252 247 246
961 34 246 247 243
962 8 252 247 243
963 21 140 142 143
964 32 141 142 143
965 32 144 142 143
966 19 140 142 141
967 29 141 142 144
968 19 140 142 144
969 21 568 571 573
970 32 566 571 573
971 32 570 571 573
972 19 568 571 566
973 29 566 571 570
974 19 568 571 570
975 24 462 421 423
976 25 462 421 420
977 25 423 421 420
978 24 456 453 575
979 25 456 453 452
980 25 575 453 452
981 27 554 556 558
982 24 554 556 560
983 27 560 556 558
984 24 304 301 298
985 25 304 301 300
986 25 298 301 300
987 27 148 146 143
988 24 148 146 149
989 27 149 146 143
990 24 304 305 302
991 25 304 305 307
992 25 302 305 307
993 27 301 304 306
994 27 305 304 306
995 24 301 304 305
996 24 111 268 267
997 25 111 268 266
998 25 267 268 266
999 24 301 298 299
1000 25 301 298 296
1001 25 299 298 296
1002 24 555 553 554
1003 25 555 553 550
1004 25 554 553 550
1005 22 299 295 499
1006 23 299 295 293
1007 23 299 295 458
1008 23 499 295 293
1009 29 293 295 458
1010 23 499 295 458
1011 14 310 306 304
1012 9 434 555 553
1013 9 434 555 557
1014 24 553 555 557
1015 9 219 424 217
1016 24 217 424 423
1017 9 219 424 423
1018 27 438 442 394
1019 27 393 442 394
1020 24 438 442 393
1021 21 197 195 394
1022 19 197 195 163
1023 19 197 195 398
1024 32 163 195 394
1025 29 163 195 398
1026 32 398 195 394
1027 24 299 302 305
1028 25 299 302 303
1029 25 305 302 303
1030 24 255 217 424
1031 25 255 217 220
1032 25 424 217 220
1033 24 555 557 560
1034 25 555 557 440
1035 25 560 557 440
1036 24 556 560 557
1037 25 556 560 536
1038 25 557 560 536
1039 9 434 436 435
1040 24 435 436 439
1041 9 434 436 439
1042 21 312 310 306
1043 19 312 310 309
1044 19 312 310 377
1045 32 309 310 306
1046 29 309 310 377
1047 32 377 310 306
1048 24 442 438 435
1049 25 442 438 437
1050 25 435 438 437
1051 24 436 439 393
1052 25 436 439 441
1053 25 393 439 441
1054 9 295 299 298
1055 24 298 299 302
1056 9 295 299 302
1057 9 262 267 268
1058 24 268 267 109
1059 9 262 267 109
1060 1 263 262 267
1061 23 267 262 261
1062 23 267 262 260
1063 2 263 262 261
1064 29 261 262 260
1065 2 263 262 260
1066 24 553 554 556
1067 25 553 554 551
1068 25 556 554 551
1069 14 195 394 442
1070 24 424 423 421
1071 25 424 423 422
1072 25 421 423 422
1073 22 424 219 218
1074 23 424 219 221
1075 23 424 219 427
1076 23 218 219 221
1077 29 221 219 427
1078 23 218 219 427
1079 24 438 435 436
1080 25 438 435 433
1081 25 436 435 433
1082 22 436 434 555
1083 23 436 434 431
1084 23 436 434 429
1085 23 555 434 431
1086 29 431 434 429
1087 23 555 434 429
1088 24 347 344 349
1089 25 347 344 341
1090 25 349 344 341

Dihedrals

1 29 49 47 174 169
2 26 49 47 174 176
3 27 174 47 49 50
4 45 45 47 174 169
5 21 43 168 169 174
6 37 167 168 43 39
7 36 167 168 43 170
8 37 172 168 43 39
9 36 172 168 43 170
10 26 47 174 176 124
11 27 47 174 176 120
12 27 176 174 47 45
13 17 168 169 174 47
14 32 174 169 168 167
15 32 174 169 168 172
16 17 168 169 174 176
17 36 222 223 379 378
18 36 224 223 379 378
19 37 222 223 379 193
20 37 224 223 379 193
21 22 379 193 223 222
22 22 379 193 223 224
23 16 223 193 379 378
24 30 280 283 285 286
25 30 280 283 285 449
26 26 280 283 281 278
27 30 281 283 285 286
28 30 281 283 285 449
29 8 223 379 430 380
30 47 193 379 430 380
31 43 378 379 430 380
32 7 430 379 223 193
33 6 430 379 223 222
34 6 430 379 223 224
35 9 430 379 193 223
36 6 223 379 430 432
37 6 223 379 430 428
38 42 378 379 223 193
39 10 447 281 278 276
40 10 447 281 283 280
41 25 283 281 447 446
42 25 283 281 447 450
43 25 283 281 447 448
44 28 283 281 278 116
45 28 278 281 283 285
46 25 278 281 447 446
47 25 278 281 447 450
48 25 278 281 447 448
49 12 447 281 278 116
50 12 447 281 283 285
51 27 174 176 124 127
52 45 120 176 174 169
53 44 120 176 124 127
54 29 124 176 174 169
55 26 276 278 281 283
56 30 276 278 116 227
57 30 276 278 116 114
58 30 281 278 116 227
59 30 281 278 116 114
60 26 177 49 47 174
61 27 177 49 47 45
62 44 50 49 47 45
63 26 47 49 177 124
64 10 56 177 49 47
65 11 56 177 49 50
66 10 56 177 124 176
67 11 56 177 124 127
68 25 49 177 56 132
69 25 124 177 56 132
70 25 49 177 56 57
71 25 124 177 56 57
72 26 49 177 124 176
73 27 49 177 124 127
74 27 124 177 49 50
75 10 56 15 17 14
76 25 17 15 56 132
77 25 17 15 56 57
78 26 17 15 13 11
79 27 17 15 13 53
80 11 56 15 17 18
81 27 13 15 17 18
82 25 13 15 56 132
83 25 13 15 56 57
84 11 56 15 13 53
85 10 56 15 13 11
86 26 276 277 280 283
87 26 280 277 276 278
88 1 287 282 280 277
89 23 280 282 287 289
90 23 280 282 287 288
91 23 280 282 287 489
92 1 287 282 280 283
93 33 279 282 287 289
94 33 279 282 287 288
95 33 279 282 287 489
96 33 483 282 287 289
97 33 483 282 287 288
98 33 483 282 287 489
99 10 282 280 277 276
100 25 277 280 282 279
101 25 277 280 282 483
102 28 277 280 283 285
103 26 277 280 283 281
104 11 282 280 277 275
105 27 283 280 277 275
106 25 283 280 282 279
107 25 283 280 282 483
108 10 282 280 283 281
109 12 282 280 283 285
110 10 274 276 277 280
111 11 274 276 277 275
112 10 274 276 278 281
113 12 274 276 278 116
114 25 277 276 274 117
115 25 278 276 274 117
116 25 277 276 274 273
117 25 278 276 274 273
118 26 277 276 278 281
119 28 277 276 278 116
120 27 278 276 277 275
121 26 177 124 176 174
122 27 177 124 176 120
123 26 14 12 11 13
124 27 14 12 11 10
125 27 11 12 14 16
126 24 177 56 15 17
127 24 15 56 177 49
128 24 15 56 177 124
129 24 177 56 15 13
130 27 15 13 11 10
131 44 53 13 11 10
132 29 13 11 12 9
133 45 10 11 12 9
134 26 12 11 13 15
135 27 12 11 13 53
136 21 379 430 380 384
137 37 432 430 379 193
138 36 432 430 379 378
139 37 428 430 379 193
140 36 428 430 379 378
141 26 14 17 15 13
142 27 15 17 14 16
143 10 345 349 344 347
144 25 344 349 345 346
145 25 344 349 345 340
146 28 344 349 354 357
147 26 344 349 354 356
148 11 345 349 344 341
149 27 354 349 344 341
150 25 354 349 345 346
151 25 354 349 345 340
152 10 345 349 354 356
153 12 345 349 354 357
154 1 403 345 349 344
155 23 349 345 403 401
156 23 349 345 403 407
157 23 349 345 403 399
158 1 403 345 349 354
159 33 346 345 403 401
160 33 346 345 403 407
161 33 346 345 403 399
162 33 340 345 403 401
163 33 340 345 403 407
164 33 340 345 403 399
165 29 17 14 12 9
166 45 16 14 12 9
167 26 12 14 17 15
168 27 12 14 17 18
169 44 16 14 17 18
170 26 17 14 12 11
171 17 430 380 384 386
172 32 384 380 430 432
173 32 384 380 430 428
174 17 430 380 384 388
175 17 8 9 12 14
176 17 8 9 12 11
177 32 12 9 8 6
178 32 12 9 8 7
179 29 343 350 353 358
180 45 517 350 353 358
181 26 353 350 343 342
182 27 353 350 343 339
183 44 517 350 343 339
184 26 343 350 353 352
185 9 532 531 527 528
186 8 528 531 532 534
187 6 528 531 532 508
188 6 528 531 532 530
189 6 532 531 528 507
190 6 532 531 528 529
191 42 533 531 528 527
192 43 533 531 532 534
193 47 527 531 532 534
194 7 532 531 528 527
195 21 531 532 534 26
196 36 508 532 531 533
197 36 530 532 531 533
198 37 508 532 531 527
199 37 530 532 531 527
200 37 507 528 531 527
201 36 507 528 531 533
202 37 529 528 531 527
203 36 529 528 531 533
204 17 532 534 26 22
205 17 532 534 26 32
206 32 26 534 532 508
207 32 26 534 532 530
208 26 185 180 128 130
209 27 185 180 128 126
210 16 528 527 531 533
211 22 531 527 528 507
212 22 531 527 528 529
213 27 130 128 180 179
214 45 126 128 130 129
215 44 126 128 180 179
216 29 180 128 130 129
217 26 386 384 388 392
218 27 386 384 388 387
219 27 388 384 386 382
220 26 350 343 342 348
221 27 342 343 350 517
222 21 251 131 129 130
223 37 134 131 251 125
224 36 134 131 251 248
225 37 133 131 251 125
226 36 133 131 251 248
227 17 131 129 130 135
228 32 130 129 131 134
229 32 130 129 131 133
230 17 131 129 130 128
231 26 135 130 128 180
232 27 135 130 128 126
233 27 128 130 135 137
234 27 384 388 392 335
235 45 387 388 384 380
236 44 387 388 392 335
237 29 392 388 384 380
238 26 334 392 388 384
239 27 334 392 388 387
240 8 250 251 131 129
241 47 125 251 131 129
242 43 248 251 131 129
243 7 131 251 250 125
244 6 131 251 250 103
245 6 131 251 250 102
246 9 131 251 125 250
247 6 250 251 131 134
248 6 250 251 131 133
249 42 248 251 250 125
250 10 337 334 390 386
251 11 337 334 390 391
252 10 337 334 392 388
253 11 337 334 392 335
254 25 390 334 337 338
255 25 392 334 337 338
256 25 390 334 337 336
257 25 392 334 337 336
258 26 390 334 392 388
259 27 390 334 392 335
260 27 392 334 390 391
261 29 390 386 384 380
262 26 390 386 384 388
263 27 384 386 390 391
264 45 382 386 384 380
265 36 103 250 251 248
266 36 102 250 251 248
267 37 103 250 251 125
268 37 102 250 251 125
269 9 121 123 291 294
270 8 294 123 121 241
271 6 294 123 121 119
272 6 294 123 121 122
273 6 121 123 294 297
274 6 121 123 294 249
275 42 292 123 294 291
276 43 292 123 121 241
277 47 291 123 121 241
278 7 121 123 294 291
279 21 123 121 241 238
280 36 119 121 123 292
281 36 122 121 123 292
282 37 119 121 123 291
283 37 122 121 123 291
284 26 334 390 386 384
285 27 334 390 386 382
286 44 391 390 386 382
287 26 386 390 334 392
288 22 251 125 250 103
289 22 251 125 250 102
290 16 250 125 251 248
291 10 337 342 343 350
292 25 343 342 337 338
293 25 343 342 337 336
294 26 343 342 348 352
295 27 343 342 348 284
296 11 337 342 343 339
297 27 348 342 343 339
298 25 348 342 337 338
299 25 348 342 337 336
300 11 337 342 348 284
301 10 337 342 348 352
302 16 294 291 123 292
303 22 123 291 294 297
304 22 123 291 294 249
305 24 334 337 342 343
306 24 342 337 334 390
307 24 342 337 334 392
308 24 334 337 342 348
309 16 269 466 472 474
310 22 472 466 269 271
311 22 472 466 269 270
312 29 136 135 130 129
313 26 136 135 130 128
314 27 130 135 136 191
315 45 137 135 130 129
316 10 187 185 136 135
317 11 187 185 136 191
318 10 187 185 180 128
319 11 187 185 180 179
320 25 136 185 187 189
321 25 180 185 187 189
322 25 136 185 187 183
323 25 180 185 187 183
324 26 136 185 180 128
325 27 136 185 180 179
326 27 180 185 136 191
327 36 375 372 368 366
328 36 373 372 368 366
329 37 375 372 368 370
330 37 373 372 368 370
331 37 297 294 123 291
332 36 297 294 123 292
333 37 249 294 123 291
334 36 249 294 123 292
335 37 271 269 472 466
336 36 271 269 472 474
337 37 270 269 472 466
338 36 270 269 472 474
339 27 342 348 352 290
340 44 284 348 352 290
341 26 185 136 135 130
342 27 185 136 135 137
343 44 191 136 135 137
344 26 135 136 185 180
345 24 185 187 186 190
346 24 186 187 185 136
347 24 186 187 185 180
348 24 185 187 186 182
349 1 510 319 321 323
350 23 321 319 510 583
351 23 321 319 510 509
352 23 321 319 510 511
353 1 510 319 321 320
354 33 316 319 510 583
355 33 316 319 510 509
356 33 316 319 510 511
357 33 465 319 510 583
358 33 465 319 510 509
359 33 465 319 510 511
360 26 347 351 356 354
361 30 347 351 173 171
362 30 347 351 173 175
363 30 356 351 173 171
364 30 356 351 173 175
365 30 349 354 357 359
366 30 349 354 357 355
367 26 349 354 356 351
368 30 356 354 357 359
369 30 356 354 357 355
370 10 361 356 351 347
371 10 361 356 354 349
372 25 354 356 361 363
373 25 354 356 361 360
374 25 354 356 361 362
375 28 354 356 351 173
376 28 351 356 354 357
377 25 351 356 361 363
378 25 351 356 361 360
379 25 351 356 361 362
380 12 361 356 351 173
381 12 361 356 354 357
382 15 84 317 320 322
383 31 320 317 84 82
384 31 320 317 84 552
385 15 84 317 320 321
386 33 512 383 328 385
387 33 512 383 328 332
388 33 381 383 328 385
389 33 381 383 328 332
390 33 389 383 328 385
391 33 389 383 328 332
392 26 326 325 322 320
393 30 326 325 327 156
394 30 326 325 327 329
395 30 322 325 327 156
396 30 322 325 327 329
397 10 328 326 323 321
398 11 328 326 323 324
399 10 328 326 325 322
400 12 328 326 325 327
401 25 323 326 328 385
402 25 325 326 328 385
403 25 323 326 328 332
404 25 325 326 328 332
405 26 323 326 325 322
406 28 323 326 325 327
407 27 325 326 323 324
408 1 383 328 326 323
409 1 383 328 326 325
410 23 326 328 383 512
411 23 326 328 383 381
412 23 326 328 383 389
413 10 152 322 325 326
414 10 152 322 320 321
415 25 320 322 152 154
416 25 320 322 152 151
417 25 320 322 152 150
418 28 320 322 325 327
419 25 325 322 152 154
420 25 325 322 152 151
421 25 325 322 152 150
422 12 152 322 325 327
423 12 152 322 320 317
424 28 325 322 320 317
425 26 321 320 322 325
426 30 322 320 317 464
427 30 321 320 317 464
428 26 326 323 321 320
429 26 321 323 326 325
430 10 319 321 323 326
431 25 323 321 319 316
432 25 323 321 319 465
433 26 323 321 320 322
434 11 319 321 323 324
435 27 320 321 323 324
436 25 320 321 319 316
437 25 320 321 319 465
438 10 319 321 320 322
439 12 319 321 320 317
440 28 323 321 320 317
441 30 64 65 542 547
442 30 64 65 542 540
443 26 64 65 67 70
444 30 67 65 542 547
445 30 67 65 542 540
446 10 63 64 66 68
447 25 66 64 63 98
448 25 66 64 63 539
449 28 66 64 65 542
450 26 66 64 65 67
451 11 63 64 66 100
452 27 65 64 66 100
453 25 65 64 63 98
454 25 65 64 63 539
455 10 63 64 65 67
456 12 63 64 65 542
457 10 69 67 70 68
458 10 69 67 65 64
459 25 65 67 69 46
460 25 65 67 69 44
461 25 65 67 69 48
462 28 65 67 70 72
463 28 70 67 65 542
464 25 70 67 69 46
465 25 70 67 69 44
466 25 70 67 69 48
467 12 69 67 70 72
468 12 69 67 65 542
469 26 68 70 67 65
470 30 68 70 72 74
471 30 68 70 72 73
472 30 67 70 72 74
473 30 67 70 72 73
474 1 545 63 64 66
475 23 64 63 545 576
476 23 64 63 545 572
477 23 64 63 545 546
478 1 545 63 64 65
479 33 98 63 545 576
480 33 98 63 545 572
481 33 98 63 545 546
482 33 539 63 545 576
483 33 539 63 545 572
484 33 539 63 545 546
485 22 568 564 569 451
486 22 568 564 569 567
487 16 569 564 568 565
488 26 68 66 64 65
489 26 64 66 68 70
490 10 71 68 66 64
491 11 71 68 66 100
492 10 71 68 70 67
493 12 71 68 70 72
494 25 66 68 71 75
495 25 70 68 71 75
496 25 66 68 71 101
497 25 70 68 71 101
498 26 66 68 70 67
499 28 66 68 70 72
500 27 70 68 66 100
501 36 258 257 140 138
502 36 254 257 140 138
503 37 258 257 140 139
504 37 254 257 140 139
505 36 451 569 568 565
506 36 567 569 568 565
507 37 451 569 568 564
508 37 567 569 568 564
509 10 219 218 425 374
510 11 219 218 425 426
511 10 219 218 216 188
512 11 219 218 216 215
513 25 425 218 219 221
514 25 216 218 219 221
515 25 425 218 219 427
516 25 216 218 219 427
517 26 425 218 216 188
518 27 425 218 216 215
519 27 216 218 425 426
520 22 368 370 372 375
521 22 368 370 372 373
522 16 372 370 368 366
523 8 569 568 571 573
524 47 564 568 571 573
525 43 565 568 571 573
526 7 571 568 569 564
527 6 571 568 569 451
528 6 571 568 569 567
529 9 571 568 564 569
530 6 569 568 571 566
531 6 569 568 571 570
532 42 565 568 569 564
533 29 502 503 500 501
534 26 502 503 500 498
535 27 500 503 502 463
536 45 505 503 500 501
537 21 4 8 9 12
538 36 6 8 4 5
539 36 7 8 4 5
540 37 6 8 4 1
541 37 7 8 4 1
542 10 31 30 23 22
543 25 23 30 31 35
544 25 23 30 31 34
545 26 23 30 33 32
546 27 23 30 33 36
547 11 31 30 23 21
548 27 33 30 23 21
549 25 33 30 31 35
550 25 33 30 31 34
551 11 31 30 33 36
552 10 31 30 33 32
553 29 23 22 26 534
554 45 20 22 26 534
555 26 26 22 23 30
556 27 26 22 23 21
557 44 20 22 23 21
558 26 23 22 26 32
559 36 104 105 108 19
560 36 106 105 108 19
561 37 104 105 108 107
562 37 106 105 108 107
563 37 99 3 4 1
564 36 99 3 4 5
565 37 2 3 4 1
566 36 2 3 4 5
567 1 85 89 111 268
568 1 85 89 111 91
569 23 111 89 85 110
570 23 111 89 85 83
571 23 111 89 85 87
572 27 371 188 216 215
573 45 184 188 371 369
574 44 184 188 216 215
575 29 216 188 371 369
576 16 3 1 4 5
577 22 4 1 3 99
578 22 4 1 3 2
579 26 22 23 30 33
580 27 30 23 22 20
581 9 8 4 1 3
582 8 3 4 8 9
583 6 3 4 8 6
584 6 3 4 8 7
585 6 8 4 3 99
586 6 8 4 3 2
587 42 5 4 3 1
588 43 5 4 8 9
589 47 1 4 8 9
590 7 8 4 3 1
591 17 504 501 500 503
592 32 500 501 504 506
593 32 500 501 504 582
594 17 504 501 500 498
595 26 374 371 188 216
596 27 374 371 188 184
597 27 188 371 374 376
598 21 368 367 369 371
599 37 364 367 368 370
600 36 364 367 368 366
601 37 365 367 368 370
602 36 365 367 368 366
603 27 500 498 497 495
604 45 496 498 500 501
605 44 496 498 497 495
606 29 497 498 500 501
607 29 425 374 371 369
608 26 425 374 371 188
609 27 371 374 425 426
610 45 376 374 371 369
611 33 110 85 89 225
612 33 110 85 89 62
613 33 83 85 89 225
614 33 83 85 89 62
615 33 87 85 89 225
616 33 87 85 89 62
617 33 203 204 71 75
618 33 203 204 71 101
619 33 202 204 71 75
620 33 202 204 71 101
621 33 205 204 71 75
622 33 205 204 71 101
623 26 503 500 498 497
624 27 503 500 498 496
625 27 498 500 503 505
626 26 499 502 503 500
627 27 499 502 503 505
628 44 463 502 503 505
629 26 503 502 499 497
630 26 22 26 32 33
631 27 22 26 32 535
632 27 32 26 22 20
633 10 31 29 24 148
634 11 31 29 24 28
635 10 31 29 25 149
636 11 31 29 25 27
637 25 24 29 31 35
638 25 25 29 31 35
639 25 24 29 31 34
640 25 25 29 31 34
641 26 24 29 25 149
642 27 24 29 25 27
643 27 25 29 24 28
644 29 33 32 26 534
645 45 535 32 26 534
646 26 26 32 33 30
647 27 26 32 33 36
648 26 499 497 498 500
649 27 499 497 498 496
650 26 218 216 188 371
651 27 218 216 188 184
652 1 204 71 68 66
653 1 204 71 68 70
654 23 68 71 204 203
655 23 68 71 204 202
656 23 68 71 204 205
657 24 29 31 30 23
658 24 30 31 29 24
659 24 30 31 29 25
660 24 29 31 30 33
661 22 108 107 105 104
662 22 108 107 105 106
663 16 105 107 108 19
664 10 89 111 268 267
665 11 89 111 268 266
666 10 89 111 91 112
667 12 89 111 91 95
668 25 268 111 89 225
669 25 91 111 89 225
670 25 268 111 89 62
671 25 91 111 89 62
672 26 268 111 91 112
673 28 268 111 91 95
674 27 91 111 268 266
675 26 111 91 112 109
676 30 111 91 95 97
677 30 111 91 95 96
678 30 112 91 95 97
679 30 112 91 95 96
680 10 92 112 91 111
681 10 92 112 109 267
682 25 109 112 92 93
683 25 109 112 92 94
684 25 109 112 92 38
685 28 109 112 91 95
686 28 91 112 109 155
687 25 91 112 92 93
688 25 91 112 92 94
689 25 91 112 92 38
690 12 92 112 91 95
691 12 92 112 109 155
692 30 267 109 155 153
693 30 267 109 155 37
694 26 267 109 112 91
695 30 112 109 155 153
696 30 112 109 155 37
697 26 29 24 148 146
698 27 29 24 148 145
699 44 28 24 148 145
700 26 148 24 29 25
701 17 367 369 371 374
702 32 371 369 367 364
703 32 371 369 367 365
704 17 367 369 371 188
705 21 108 504 501 500
706 37 506 504 108 107
707 36 506 504 108 19
708 37 582 504 108 107
709 36 582 504 108 19
710 26 218 425 374 371
711 27 218 425 374 376
712 44 426 425 374 376
713 26 374 425 218 216
714 27 30 33 32 535
715 44 36 33 32 535
716 8 105 108 504 501
717 47 107 108 504 501
718 43 19 108 504 501
719 7 504 108 105 107
720 6 504 108 105 104
721 6 504 108 105 106
722 9 504 108 107 105
723 6 105 108 504 506
724 6 105 108 504 582
725 42 19 108 105 107
726 29 24 148 146 143
727 26 24 148 146 149
728 27 146 148 24 28
729 45 145 148 146 143
730 8 372 368 367 369
731 47 370 368 367 369
732 43 366 368 367 369
733 7 367 368 372 370
734 6 367 368 372 375
735 6 367 368 372 373
736 9 367 368 370 372
737 6 372 368 367 364
738 6 372 368 367 365
739 42 366 368 372 370
740 27 186 182 181 51
741 44 178 182 181 51
742 17 473 467 469 470
743 17 473 467 469 331
744 32 469 467 473 471
745 32 469 467 473 443
746 26 470 469 331 333
747 27 470 469 331 330
748 27 331 469 470 468
749 29 585 470 469 467
750 45 468 470 469 467
751 26 469 470 585 516
752 27 469 470 585 584
753 44 468 470 585 584
754 26 585 470 469 331
755 29 333 331 469 467
756 45 330 331 469 467
757 26 469 331 333 516
758 27 469 331 333 272
759 26 470 585 516 333
760 27 516 585 470 468
761 27 516 333 331 330
762 44 272 333 331 330
763 10 515 516 585 470
764 25 585 516 515 513
765 25 585 516 515 514
766 26 585 516 333 331
767 27 585 516 333 272
768 11 515 516 585 584
769 27 333 516 585 584
770 25 333 516 515 513
771 25 333 516 515 514
772 11 515 516 333 272
773 10 515 516 333 331
774 29 190 60 58 59
775 45 61 60 58 59
776 26 58 60 190 186
777 27 58 60 190 192
778 44 61 60 190 192
779 26 190 60 58 181
780 16 523 519 521 525
781 22 521 519 523 522
782 22 521 519 523 526
783 26 60 190 186 182
784 27 186 190 60 61
785 10 187 186 190 60
786 25 190 186 187 189
787 25 190 186 187 183
788 26 190 186 182 181
789 27 190 186 182 178
790 11 187 186 190 192
791 27 182 186 190 192
792 25 182 186 187 189
793 25 182 186 187 183
794 11 187 186 182 178
795 10 187 186 182 181
796 24 475 515 516 585
797 24 516 515 475 477
798 24 516 515 475 478
799 24 475 515 516 333
800 10 515 475 477 479
801 11 515 475 477 562
802 10 515 475 478 480
803 11 515 475 478 476
804 25 477 475 515 513
805 25 478 475 515 513
806 25 477 475 515 514
807 25 478 475 515 514
808 26 477 475 478 480
809 27 477 475 478 476
810 27 478 475 477 562
811 26 475 477 479 482
812 27 475 477 479 563
813 44 562 477 479 563
814 26 479 477 475 478
815 26 580 578 577 575
816 27 580 578 577 574
817 26 475 478 480 482
818 27 475 478 480 481
819 10 229 231 201 404
820 11 229 231 201 237
821 10 229 231 445 397
822 11 229 231 445 444
823 25 201 231 229 228
824 25 445 231 229 228
825 25 201 231 229 226
826 25 445 231 229 226
827 26 201 231 445 397
828 27 201 231 445 444
829 27 445 231 201 237
830 9 520 521 519 523
831 8 523 521 520 358
832 6 523 521 520 518
833 6 523 521 520 524
834 6 520 521 523 522
835 6 520 521 523 526
836 42 525 521 523 519
837 43 525 521 520 358
838 47 519 521 520 358
839 7 520 521 523 519
840 16 78 77 79 81
841 22 79 77 78 80
842 22 79 77 78 76
843 33 160 162 165 164
844 33 160 162 165 166
845 33 161 162 165 164
846 33 161 162 165 166
847 33 159 162 165 164
848 33 159 162 165 166
849 1 113 274 276 277
850 1 113 274 276 278
851 23 276 274 113 115
852 23 276 274 113 158
853 23 276 274 113 157
854 22 140 139 257 258
855 22 140 139 257 254
856 16 257 139 140 138
857 21 472 473 467 469
858 36 471 473 472 474
859 36 443 473 472 474
860 37 471 473 472 466
861 37 443 473 472 466
862 37 522 523 521 519
863 36 522 523 521 525
864 37 526 523 521 519
865 36 526 523 521 525
866 10 165 347 344 349
867 11 165 347 344 341
868 10 165 347 351 356
869 12 165 347 351 173
870 25 344 347 165 164
871 25 351 347 165 164
872 25 344 347 165 166
873 25 351 347 165 166
874 26 344 347 351 356
875 28 344 347 351 173
876 27 351 347 344 341
877 1 162 165 347 344
878 1 162 165 347 351
879 23 347 165 162 160
880 23 347 165 162 161
881 23 347 165 162 159
882 36 42 41 43 170
883 36 40 41 43 170
884 37 42 41 43 39
885 37 40 41 43 39
886 26 231 201 404 400
887 27 231 201 404 409
888 44 237 201 404 409
889 26 404 201 231 445
890 29 477 479 482 484
891 26 477 479 482 480
892 27 482 479 477 562
893 45 563 479 482 484
894 8 41 43 168 169
895 47 39 43 168 169
896 43 170 43 168 169
897 7 168 43 41 39
898 6 168 43 41 42
899 6 168 43 41 40
900 9 168 43 39 41
901 6 41 43 168 167
902 6 41 43 168 172
903 42 170 43 41 39
904 33 115 113 274 117
905 33 115 113 274 273
906 33 158 113 274 117
907 33 158 113 274 273
908 33 157 113 274 117
909 33 157 113 274 273
910 10 581 580 456 453
911 11 581 580 456 457
912 10 581 580 578 577
913 11 581 580 578 579
914 25 456 580 581 460
915 25 578 580 581 460
916 25 456 580 581 549
917 25 578 580 581 549
918 26 456 580 578 577
919 27 456 580 578 579
920 27 578 580 456 457
921 37 80 78 79 77
922 36 80 78 79 81
923 37 76 78 79 77
924 36 76 78 79 81
925 26 60 58 181 182
926 27 60 58 181 51
927 27 181 58 60 61
928 17 55 59 58 60
929 17 55 59 58 181
930 32 58 59 55 54
931 32 58 59 55 52
932 37 242 244 247 243
933 36 242 244 247 246
934 37 245 244 247 243
935 36 245 244 247 246
936 16 244 243 247 246
937 22 247 243 244 242
938 22 247 243 244 245
939 10 295 499 502 503
940 11 295 499 502 463
941 10 295 499 497 498
942 11 295 499 497 495
943 25 502 499 295 293
944 25 497 499 295 293
945 25 502 499 295 458
946 25 497 499 295 458
947 26 502 499 497 498
948 27 502 499 497 495
949 27 497 499 502 463
950 29 217 255 462 461
951 45 256 255 462 461
952 26 462 255 217 424
953 27 462 255 217 220
954 44 256 255 217 220
955 26 217 255 462 421
956 29 439 393 442 394
957 45 395 393 442 394
958 26 442 393 439 436
959 27 442 393 439 441
960 21 521 520 358 353
961 36 518 520 521 525
962 36 524 520 521 525
963 37 518 520 521 519
964 37 524 520 521 519
965 24 231 229 233 232
966 24 233 229 231 201
967 24 233 229 231 445
968 24 231 229 233 235
969 27 482 480 478 476
970 45 481 480 482 484
971 44 481 480 478 476
972 29 478 480 482 484
973 29 235 239 238 241
974 45 240 239 238 241
975 26 238 239 235 233
976 27 238 239 235 236
977 10 229 233 232 234
978 25 232 233 229 228
979 25 232 233 229 226
980 26 232 233 235 239
981 27 232 233 235 236
982 11 229 233 232 230
983 27 235 233 232 230
984 25 235 233 229 228
985 25 235 233 229 226
986 11 229 233 235 236
987 10 229 233 235 239
988 27 233 235 239 240
989 44 236 235 239 240
990 17 121 241 238 234
991 17 121 241 238 239
992 32 238 241 121 119
993 32 238 241 121 122
994 17 520 358 353 350
995 17 520 358 353 352
996 32 353 358 520 518
997 32 353 358 520 524
998 37 308 311 312 313
999 36 308 311 312 315
1000 37 314 311 312 313
1001 36 314 311 312 315
1002 21 211 208 413 414
1003 36 206 208 211 214
1004 36 209 208 211 214
1005 37 206 208 211 213
1006 37 209 208 211 213
1007 22 490 486 492 493
1008 22 490 486 492 494
1009 16 492 486 490 488
1010 26 234 232 233 235
1011 27 233 232 234 118
1012 8 492 490 487 484
1013 47 486 490 487 484
1014 43 488 490 487 484
1015 7 487 490 492 486
1016 6 487 490 492 493
1017 6 487 490 492 494
1018 9 487 490 486 492
1019 6 492 490 487 485
1020 6 492 490 487 491
1021 42 488 490 492 486
1022 36 493 492 490 488
1023 36 494 492 490 488
1024 37 493 492 490 486
1025 37 494 492 490 486
1026 21 490 487 484 482
1027 37 485 487 490 486
1028 36 485 487 490 488
1029 37 491 487 490 486
1030 36 491 487 490 488
1031 26 415 418 417 455
1032 27 417 418 415 416
1033 26 479 482 480 478
1034 27 479 482 480 481
1035 27 480 482 479 563
1036 26 415 414 412 455
1037 27 415 414 412 411
1038 27 412 414 415 416
1039 10 581 417 418 415
1040 25 418 417 581 460
1041 25 418 417 581 549
1042 26 418 417 455 412
1043 27 418 417 455 454
1044 11 581 417 418 419
1045 27 455 417 418 419
1046 25 455 417 581 460
1047 25 455 417 581 549
1048 11 581 417 455 454
1049 10 581 417 455 412
1050 29 418 415 414 413
1051 45 416 415 414 413
1052 26 414 415 418 417
1053 27 414 415 418 419
1054 44 416 415 418 419
1055 26 418 415 414 412
1056 17 208 413 414 415
1057 17 208 413 414 412
1058 32 414 413 208 206
1059 32 414 413 208 209
1060 17 487 484 482 479
1061 32 482 484 487 485
1062 32 482 484 487 491
1063 17 487 484 482 480
1064 27 417 455 412 411
1065 44 454 455 412 411
1066 29 455 412 414 413
1067 45 411 412 414 413
1068 26 414 412 455 417
1069 27 414 412 455 454
1070 24 580 581 417 418
1071 24 417 581 580 456
1072 24 417 581 580 578
1073 24 580 581 417 455
1074 29 232 234 238 241
1075 45 118 234 238 241
1076 26 238 234 232 233
1077 27 238 234 232 230
1078 44 118 234 232 230
1079 26 232 234 238 239
1080 16 311 313 312 315
1081 22 312 313 311 308
1082 22 312 313 311 314
1083 9 310 312 313 311
1084 8 311 312 310 306
1085 6 311 312 310 309
1086 6 311 312 310 377
1087 6 310 312 311 308
1088 6 310 312 311 314
1089 42 315 312 311 313
1090 43 315 312 310 306
1091 47 313 312 310 306
1092 7 310 312 311 313
1093 26 234 238 239 235
1094 27 234 238 239 240
1095 27 239 238 234 118
1096 26 350 353 352 348
1097 27 350 353 352 290
1098 27 352 353 350 517
1099 9 208 211 213 210
1100 8 210 211 208 413
1101 6 210 211 208 206
1102 6 210 211 208 209
1103 6 208 211 210 207
1104 6 208 211 210 212
1105 42 214 211 210 213
1106 43 214 211 208 413
1107 47 213 211 208 413
1108 7 208 211 210 213
1109 29 348 352 353 358
1110 45 290 352 353 358
1111 26 353 352 348 342
1112 27 353 352 348 284
1113 16 210 213 211 214
1114 22 211 213 210 207
1115 22 211 213 210 212
1116 37 207 210 211 213
1117 36 207 210 211 214
1118 37 212 210 211 213
1119 36 212 210 211 214
1120 9 473 472 466 269
1121 8 269 472 473 467
1122 6 269 472 473 471
1123 6 269 472 473 443
1124 6 473 472 269 271
1125 6 473 472 269 270
1126 42 474 472 269 466
1127 43 474 472 473 467
1128 47 466 472 473 467
1129 7 473 472 269 466
1130 26 580 456 453 575
1131 27 580 456 453 452
1132 44 457 456 453 452
1133 26 453 456 580 578
1134 26 231 445 397 400
1135 27 231 445 397 396
1136 17 142 143 146 148
1137 32 146 143 142 141
1138 32 146 143 142 144
1139 17 142 143 146 149
1140 22 43 39 41 42
1141 22 43 39 41 40
1142 16 41 39 43 170
1143 26 29 25 149 146
1144 27 29 25 149 147
1145 27 146 149 25 27
1146 45 147 149 146 143
1147 44 147 149 25 27
1148 29 25 149 146 143
1149 29 182 181 58 59
1150 45 51 181 58 59
1151 26 58 181 182 186
1152 27 58 181 182 178
1153 9 55 79 77 78
1154 8 78 79 55 59
1155 6 78 79 55 54
1156 6 78 79 55 52
1157 6 55 79 78 80
1158 6 55 79 78 76
1159 42 81 79 78 77
1160 43 81 79 55 59
1161 47 77 79 55 59
1162 7 55 79 78 77
1163 27 575 577 578 579
1164 45 574 577 575 573
1165 44 574 577 578 579
1166 29 578 577 575 573
1167 8 257 140 142 143
1168 47 139 140 142 143
1169 43 138 140 142 143
1170 7 142 140 257 139
1171 6 142 140 257 258
1172 6 142 140 257 254
1173 9 142 140 139 257
1174 6 257 140 142 141
1175 6 257 140 142 144
1176 42 138 140 257 139
1177 18 86 84 317 320
1178 46 317 84 86 559
1179 19 86 84 317 464
1180 38 82 84 317 464
1181 38 552 84 317 464
1182 35 82 84 86 559
1183 34 82 84 86 88
1184 35 552 84 86 559
1185 34 552 84 86 88
1186 21 79 55 59 58
1187 36 54 55 79 81
1188 36 52 55 79 81
1189 37 54 55 79 77
1190 37 52 55 79 77
1191 26 453 575 577 578
1192 27 453 575 577 574
1193 27 577 575 453 452
1194 29 201 404 400 402
1195 26 201 404 400 397
1196 27 400 404 201 237
1197 45 409 404 400 402
1198 20 86 561 558 556
1199 34 90 561 86 88
1200 34 537 561 86 88
1201 48 558 561 86 559
1202 35 90 561 86 559
1203 35 537 561 86 559
1204 16 196 199 197 200
1205 22 197 199 196 198
1206 22 197 199 196 194
1207 27 400 397 445 444
1208 45 396 397 400 402
1209 44 396 397 445 444
1210 29 445 397 400 402
1211 26 404 400 397 445
1212 27 404 400 397 396
1213 27 397 400 404 409
1214 21 405 406 402 400
1215 37 410 406 405 543
1216 36 410 406 405 538
1217 37 408 406 405 543
1218 36 408 406 405 538
1219 8 544 405 406 402
1220 47 543 405 406 402
1221 43 538 405 406 402
1222 7 406 405 544 543
1223 6 406 405 544 548
1224 6 406 405 544 541
1225 9 406 405 543 544
1226 6 544 405 406 410
1227 6 544 405 406 408
1228 42 538 405 544 543
1229 36 548 544 405 538
1230 36 541 544 405 538
1231 37 548 544 405 543
1232 37 541 544 405 543
1233 22 405 543 544 548
1234 22 405 543 544 541
1235 16 544 543 405 538
1236 17 406 402 400 404
1237 32 400 402 406 410
1238 32 400 402 406 408
1239 17 406 402 400 397
1240 17 571 573 575 453
1241 32 575 573 571 566
1242 32 575 573 571 570
1243 17 571 573 575 577
1244 9 195 197 199 196
1245 8 196 197 195 394
1246 6 196 197 195 163
1247 6 196 197 195 398
1248 6 195 197 196 198
1249 6 195 197 196 194
1250 42 200 197 196 199
1251 43 200 197 195 394
1252 47 199 197 195 394
1253 7 195 197 196 199
1254 37 198 196 197 199
1255 36 198 196 197 200
1256 37 194 196 197 199
1257 36 194 196 197 200
1258 3 561 86 84 317
1259 39 88 86 84 317
1260 4 84 86 561 558
1261 2 84 86 561 90
1262 2 84 86 561 537
1263 5 84 86 559 318
1264 2 561 86 84 82
1265 2 561 86 84 552
1266 40 88 86 561 558
1267 41 88 86 559 318
1268 5 561 86 559 318
1269 17 561 558 556 554
1270 17 561 558 556 560
1271 32 556 558 561 537
1272 32 556 558 561 90
1273 17 252 461 462 255
1274 17 252 461 462 421
1275 32 462 461 252 253
1276 32 462 461 252 459
1277 21 247 252 461 462
1278 36 253 252 247 246
1279 36 459 252 247 246
1280 37 253 252 247 243
1281 37 459 252 247 243
1282 26 255 462 421 423
1283 27 255 462 421 420
1284 27 421 462 255 256
1285 9 252 247 243 244
1286 8 244 247 252 461
1287 6 244 247 252 253
1288 6 244 247 252 459
1289 6 252 247 244 242
1290 6 252 247 244 245
1291 42 246 247 244 243
1292 43 246 247 252 461
1293 47 243 247 252 461
1294 7 252 247 244 243
1295 21 140 142 143 146
1296 37 141 142 140 139
1297 36 141 142 140 138
1298 37 144 142 140 139
1299 36 144 142 140 138
1300 21 568 571 573 575
1301 37 566 571 568 564
1302 36 566 571 568 565
1303 37 570 571 568 564
1304 36 570 571 568 565
1305 29 423 421 462 461
1306 45 420 421 462 461
1307 26 462 421 423 424
1308 27 462 421 423 422
1309 29 456 453 575 573
1310 26 456 453 575 577
1311 27 575 453 456 457
1312 45 452 453 575 573
1313 26 554 556 560 557
1314 27 554 556 560 536
1315 27 560 556 554 551
1316 29 298 301 304 306
1317 45 300 301 304 306
1318 26 304 301 298 299
1319 27 304 301 298 296
1320 44 300 301 298 296
1321 26 298 301 304 305
1322 26 148 146 149 25
1323 27 148 146 149 147
1324 27 149 146 148 145
1325 29 302 305 304 306
1326 45 307 305 304 306
1327 26 304 305 302 299
1328 27 304 305 302 303
1329 26 301 304 305 302
1330 27 301 304 305 307
1331 27 305 304 301 300
1332 26 111 268 267 109
1333 26 267 268 111 91
1334 26 301 298 299 302
1335 27 299 298 301 300
1336 26 555 553 554 556
1337 27 555 553 554 551
1338 44 550 553 554 551
1339 26 554 553 555 557
1340 24 499 295 299 298
1341 24 299 295 499 502
1342 24 299 295 499 497
1343 24 499 295 299 302
1344 17 310 306 304 301
1345 17 310 306 304 305
1346 32 304 306 310 309
1347 32 304 306 310 377
1348 10 434 555 553 554
1349 11 434 555 553 550
1350 10 434 555 557 560
1351 11 434 555 557 440
1352 25 553 555 434 431
1353 25 557 555 434 431
1354 25 553 555 434 429
1355 25 557 555 434 429
1356 26 553 555 557 560
1357 27 553 555 557 440
1358 27 557 555 553 550
1359 10 219 424 217 255
1360 25 217 424 219 221
1361 25 217 424 219 427
1362 26 217 424 423 421
1363 27 217 424 423 422
1364 11 219 424 217 220
1365 27 423 424 217 220
1366 25 423 424 219 221
1367 25 423 424 219 427
1368 11 219 424 423 422
1369 10 219 424 423 421
1370 26 438 442 393 439
1371 27 438 442 393 395
1372 27 393 442 438 437
1373 21 197 195 394 442
1374 36 163 195 197 200
1375 36 398 195 197 200
1376 37 163 195 197 199
1377 37 398 195 197 199
1378 27 299 302 305 307
1379 44 303 302 305 307
1380 26 255 217 424 423
1381 27 424 217 255 256
1382 26 555 557 560 556
1383 27 555 557 560 536
1384 27 556 560 557 440
1385 45 536 560 556 558
1386 44 536 560 557 440
1387 29 557 560 556 558
1388 10 434 436 435 438
1389 25 435 436 434 431
1390 25 435 436 434 429
1391 26 435 436 439 393
1392 27 435 436 439 441
1393 11 434 436 435 433
1394 27 439 436 435 433
1395 25 439 436 434 431
1396 25 439 436 434 429
1397 11 434 436 439 441
1398 10 434 436 439 393
1399 21 312 310 306 304
1400 36 309 310 312 315
1401 36 377 310 312 315
1402 37 309 310 312 313
1403 37 377 310 312 313
1404 29 435 438 442 394
1405 45 437 438 442 394
1406 26 442 438 435 436
1407 27 442 438 435 433
1408 44 437 438 435 433
1409 26 435 438 442 393
1410 27 436 439 393 395
1411 44 441 439 393 395
1412 10 295 299 298 301
1413 25 298 299 295 293
1414 25 298 299 295 458
1415 26 298 299 302 305
1416 27 298 299 302 303
1417 11 295 299 298 296
1418 27 302 299 298 296
1419 25 302 299 295 293
1420 25 302 299 295 458
1421 11 295 299 302 303
1422 10 295 299 302 305
1423 10 262 267 268 111
1424 25 268 267 262 261
1425 25 268 267 262 260
1426 28 268 267 109 155
1427 26 268 267 109 112
1428 11 262 267 268 266
1429 27 109 267 268 266
1430 25 109 267 262 261
1431 25 109 267 262 260
1432 10 262 267 109 112
1433 12 262 267 109 155
1434 1 263 262 267 268
1435 23 267 262 263 264
1436 23 267 262 263 259
1437 23 267 262 263 265
1438 1 263 262 267 109
1439 33 261 262 263 264
1440 33 261 262 263 259
1441 33 261 262 263 265
1442 33 260 262 263 264
1443 33 260 262 263 259
1444 33 260 262 263 265
1445 29 553 554 556 558
1446 26 553 554 556 560
1447 27 556 554 553 550
1448 45 551 554 556 558
1449 17 195 394 442 438
1450 17 195 394 442 393
1451 32 442 394 195 163
1452 32 442 394 195 398
1453 27 424 423 421 420
1454 44 422 423 421 420
1455 24 218 219 424 217
1456 24 424 219 218 425
1457 24 424 219 218 216
1458 24 218 219 424 423
1459 26 438 435 436 439
1460 27 436 435 438 437
1461 24 555 434 436 435
1462 24 436 434 555 553
1463 24 436 434 555 557
1464 24 555 434 436 439
1465 26 347 344 349 354
1466 26 349 344 347 351

Impropers

1 25 49 47 174 45
2 9 43 168 167 169
3 9 43 168 172 169
4 17 167 168 172 169
5 7 43 168 167 172
6 27 176 174 47 169
7 10 379 223 193 222
8 10 379 223 193 224
9 7 379 223 222 224
10 16 222 223 224 193
11 26 281 283 280 285
12 22 430 379 223 193
13 21 430 379 223 378
14 23 430 379 193 378
15 23 223 379 193 378
16 24 447 281 278 283
17 25 174 176 124 120
18 26 276 278 281 116
19 25 177 49 47 50
20 24 56 177 49 124
21 24 56 15 13 17
22 25 276 277 280 275
23 2 287 282 279 280
24 2 287 282 483 280
25 13 280 282 279 483
26 3 287 282 279 483
27 24 282 280 283 277
28 30 283 285 286 449
29 24 274 276 277 278
30 25 176 124 177 127
31 27 14 12 11 9
32 30 278 116 227 114
33 12 15 56 177 132
34 12 15 56 177 57
35 13 15 56 132 57
36 13 177 56 132 57
37 25 15 13 11 53
38 25 13 11 12 10
39 3 282 287 289 288
40 3 282 287 289 489
41 3 282 287 288 489
42 14 289 287 288 489
43 9 379 430 432 380
44 9 379 430 428 380
45 17 432 430 428 380
46 7 379 430 432 428
47 25 14 17 15 18
48 3 345 403 401 407
49 3 345 403 401 399
50 3 345 403 407 399
51 14 401 403 407 399
52 24 345 349 354 344
53 2 403 345 346 349
54 2 403 345 340 349
55 13 349 345 346 340
56 3 403 345 346 340
57 25 12 14 17 16
58 13 281 447 446 450
59 13 281 447 446 448
60 13 281 447 450 448
61 14 446 447 450 448
62 25 353 350 343 517
63 22 528 531 532 527
64 21 528 531 532 533
65 23 528 531 527 533
66 23 532 531 527 533
67 11 531 532 534 508
68 11 531 532 534 530
69 7 531 532 508 530
70 17 508 532 530 534
71 8 531 528 507 527
72 8 531 528 529 527
73 16 507 528 529 527
74 7 531 528 507 529
75 25 128 180 185 179
76 25 130 128 180 126
77 27 388 384 386 380
78 25 350 343 342 339
79 9 251 131 134 129
80 9 251 131 133 129
81 17 134 131 133 129
82 7 251 131 134 133
83 27 128 130 135 129
84 25 384 388 392 387
85 25 388 392 334 335
86 22 131 251 250 125
87 21 131 251 250 248
88 23 131 251 125 248
89 23 250 251 125 248
90 24 337 334 390 392
91 25 390 386 384 382
92 10 251 250 125 103
93 10 251 250 125 102
94 7 251 250 103 102
95 16 103 250 102 125
96 22 294 123 121 291
97 21 294 123 121 292
98 23 294 123 291 292
99 23 121 123 291 292
100 11 123 121 241 119
101 11 123 121 241 122
102 7 123 121 119 122
103 17 119 121 122 241
104 25 334 390 386 391
105 24 337 342 348 343
106 12 342 337 334 338
107 12 342 337 334 336
108 13 342 337 338 336
109 13 334 337 338 336
110 25 136 135 130 137
111 24 187 185 136 180
112 10 368 372 370 375
113 10 368 372 370 373
114 7 368 372 375 373
115 16 375 372 373 370
116 30 109 155 153 37
117 8 123 294 297 291
118 8 123 294 249 291
119 16 297 294 249 291
120 7 123 294 297 249
121 8 472 269 271 466
122 8 472 269 270 466
123 16 271 269 270 466
124 7 472 269 271 270
125 25 342 348 352 284
126 25 185 136 135 191
127 12 186 187 185 189
128 12 186 187 185 183
129 13 186 187 189 183
130 13 185 187 189 183
131 2 510 319 316 321
132 2 510 319 465 321
133 13 321 319 316 465
134 3 510 319 316 465
135 26 347 351 356 173
136 26 356 354 349 357
137 13 356 361 363 360
138 13 356 361 363 362
139 13 356 361 360 362
140 14 363 361 360 362
141 24 361 356 351 354
142 30 354 357 359 355
143 3 63 545 576 572
144 3 63 545 576 546
145 3 63 545 572 546
146 14 576 545 572 546
147 13 322 152 154 151
148 13 322 152 154 150
149 13 322 152 151 150
150 14 154 152 151 150
151 29 84 317 464 320
152 30 325 327 156 329
153 3 328 383 512 381
154 3 328 383 512 389
155 3 328 383 381 389
156 14 512 383 381 389
157 26 326 325 322 327
158 24 328 326 323 325
159 1 383 328 326 385
160 1 383 328 326 332
161 3 383 328 385 332
162 13 326 328 385 332
163 24 152 322 325 320
164 26 321 320 322 317
165 25 326 323 321 324
166 24 319 321 320 323
167 26 67 65 64 542
168 30 65 542 547 540
169 24 63 64 65 66
170 24 69 67 70 65
171 13 67 69 46 44
172 13 67 69 46 48
173 13 67 69 44 48
174 14 46 69 44 48
175 26 68 70 67 72
176 2 545 63 98 64
177 2 545 63 539 64
178 13 64 63 98 539
179 3 545 63 98 539
180 25 68 66 64 100
181 30 70 72 74 73
182 24 71 68 66 70
183 10 140 257 139 258
184 10 140 257 139 254
185 7 140 257 258 254
186 16 258 257 254 139
187 10 568 569 564 451
188 10 568 569 564 567
189 7 568 569 451 567
190 16 451 569 567 564
191 24 219 218 425 216
192 22 571 568 569 564
193 21 571 568 569 565
194 23 571 568 564 565
195 23 569 568 564 565
196 25 502 503 500 505
197 11 4 8 9 6
198 11 4 8 9 7
199 7 4 8 6 7
200 17 6 8 7 9
201 24 31 30 33 23
202 25 26 22 23 20
203 10 108 105 107 104
204 10 108 105 107 106
205 7 108 105 104 106
206 16 104 105 106 107
207 8 4 3 99 1
208 8 4 3 2 1
209 16 99 3 2 1
210 7 4 3 99 2
211 1 85 89 111 225
212 1 85 89 111 62
213 3 85 89 225 62
214 13 111 89 225 62
215 25 371 188 216 184
216 25 22 23 30 21
217 30 91 95 97 96
218 22 3 4 8 1
219 21 3 4 8 5
220 23 3 4 1 5
221 23 8 4 1 5
222 27 188 371 374 369
223 9 368 367 364 369
224 9 368 367 365 369
225 17 364 367 365 369
226 7 368 367 364 365
227 25 500 498 497 496
228 25 425 374 371 376
229 3 89 85 110 83
230 3 89 85 110 87
231 3 89 85 83 87
232 14 110 85 83 87
233 3 71 204 203 202
234 3 71 204 203 205
235 3 71 204 202 205
236 14 203 204 202 205
237 27 498 500 503 501
238 25 499 502 503 463
239 27 22 26 32 534
240 24 31 29 24 25
241 25 33 32 26 535
242 25 498 497 499 495
243 25 188 216 218 215
244 1 204 71 68 75
245 1 204 71 68 101
246 3 204 71 75 101
247 13 68 71 75 101
248 12 30 31 29 35
249 12 30 31 29 34
250 13 30 31 35 34
251 13 29 31 35 34
252 13 112 92 93 94
253 13 112 92 93 38
254 13 112 92 94 38
255 14 93 92 94 38
256 24 89 111 268 91
257 26 111 91 112 95
258 24 92 112 91 109
259 26 112 109 267 155
260 25 29 24 148 28
261 9 108 504 506 501
262 9 108 504 582 501
263 17 506 504 582 501
264 7 108 504 506 582
265 25 218 425 374 426
266 25 30 33 32 36
267 22 504 108 105 107
268 21 504 108 105 19
269 23 504 108 107 19
270 23 105 108 107 19
271 25 24 148 146 145
272 22 367 368 372 370
273 21 367 368 372 366
274 23 367 368 370 366
275 23 372 368 370 366
276 25 186 182 181 178
277 27 470 469 331 467
278 25 469 470 585 468
279 25 333 331 469 330
280 25 470 585 516 584
281 25 516 333 331 272
282 24 515 516 333 585
283 25 58 60 190 61
284 25 60 190 186 192
285 24 187 186 182 190
286 12 516 515 475 513
287 12 516 515 475 514
288 13 516 515 513 514
289 13 475 515 513 514
290 24 515 475 477 478
291 25 475 477 479 562
292 25 577 578 580 579
293 25 480 478 475 476
294 24 229 231 201 445
295 22 523 521 520 519
296 21 523 521 520 525
297 23 523 521 519 525
298 23 520 521 519 525
299 3 165 162 160 161
300 3 165 162 160 159
301 3 165 162 161 159
302 14 160 162 161 159
303 1 113 274 276 117
304 1 113 274 276 273
305 3 113 274 117 273
306 13 276 274 117 273
307 11 472 473 467 471
308 11 472 473 467 443
309 7 472 473 471 443
310 17 471 473 443 467
311 8 521 523 522 519
312 8 521 523 526 519
313 16 522 523 526 519
314 7 521 523 522 526
315 24 165 347 344 351
316 1 162 165 347 164
317 1 162 165 347 166
318 3 162 165 164 166
319 13 347 165 164 166
320 10 43 41 39 42
321 10 43 41 39 40
322 7 43 41 42 40
323 16 42 41 40 39
324 25 231 201 404 237
325 25 477 479 482 563
326 22 168 43 41 39
327 21 168 43 41 170
328 23 168 43 39 170
329 23 41 43 39 170
330 3 274 113 115 158
331 3 274 113 115 157
332 3 274 113 158 157
333 14 115 113 158 157
334 24 581 580 456 578
335 8 79 78 80 77
336 8 79 78 76 77
337 16 80 78 76 77
338 7 79 78 80 76
339 27 60 58 181 59
340 8 247 244 242 243
341 8 247 244 245 243
342 16 242 244 245 243
343 7 247 244 242 245
344 24 295 499 502 497
345 25 462 255 217 256
346 25 439 393 442 395
347 11 521 520 358 518
348 11 521 520 358 524
349 7 521 520 518 524
350 17 518 520 524 358
351 12 233 229 231 228
352 12 233 229 231 226
353 13 233 229 228 226
354 13 231 229 228 226
355 25 482 480 478 481
356 25 235 239 238 240
357 24 229 233 235 232
358 25 233 235 239 236
359 8 312 311 308 313
360 8 312 311 314 313
361 16 308 311 314 313
362 7 312 311 308 314
363 11 211 208 413 206
364 11 211 208 413 209
365 7 211 208 206 209
366 17 206 208 209 413
367 25 234 232 233 230
368 22 487 490 492 486
369 21 487 490 492 488
370 23 487 490 486 488
371 23 492 490 486 488
372 10 490 492 486 493
373 10 490 492 486 494
374 7 490 492 493 494
375 16 493 492 494 486
376 9 490 487 485 484
377 9 490 487 491 484
378 17 485 487 491 484
379 7 490 487 485 491
380 25 415 418 417 419
381 27 480 482 479 484
382 27 415 414 412 413
383 24 581 417 455 418
384 25 414 415 418 416
385 25 417 455 412 454
386 25 455 412 414 411
387 12 417 581 580 460
388 12 417 581 580 549
389 13 417 581 460 549
390 13 580 581 460 549
391 25 238 234 232 118
392 22 311 312 310 313
393 21 311 312 310 315
394 23 311 312 313 315
395 23 310 312 313 315
396 27 234 238 239 241
397 27 350 353 352 358
398 22 210 211 208 213
399 21 210 211 208 214
400 23 210 211 213 214
401 23 208 211 213 214
402 25 348 352 353 290
403 8 211 210 207 213
404 8 211 210 212 213
405 16 207 210 212 213
406 7 211 210 207 212
407 22 269 472 473 466
408 21 269 472 473 474
409 23 269 472 466 474
410 23 473 472 466 474
411 25 580 456 453 457
412 25 397 445 231 444
413 25 149 25 29 27
414 25 146 149 25 147
415 30 351 173 171 175
416 3 262 263 264 259
417 3 262 263 264 265
418 3 262 263 259 265
419 14 264 263 259 265
420 25 182 181 58 51
421 22 78 79 55 77
422 21 78 79 55 81
423 23 78 79 77 81
424 23 55 79 77 81
425 25 575 577 578 574
426 22 142 140 257 139
427 21 142 140 257 138
428 23 142 140 139 138
429 23 257 140 139 138
430 5 86 84 82 317
431 5 86 84 552 317
432 15 82 84 552 317
433 4 86 84 82 552
434 11 79 55 59 54
435 11 79 55 59 52
436 7 79 55 54 52
437 17 54 55 52 59
438 27 577 575 453 573
439 25 201 404 400 409
440 6 86 561 558 90
441 6 86 561 558 537
442 4 86 561 90 537
443 17 90 561 537 558
444 25 400 397 445 396
445 27 397 400 404 402
446 9 405 406 410 402
447 9 405 406 408 402
448 17 410 406 408 402
449 7 405 406 410 408
450 22 406 405 544 543
451 21 406 405 544 538
452 23 406 405 543 538
453 23 544 405 543 538
454 10 405 544 543 548
455 10 405 544 543 541
456 7 405 544 548 541
457 16 548 544 541 543
458 3 319 510 583 509
459 3 319 510 583 511
460 3 319 510 509 511
461 14 583 510 509 511
462 22 196 197 195 199
463 21 196 197 195 200
464 23 196 197 199 200
465 23 195 197 199 200
466 8 197 196 198 199
467 8 197 196 194 199
468 16 198 196 194 199
469 7 197 196 198 194
470 19 84 86 561 559
471 18 84 86 561 88
472 20 84 86 559 88
473 20 561 86 559 88
474 11 247 252 461 253
475 11 247 252 461 459
476 7 247 252 253 459
477 17 253 252 459 461
478 27 255 462 421 461
479 22 244 247 252 243
480 21 244 247 252 246
481 23 244 247 243 246
482 23 252 247 243 246
483 9 140 142 141 143
484 9 140 142 144 143
485 17 141 142 144 143
486 7 140 142 141 144
487 9 568 571 566 573
488 9 568 571 570 573
489 17 566 571 570 573
490 7 568 571 566 570
491 25 423 421 462 420
492 25 456 453 575 452
493 27 560 556 554 558
494 25 304 301 298 300
495 27 149 146 148 143
496 25 302 305 304 307
497 27 301 304 305 306
498 25 111 268 267 266
499 25 301 298 299 296
500 25 555 553 554 550
501 12 299 295 499 293
502 12 299 295 499 458
503 13 299 295 293 458
504 13 499 295 293 458
505 24 434 555 553 557
506 24 219 424 423 217
507 27 438 442 393 394
508 11 197 195 394 163
509 11 197 195 394 398
510 7 197 195 163 398
511 17 163 195 398 394
512 25 299 302 305 303
513 25 255 217 424 220
514 25 560 557 555 440
515 25 556 560 557 536
516 24 434 436 439 435
517 11 312 310 306 309
518 11 312 310 306 377
519 7 312 310 309 377
520 17 309 310 377 306
521 25 442 438 435 437
522 25 436 439 393 441
523 24 295 299 302 298
524 24 262 267 109 268
525 2 263 262 261 267
526 2 263 262 260 267
527 13 267 262 261 260
528 3 263 262 261 260
529 25 553 554 556 551
530 25 424 423 421 422
531 12 424 219 218 221
532 12 424 219 218 427
533 13 424 219 221 427
534 13 218 219 221 427
535 25 438 435 436 433
536 12 436 434 555 431
537 12 436 434 555 429
538 13 436 434 431 429
539 13 555 434 431 429
540 25 347 344 349 341
