LAMMPS data file via write_data, version 4 Jul 2026, timestep = 2227750, units = real

585 atoms
11 atom types
615 bonds
18 bond types
1090 angles
35 angle types
1520 dihedrals
48 dihedral types
540 impropers
30 improper types

1.3975336971738361 19.756245312823353 xlo xhi
1.3975336971738361 19.756245312823353 ylo yhi
1.3975336971738361 19.756245312823353 zlo zhi

Masses

1 12.01115
2 12.01115
3 12.01115
4 12.01115
5 1.00797
6 1.00797
7 1.00797
8 14.0067
9 15.9994
10 15.9994
11 15.9994

Pair Coeffs # lj/class2/coul/long

1 0.054 4.01
2 0.054 4.01
3 0.054 4.01
4 0.064 4.01
5 0.02 2.995
6 0.013 1.098
7 0.013 1.098
8 0.065 4.07
9 0.24 3.535
10 0.24 3.535
11 0.24 3.535

Bond Coeffs # class2

1 1.53 299.67 -501.77 679.81
2 1.53 299.67 -501.77 679.81
3 1.53 299.67 -501.77 679.81
4 1.501 321.902 -521.821 572.163
5 1.101 345 -691.89 844.6
6 1.457 365.805 -699.637 998.484
7 1.42 400.395 -835.195 1313.01
8 1.42 400.395 -835.195 1313.01
9 1.101 345 -691.89 844.6
10 1.42 400.395 -835.195 1313.01
11 1.101 345 -691.89 844.6
12 1.42 400.395 -835.195 1313.01
13 1.417 470.836 -627.618 1327.63
14 1.0982 372.825 -803.453 894.317
15 1.412 257.775 0 0
16 1.3768 428.88 -738.235 1114.97
17 1.006 466.74 -1073.6 1251.11
18 0.965 532.506 -1282.9 2004.77

Angle Coeffs # class2

1 108.4 43.9594 -8.3924 -9.3379
2 110.77 41.453 -10.604 5.129
3 112.67 39.516 -7.443 -9.5583
4 110.77 41.453 -10.604 5.129
5 111.27 54.5381 -8.3642 -13.0838
6 112.67 39.516 -7.443 -9.5583
7 110.77 41.453 -10.604 5.129
8 111.27 54.5381 -8.3642 -13.0838
9 120.05 44.7148 -22.7352 0
10 112.444 47.2337 -10.6612 -10.2062
11 109 80 0 0
12 110.954 50.8652 -4.4522 -10.0298
13 104.5 35.7454 -10.0067 -6.2729
14 102.969 38.9739 -6.2595 -8.171
15 110.77 41.453 -10.604 5.129
16 111.91 60.7147 -13.3366 -13.0785
17 111.27 54.5381 -8.3642 -13.0838
18 105.8 52.7061 -12.109 -9.8681
19 110.77 41.453 -10.604 5.129
20 111.27 54.5381 -8.3642 -13.0838
21 111.27 54.5381 -8.3642 -13.0838
22 111 44.3234 -9.4454 0
23 111 44.3234 -9.4454 0
24 118.9 61.0226 -34.9931 0
25 117.94 35.1558 -12.4682 0
26 120 102 0 0
27 123.42 73.6781 -21.6787 0
28 110 41.6 0 0
29 107.66 39.641 -12.921 -2.4318
30 110.62 51.3137 -6.7198 -2.6003
31 108.728 58.5446 -10.8088 -12.4006
32 108.728 58.5446 -10.8088 -12.4006
33 108.728 58.5446 -10.8088 -12.4006
34 108.728 58.5446 -10.8088 -12.4006
35 107.067 45.252 -7.5558 -9.512

BondBond Coeffs

1 0 1.53 1.501
2 3.3872 1.53 1.101
3 0 1.53 1.53
4 3.3872 1.53 1.101
5 11.4318 1.53 1.42
6 0 1.53 1.53
7 3.3872 1.53 1.101
8 11.4318 1.53 1.42
9 12.0676 1.501 1.417
10 -2.1113 1.457 1.457
11 0 1.457 1.412
12 -6.4168 1.457 1.006
13 -7.1131 1.42 1.42
14 0 1.42 1.3768
15 3.3872 1.53 1.101
16 4.6217 1.53 1.457
17 11.4318 1.53 1.42
18 -9.6879 1.42 0.965
19 3.3872 1.53 1.101
20 11.4318 1.53 1.42
21 11.4318 1.53 1.42
22 0 1.501 1.501
23 2.9168 1.501 1.101
24 68.2856 1.417 1.417
25 1.0795 1.417 1.0982
26 0 1.417 1.412
27 48.4754 1.417 1.3768
28 0 1.412 1.006
29 5.3316 1.101 1.101
30 12.426 1.101 1.457
31 23.1979 1.101 1.42
32 23.1979 1.101 1.42
33 23.1979 1.101 1.42
34 23.1979 1.101 1.42
35 -1.8749 1.006 1.006

BondAngle Coeffs

1 0 0 1.53 1.501
2 20.754 11.421 1.53 1.101
3 8.016 8.016 1.53 1.53
4 20.754 11.421 1.53 1.101
5 2.6868 20.4033 1.53 1.42
6 8.016 8.016 1.53 1.53
7 20.754 11.421 1.53 1.101
8 2.6868 20.4033 1.53 1.42
9 47.0579 31.0771 1.501 1.417
10 -7.2229 -7.2229 1.457 1.457
11 0 0 1.457 1.412
12 31.8096 20.5799 1.457 1.006
13 -2.8112 -2.8112 1.42 1.42
14 0 0 1.42 1.3768
15 20.754 11.421 1.53 1.101
16 6.0876 16.5702 1.53 1.457
17 2.6868 20.4033 1.53 1.42
18 28.58 18.9277 1.42 0.965
19 20.754 11.421 1.53 1.101
20 2.6868 20.4033 1.53 1.42
21 2.6868 20.4033 1.53 1.42
22 0 0 1.501 1.501
23 26.4608 11.7717 1.501 1.101
24 28.8708 28.8708 1.417 1.417
25 20.0033 24.2183 1.417 1.0982
26 0 0 1.417 1.412
27 58.479 107.681 1.417 1.3768
28 0 0 1.412 1.006
29 18.103 18.103 1.101 1.101
30 13.4582 42.4332 1.101 1.457
31 4.6189 55.327 1.101 1.42
32 4.6189 55.327 1.101 1.42
33 4.6189 55.327 1.101 1.42
34 4.6189 55.327 1.101 1.42
35 28.0322 28.0322 1.006 1.006

Dihedral Coeffs # class2

1 -0.2802 0 -0.0678 0 -0.0122 0
2 0 0 0.0316 0 -0.1681 0
3 0.1764 0 0.1766 0 -0.5206 0
4 0.7137 0 0.266 0 -0.2545 0
5 -0.6732 0 -0.4778 0 -0.167 0
6 0 0 0.0316 0 -0.1681 0
7 0.7137 0 0.266 0 -0.2545 0
8 0.7137 0 0.266 0 -0.2545 0
9 -0.5203 0 -0.3028 0 -0.345 0
10 0 0 4.4072 0 0 0
11 0 0 1.559 0 0 0
12 0 0 3 0 0 0
13 -0.1406 0 0.4168 0 0.015 0
14 0.1904 0 -0.1342 0 -0.246 0
15 0 0 2.25 0 0 0
16 0.5302 0 0 0 -0.3966 0
17 0 0 1.5 0 0 0
18 0 0 0 0 0.05 180
19 -1.1506 0 -0.6344 0 -0.1845 0
20 0 0 0 0 0.13 180
21 0 0 0 0 0.13 180
22 0.5302 0 0 0 -0.3966 0
23 -0.0228 0 0.028 0 -0.1863 0
24 -0.2802 0 -0.0678 0 -0.0122 0
25 -0.2801 0 -0.0678 0 -0.0122 0
26 8.3667 0 1.1932 0 0 0
27 0 0 3.9661 0 0 0
28 0 0 3 0 0 0
29 0 0 4.8498 0 0 0
30 0 0 2.25 0 0 0
31 0 0 0 0 0.05 180
32 0.9513 0 0.1155 0 0.072 0
33 -0.1432 0 0.0617 0 -0.1083 0
34 -0.1432 0 0.0617 0 -0.1083 0
35 -0.1435 0 0.253 0 -0.0905 0
36 -0.1432 0 0.0617 0 -0.1083 0
37 -0.1435 0 0.253 0 -0.0905 0
38 -0.5187 0 -0.4837 0 -0.1692 0
39 -0.2428 0 0.4065 0 -0.3079 0
40 -0.1435 0 0.253 0 -0.0905 0
41 0.1863 0 -0.4338 0 -0.2121 0
42 -0.1435 0 0.253 0 -0.0905 0
43 -0.1435 0 0.253 0 -0.0905 0
44 0 0 1.8769 0 0 0
45 0 0 1.7234 0 0 0
46 0 0 0 0 0.158 180
47 -0.182 0 -0.1084 0 -0.7047 0
48 -0.182 0 -0.1084 0 -0.7047 0

AngleAngleTorsion Coeffs

1 0 108.4 120.05
2 -16.164 112.67 110.77
3 -27.3953 112.67 111.91
4 -29.042 112.67 111.27
5 -12.1038 111.27 105.8
6 -16.164 112.67 110.77
7 -29.042 112.67 111.27
8 -29.042 112.67 111.27
9 -19.0059 111.27 104.5
10 -14.4097 120.05 118.9
11 4.4444 120.05 117.94
12 0 120.05 120
13 -24.3818 112.444 111.91
14 -12.5567 112.444 110.62
15 0 109 120
16 -16.4438 104.5 108.728
17 0 102.969 123.42
18 0 111.91 109
19 -7.5499 111.91 110.954
20 0 111.27 102.969
21 0 111.27 102.969
22 -16.4438 104.5 108.728
23 0 108.4 110.77
24 0 111 120.05
25 -5.8888 120.05 111
26 0 118.9 118.9
27 -4.8141 118.9 117.94
28 0 118.9 120
29 -21.0247 118.9 123.42
30 0 120 110
31 0 109 110.62
32 0 102.969 108.728
33 -12.564 110.77 110.77
34 -12.564 110.77 110.77
35 -20.2006 110.77 111.27
36 -12.564 110.77 110.77
37 -20.2006 110.77 111.27
38 -10.4258 110.62 110.954
39 -15.7572 110.77 111.91
40 -20.2006 110.77 111.27
41 -10.5093 108.728 105.8
42 -20.2006 110.77 111.27
43 -20.2006 110.77 111.27
44 0.3598 117.94 117.94
45 4.2296 117.94 123.42
46 0 111.91 111.27
47 -14.0484 111.27 111.27
48 -14.0484 111.27 111.27

EndBondTorsion Coeffs

1 0 0 0 0 0 0 1.53 1.417
2 0.2486 0.2422 -0.0925 0.0814 0.0591 0.2219 1.53 1.101
3 0.1032 0.5896 -0.4836 0.0579 -0.0043 -0.1906 1.53 1.457
4 -0.319 0.4411 -0.7174 1.1538 0.8409 -0.9138 1.53 1.42
5 -0.58 0.9004 0 0 0.5343 0.9025 1.53 0.965
6 0.2486 0.2422 -0.0925 0.0814 0.0591 0.2219 1.53 1.101
7 -0.319 0.4411 -0.7174 1.1538 0.8409 -0.9138 1.53 1.42
8 -0.319 0.4411 -0.7174 1.1538 0.8409 -0.9138 1.53 1.42
9 -0.2456 1.0517 -0.7795 0.4741 1.2635 0.5576 1.53 1.42
10 0 0.2421 0 0 -0.6918 0 1.501 1.417
11 0 -1.797 0 0 -0.4879 0 1.501 1.0982
12 0 0 0 0 0 0 1.501 1.412
13 -0.0128 -0.0495 -0.1079 0.0997 -0.0046 -0.2657 1.457 1.53
14 0.0628 0.0873 -0.0882 -0.5892 0.714 0.3505 1.457 1.101
15 0 0 0 0 0 0 1.457 1.417
16 -0.162 0.1564 -1.1408 -0.6054 1.3339 0.9648 1.42 1.101
17 0 0 0 0 0 0 1.42 1.417
18 0 0 0 0 0 0 1.53 1.412
19 -0.9466 0.9356 -0.5542 0.057 0.0625 0.4112 1.53 1.006
20 0 0 0 0 0 0 1.53 1.3768
21 0 0 0 0 0 0 1.53 1.3768
22 -0.162 0.1564 -1.1408 -0.6054 1.3339 0.9648 1.42 1.101
23 0 0 0 0 0 0 1.501 1.101
24 0 0 0 0 0 0 1.501 1.417
25 -0.5835 1.122 0.3978 1.3997 0.7756 0 1.417 1.101
26 -0.1185 6.3204 0 -0.1185 6.3204 0 1.417 1.417
27 0 -6.8958 0 0 -0.4669 0 1.417 1.0982
28 0 0 0 0 0 0 1.417 1.412
29 0 0.2655 0 0 4.8905 0 1.417 1.3768
30 0 0 0 0 0 0 1.417 1.006
31 0 0 0 0 0 0 1.412 1.101
32 0 0 0 0 0 0 1.3768 1.101
33 0.213 0.312 0.0777 0.213 0.312 0.0777 1.101 1.101
34 0.213 0.312 0.0777 0.213 0.312 0.0777 1.101 1.101
35 0.9681 0.9551 0.0436 0.5903 0.6669 0.8584 1.101 1.42
36 0.213 0.312 0.0777 0.213 0.312 0.0777 1.101 1.101
37 0.9681 0.9551 0.0436 0.5903 0.6669 0.8584 1.101 1.42
38 -1.1685 0.9266 -0.0993 0.085 0.3061 0.2104 1.101 1.006
39 0.196 0.7056 0.112 0.1022 0.209 0.6433 1.101 1.457
40 0.9681 0.9551 0.0436 0.5903 0.6669 0.8584 1.101 1.42
41 -1.7554 1.3145 0.2263 0.2493 0.6803 0 1.101 0.965
42 0.9681 0.9551 0.0436 0.5903 0.6669 0.8584 1.101 1.42
43 0.9681 0.9551 0.0436 0.5903 0.6669 0.8584 1.101 1.42
44 0 -0.689 0 0 -0.689 0 1.0982 1.0982
45 0 -1.5867 0 0 4.2641 0 1.0982 1.3768
46 0 0 0 0 0 0 1.457 1.42
47 1.0165 0.7553 -0.4609 1.0165 0.7553 -0.4609 1.42 1.42
48 1.0165 0.7553 -0.4609 1.0165 0.7553 -0.4609 1.42 1.42

MiddleBondTorsion Coeffs

1 0 0 0 1.501
2 -14.879 -3.6581 -0.3138 1.53
3 -15.4174 -7.3055 -1.0749 1.53
4 -21.8842 -7.6764 -0.6868 1.53
5 1.2472 0 0.7485 1.42
6 -14.879 -3.6581 -0.3138 1.53
7 -21.8842 -7.6764 -0.6868 1.53
8 -21.8842 -7.6764 -0.6868 1.53
9 -5.9288 -2.7007 -0.3175 1.42
10 0 9.1792 0 1.417
11 0 3.9421 0 1.417
12 0 0 0 1.417
13 -8.0036 -7.7321 -3.064 1.457
14 -6.4529 -6.8122 -1.1632 1.457
15 0 0 0 1.412
16 -6.8007 -4.6546 -1.4101 1.42
17 0 0 0 1.3768
18 0 0 0 1.457
19 -2.2208 0.5479 -0.3527 1.457
20 0 0 0 1.42
21 0 0 0 1.42
22 -6.8007 -4.6546 -1.4101 1.42
23 0 0 0 1.53
24 0 0 0 1.501
25 -5.5679 1.4083 0.301 1.501
26 27.5989 -2.312 0 1.417
27 0 -1.1521 0 1.417
28 0 0 0 1.417
29 0 4.8255 0 1.417
30 0 0 0 1.412
31 0 0 0 1.457
32 0 0 0 1.42
33 -14.261 -0.5322 -0.4864 1.53
34 -14.261 -0.5322 -0.4864 1.53
35 -16.7975 -1.2296 -0.275 1.53
36 -14.261 -0.5322 -0.4864 1.53
37 -16.7975 -1.2296 -0.275 1.53
38 -3.4611 1.6996 -0.6007 1.457
39 -10.4959 -0.7647 -0.0545 1.53
40 -16.7975 -1.2296 -0.275 1.53
41 0 0.9241 -0.5889 1.42
42 -16.7975 -1.2296 -0.275 1.53
43 -16.7975 -1.2296 -0.275 1.53
44 0 4.8228 0 1.417
45 0 5.5432 0 1.417
46 0 0 0 1.53
47 -17.2585 -3.6157 -0.8364 1.53
48 -17.2585 -3.6157 -0.8364 1.53

BondBond13 Coeffs

1 0 1.53 1.417
2 0 1.53 1.101
3 0 1.53 1.457
4 0 1.53 1.42
5 0 1.53 0.965
6 0 1.53 1.101
7 0 1.53 1.42
8 0 1.53 1.42
9 0 1.53 1.42
10 2.5085 1.501 1.417
11 0.8743 1.501 1.0982
12 0 1.501 1.412
13 0 1.457 1.53
14 0 1.457 1.101
15 0 1.457 1.417
16 0 1.42 1.101
17 0 1.42 1.417
18 0 1.53 1.412
19 0 1.53 1.006
20 0 1.53 1.3768
21 0 1.53 1.3768
22 0 1.42 1.101
23 0 1.501 1.101
24 0 1.501 1.417
25 -3.4826 1.417 1.101
26 53 1.417 1.417
27 -6.2741 1.417 1.0982
28 0 1.417 1.412
29 -2.2436 1.417 1.3768
30 0 1.417 1.006
31 0 1.412 1.101
32 0 1.3768 1.101
33 0 1.101 1.101
34 0 1.101 1.101
35 0 1.101 1.42
36 0 1.101 1.101
37 0 1.101 1.42
38 0 1.101 1.006
39 0 1.101 1.457
40 0 1.101 1.42
41 0 1.101 0.965
42 0 1.101 1.42
43 0 1.101 1.42
44 -1.7077 1.0982 1.0982
45 2.0517 1.0982 1.3768
46 0 1.457 1.42
47 0 1.42 1.42
48 0 1.42 1.42

AngleTorsion Coeffs

1 0 0 0 0 0 0 108.4 120.05
2 -0.2454 0 -0.1136 0.3113 0.4516 -0.1988 112.67 110.77
3 -1.9225 -1.345 0.221 2.0125 0.944 -2.7612 112.67 111.91
4 0.5623 -0.3041 -0.4015 0.9672 -0.7566 -1.2331 112.67 111.27
5 -3.5903 2.5225 0.4888 0.8726 -0.3577 0.3888 111.27 105.8
6 -0.2454 0 -0.1136 0.3113 0.4516 -0.1988 112.67 110.77
7 0.5623 -0.3041 -0.4015 0.9672 -0.7566 -1.2331 112.67 111.27
8 0.5623 -0.3041 -0.4015 0.9672 -0.7566 -1.2331 112.67 111.27
9 -2.7466 1.4877 -0.8955 0.5676 0.945 0.0703 111.27 104.5
10 0 -4.4683 0 0 3.8987 0 120.05 118.9
11 0 -0.1242 0 0 3.4601 0 120.05 117.94
12 0 0 0 0 0 0 120.05 120
13 1.2031 1.3645 -0.7071 -2.7883 1.5193 1.4796 112.444 111.91
14 -1.3582 0.1465 -0.5729 -2.6321 0.9353 -0.8398 112.444 110.62
15 0 0 0 0 0 0 109 120
16 -0.7777 0.434 -0.6653 -1.8234 1.6393 0.5144 104.5 108.728
17 0 0 0 0 0 0 102.969 123.42
18 0 0 0 0 0 0 111.91 109
19 -3.343 4.4558 -0.0346 0.2873 -0.8072 -0.096 111.91 110.954
20 0 0 0 0 0 0 111.27 102.969
21 0 0 0 0 0 0 111.27 102.969
22 -0.7777 0.434 -0.6653 -1.8234 1.6393 0.5144 104.5 108.728
23 0 0 0 0 0 0 108.4 110.77
24 0 0 0 0 0 0 111 120.05
25 0.2251 0.6548 0.1237 4.6266 0.1632 0.0461 120.05 111
26 1.9767 1.0239 0 1.9767 1.0239 0 118.9 118.9
27 0 2.5014 0 0 2.7147 0 118.9 117.94
28 0 0 0 0 0 0 118.9 120
29 0 10.0155 0 0 1.7404 0 118.9 123.42
30 0 0 0 0 0 0 120 110
31 0 0 0 0 0 0 109 110.62
32 0 0 0 0 0 0 102.969 108.728
33 -0.8085 0.5569 -0.2466 -0.8085 0.5569 -0.2466 110.77 110.77
34 -0.8085 0.5569 -0.2466 -0.8085 0.5569 -0.2466 110.77 110.77
35 2.3668 2.492 -1.0122 -0.1892 0.4918 0.7273 110.77 111.27
36 -0.8085 0.5569 -0.2466 -0.8085 0.5569 -0.2466 110.77 110.77
37 2.3668 2.492 -1.0122 -0.1892 0.4918 0.7273 110.77 111.27
38 -3.9582 2.0063 0.3213 -0.4294 -0.4442 -0.6141 110.62 110.954
39 0.5111 1.6328 -1.0155 -1.1075 0.282 0.8318 110.77 111.91
40 2.3668 2.492 -1.0122 -0.1892 0.4918 0.7273 110.77 111.27
41 -3.406 1.6396 0.0737 0 -0.281 -0.5944 108.728 105.8
42 2.3668 2.492 -1.0122 -0.1892 0.4918 0.7273 110.77 111.27
43 2.3668 2.492 -1.0122 -0.1892 0.4918 0.7273 110.77 111.27
44 0 2.4501 0 0 2.4501 0 117.94 117.94
45 0 1.8729 0 0 2.5706 0 117.94 123.42
46 0 0 0 0 0 0 111.91 111.27
47 0.5511 0.9737 -0.6673 0.5511 0.9737 -0.6673 111.27 111.27
48 0.5511 0.9737 -0.6673 0.5511 0.9737 -0.6673 111.27 111.27

Improper Coeffs # class2

1 0 0
2 0 0
3 0 0
4 0 0
5 0 0
6 0 0
7 0 0
8 0 0
9 0 0
10 0 0
11 0 0
12 0 0
13 0 0
14 0 0
15 0 0
16 0 0
17 0 0
18 0 0
19 0 0
20 0 0
21 0 0
22 0 0
23 0 0
24 7.8153 0
25 4.8912 0
26 0 0
27 13.0421 0
28 0 0
29 0 0
30 0 0

AngleAngle Coeffs

1 2.0403 -1.8202 1.0827 108.4 110.77 111
2 1.0827 -1.8202 2.0403 110.77 108.4 111
3 0.2738 -0.4825 0.2738 110.77 110.77 107.66
4 0.2738 -0.4825 0.2738 110.77 110.77 107.66
5 2.4286 0.5381 -2.5301 110.77 111.91 110.62
6 0.1689 2.5926 3.9177 111.27 110.77 108.728
7 0.2738 -0.4825 0.2738 110.77 110.77 107.66
8 3.9177 2.5926 0.1689 110.77 111.27 108.728
9 3.9177 2.5926 0.1689 110.77 111.27 108.728
10 0.1689 2.5926 3.9177 111.27 110.77 108.728
11 0.1689 2.5926 3.9177 111.27 110.77 108.728
12 0 0 0 111 111 111
13 2.3794 3.0118 2.3794 111 111 107.66
14 -0.3157 -0.3157 -0.3157 107.66 107.66 107.66
15 2.4321 2.4321 -3.5496 107.66 110.62 110.62
16 2.4259 2.4259 2.1283 107.66 108.728 108.728
17 2.4259 2.4259 2.1283 107.66 108.728 108.728
18 -1.3199 -1.3199 0.1184 112.67 110.77 110.77
19 -0.833 -0.833 -3.5744 112.67 111.27 111.27
20 0.1689 2.5926 3.9177 111.27 110.77 108.728
21 -1.3199 -1.3199 0.1184 112.67 110.77 110.77
22 -0.833 -0.833 -3.5744 112.67 111.27 111.27
23 0.1689 2.5926 3.9177 111.27 110.77 108.728
24 0 0 0 120.05 120.05 118.9
25 0 0 0 118.9 117.94 117.94
26 0 0 0 118.9 120 120
27 0 0 0 118.9 123.42 123.42
28 0 0 0 112.444 109 109
29 0 0 0 110.954 109 110
30 0 0 0 110 110 107.067

Atoms # full

283 1 4 0 3.464241636088811 8.859853745597473 4.406444870552688 0 0 0
278 1 4 0 3.2972433424569205 7.629799985615672 6.5481062493099875 0 0 0
116 1 8 -0.3314 3.8666303043950645 6.763035879024191 7.497882748302478 0 0 0
114 1 6 0.2487 4.85925047456791 6.625253934180719 7.187257435106988 0 0 0
281 1 4 0 3.9954148120513526 7.927731494137419 5.3279523662041015 0 0 0
361 1 1 -0.159 6.698674383425578 3.176848104802578 6.676550783707278 0 1 0
356 1 4 0 6.64416100275878 3.899818961403319 7.999259248826906 0 1 0
359 1 6 0.2487 8.119339310009906 6.848163542594475 7.349187856910718 0 1 0
357 1 8 -0.3314 7.935411335134438 5.864017328843114 7.2074970137355026 0 1 0
354 1 4 0 7.190529374470196 5.200693486105198 8.16562303074678 0 1 0
447 1 1 -0.159 5.321535294657732 7.225788954275883 5.010121518994457 0 0 0
351 1 4 0 5.983011435225586 3.269558239422415 9.068255072495242 0 1 0
448 1 5 0.053 5.946985037476662 6.923636219484652 5.8466183207681715 0 0 0
446 1 5 0.053 6.02456733808034 7.856077573029395 4.483717857247287 0 0 0
450 1 5 0.053 5.2282549470090505 6.3132707096582585 4.3136110100238865 0 0 0
285 1 8 -0.3314 4.108791346537561 9.066135690315193 3.1356225275299674 0 0 0
286 1 6 0.2487 4.906005372031407 8.47705679150796 2.985493589731796 0 0 0
349 1 4 0 6.980632642702796 5.8776771458749435 9.326681159311041 0 1 0
41 1 1 -0.0233 3.1141185311325765 8.766563332424067 2.1071632647673337 0 0 0
177 1 4 0 8.666801081084019 4.3712197732936655 1.9291244216323835 0 0 0
345 1 1 -0.106 7.465504479547874 7.358578804850331 9.584447685765 0 1 0
401 1 5 0.053 6.488857800421812 8.368036542471755 7.944627865930111 0 1 0
403 1 1 -0.159 6.660790538766686 8.512601400872317 9.04937164043403 0 1 0
399 1 5 0.053 7.304689020115716 9.438316167847049 8.987308952134267 0 1 0
346 1 5 0.053 8.535599858729102 7.414457046957904 9.215483695407379 0 1 0
280 1 4 0 2.387734646765773 9.69742590139166 4.862277996307966 0 0 0
360 1 5 0.053 6.6884110458557355 3.8048653913621036 5.832993462676402 0 1 0
528 1 1 -0.0233 3.163162539354334 5.472535942946577 7.665776409891938 1 0 1
276 1 4 0 2.1447218557514134 8.398345110551649 6.822021543849691 0 0 0
507 1 5 0.053 3.9196742377684584 4.637209631010432 7.9414046484692795 1 0 1
363 1 5 0.053 7.625329123144363 2.5476939564111083 6.693629833398347 0 1 0
222 1 5 0.053 8.774635368405171 4.658450378410908 5.5627727634963104 -1 0 0
223 1 1 -0.0233 9.105550794792755 5.086817927872174 6.58446804975975 -1 0 0
362 1 5 0.053 5.738402757973611 2.6223135988463357 6.474554011090505 0 1 0
347 1 4 0 5.691816902606714 4.020767011845665 10.228783333101632 0 1 0
56 1 1 -0.106 9.443623375080751 3.1253684904521806 2.0810130866958563 0 0 0
277 1 4 -0.1268 1.7258103664401592 9.428779217790058 6.0516229560580275 0 0 0
344 1 4 -0.1268 6.19388532380558 5.288245189679174 10.335385441766268 0 1 0
407 1 5 0.053 5.749553229713442 8.743544497498242 9.54255902098667 0 1 0
47 1 4 -0.1268 7.784776895182319 6.5847823925866145 2.4660080551852204 0 0 0
45 1 5 0.1268 7.7860849893836 7.402753062975117 3.1432149343449787 0 0 0
49 1 4 -0.1268 8.66748148380533 5.496327722338723 2.706104894373826 0 0 0
50 1 5 0.1268 9.486001025161912 5.652608795726974 3.437733172939901 0 0 0
173 1 8 -0.3314 5.577395567491575 1.9169759578041856 8.904539655786419 0 1 0
40 1 5 0.053 2.474651754024507 7.896279801861952 2.329932399623317 0 0 0
42 1 5 0.053 2.511238985368266 9.657911707837206 1.905640229215119 0 0 0
15 1 4 0 10.372417768523073 2.9975771112775056 3.3088555042794083 0 0 0
224 1 5 0.053 9.497126824592963 4.3022203432635475 7.227253405375596 -1 0 0
474 5 5 0.053 2.029156284027487 2.7494383657415957 2.9258595216389636 1 1 1
472 5 3 0.08 1.8239130792780134 3.549498716074089 2.2584286379598772 1 1 1
459 1 5 0.053 8.726258708628638 2.409329039232553 9.448139067313333 0 1 0
452 3 5 0.1268 9.189468784671657 9.833018884138973 10.165467632257046 0 0 0
150 3 5 0.053 7.366691688943068 9.987309484954144 4.78773334696351 0 -1 1
227 1 7 0.4241 3.486495737701393 5.244393414430595 4.85559118855344 0 0 0
432 1 5 0.053 10.473857670451839 7.046579586527793 8.334642921430703 -1 0 0
273 1 5 0.053 1.9530593880140477 7.718277712551492 8.873477027926924 0 0 0
529 1 5 0.053 2.5821880392901084 5.540626459921506 8.62286543782482 1 0 1
117 1 5 0.053 19.658816349067926 9.223763245884928 8.65560871783998 -1 0 0
171 1 6 0.2487 5.854521678639208 1.6564210815573888 7.957034618232765 0 1 0
189 2 5 0.053 8.163592277410858 10.732336440998576 1.5000952015649396 0 0 0
193 1 11 -0.5571 9.969995256018644 7.218800333441806 5.76896973191094 -1 0 0
527 1 11 -0.5571 3.1610918686280662 4.467863806852181 5.3225034064592 1 0 1
531 1 2 0.08 2.3812901235456776 4.989055012659388 6.451810960875872 1 0 1
274 1 1 -0.106 19.714201456077475 8.247133383760103 8.13531942255073 -1 0 0
534 1 10 -0.1595 2.254805337405232 2.7126063514918988 7.453912375329523 1 0 1
576 1 5 0.053 5.238994090719677 19.210418896678938 1.948839332099197 0 0 0
572 1 5 0.053 4.228004327577624 18.035794563340865 2.7319229391688022 0 0 0
57 1 5 0.053 8.73529211566716 2.269346803477977 2.154863484879596 0 0 0
17 1 4 -0.1268 9.980599208874759 2.2689180287965502 4.387366557141728 0 0 0
174 1 4 0.0265 6.839150501315024 6.614125167384205 1.407684267256464 0 0 0
466 5 9 -0.266 1.642946118403772 4.913542975939131 2.8169224165634117 1 1 1
533 1 5 0.053 1.598887484204833 5.66880246263839 6.048339127409519 1 0 1
379 1 2 0.08 10.29324926245398 6.015657845713307 6.449788219930349 -1 0 0
545 1 1 -0.159 5.199765972019231 18.455340207877704 2.7502307885641795 0 0 0
18 1 5 0.1268 8.946782692800546 1.8906027293927437 4.4436334922837775 0 0 0
539 1 5 0.053 5.2659350388499515 1.5166075913865655 4.579213853996087 0 1 0
1 1 11 -0.5571 15.329824023355396 17.599623732267304 6.5104781712222195 0 -1 0
564 3 11 -0.5571 10.33018723046797 9.74134906967788 7.527552947157085 0 0 0
180 2 4 -0.1268 10.570728449679612 9.890946167744161 2.3421670217746695 0 0 0
122 4 5 0.053 17.183176830327668 5.526070415603284 10.37885818929803 -1 0 0
269 5 1 0.027 18.89911905837299 4.3014710874950275 2.271468674312917 0 1 1
121 4 1 0.027 17.023612355061175 4.398683288813915 10.306387637081928 -1 0 0
275 1 5 0.1268 19.172541636905052 9.927833551994283 6.333258137722827 -1 0 0
355 1 7 0.4241 10.855713897518962 7.668491720805505 5.546863816517262 0 1 0
329 3 7 0.4241 11.040740907801252 9.403913737662345 8.070810542003144 0 -1 1
53 1 5 0.1268 12.117204092873466 4.114393433585672 2.548866029061512 0 0 0
532 1 1 0.027 1.5233989107520967 3.796657417621021 6.910178695945852 1 0 1
128 2 4 -0.1268 11.449058051206347 9.149786590285316 2.998192450748562 0 0 0
508 1 5 0.053 19.454592188362533 3.4228344730377467 5.987118146377762 0 0 1
119 4 5 0.053 17.933506273596635 4.016731598515337 9.830110922711771 -1 0 0
13 1 4 -0.1268 11.6688775874294 3.50052294017892 3.3415489263507325 0 0 0
530 1 5 0.053 19.084752981772297 4.215590551779567 7.564250525175179 0 0 1
294 4 1 0.027 15.287586513641608 2.875368792194383 8.934582309262549 -1 0 0
428 1 5 0.053 11.09585326725119 5.336221797797721 8.393794610805907 -1 0 0
297 4 5 0.053 14.229707707272235 2.827339495838186 8.833718943231531 -1 0 0
115 1 5 0.053 18.41864721989448 6.458714577547414 7.490607173251731 -1 0 0
430 1 1 0.027 11.027397745388237 6.235615313582092 7.769161466979396 -1 0 0
158 1 5 0.053 17.804387742251215 8.02134198692061 7.080311342496693 -1 0 0
113 1 1 -0.159 18.363802308532676 7.533423838653109 7.899763486430452 -1 0 0
125 2 9 -0.266 16.021281806909958 7.445922065043598 3.123480782967519 0 0 0
378 1 5 0.053 10.927077580305665 5.416035902860533 5.748128713639024 -1 0 0
11 1 4 -0.1268 12.573297988880926 3.162598748148962 4.338214165510959 0 0 0
380 1 10 -0.1595 12.344815544885037 6.801283025422109 7.496160810239371 -1 0 0
251 2 3 0.08 15.251396450823739 6.2395238738388725 2.727874009022547 0 0 0
12 1 4 0.0265 12.20950035712893 2.3285065821261 5.3918821879854 0 0 0
384 1 4 0.0265 13.080513649966102 7.39054131235306 8.515663049782745 -1 0 0
387 1 5 0.1268 14.828931137089427 7.863786834951368 7.2721995061265154 -1 0 0
388 1 4 -0.1268 14.349523566188092 7.9468983616690005 8.275619782098852 -1 0 0
392 1 4 -0.1268 15.072967724245867 8.535778643898968 9.239416023995958 -1 0 0
9 1 10 -0.1595 13.097101760264284 2.087369612461085 6.380334685390287 0 0 0
103 2 5 0.053 15.169830841063632 6.726231836023533 5.01812394937533 0 0 0
10 1 5 0.1268 13.640088875173081 3.4453372197906273 4.2961125562719555 0 0 0
250 2 1 0.027 15.794294879768781 6.425628667059809 4.100652589004396 0 0 0
102 2 5 0.053 16.725356520765402 5.782945669331953 4.439246646397906 0 0 0
129 2 10 -0.1595 12.995851434636783 7.216347808913416 3.1795821413002017 0 0 0
364 1 5 0.053 14.604465222754236 9.835628728643261 5.682541963933762 0 0 0
291 4 9 -0.266 16.05105056390879 3.7129635337421742 8.125652329163108 -1 0 0
386 1 4 -0.1268 12.535543075220454 7.582509205521908 9.806087660185542 -1 0 0
335 1 5 0.1268 16.073378357521015 8.835966611456108 8.962690997041953 -1 0 0
37 1 7 0.4241 15.39207235135362 9.549980910853524 2.906741486961531 0 0 0
157 1 5 0.053 17.726676647171615 7.481927487291443 8.801366448408347 -1 0 0
382 1 5 0.1268 11.582405501037284 7.2623944367470274 10.130444511547353 -1 0 0
271 5 5 0.053 18.152510183888026 3.9261965806198345 3.0242922002585813 0 1 1
130 2 4 0.0265 11.907268128515955 7.873544518318962 2.4722995038745443 0 0 0
19 1 5 0.053 18.23054439642548 1.6872126845148343 3.775413762234474 0 0 1
126 2 5 0.1268 11.994879986954837 9.601332972324462 3.8368091554383574 0 0 0
249 4 5 0.053 15.667277189101897 2.0505267528145517 9.510808978885205 -1 0 0
123 4 3 0.08 15.766127236320921 4.2063411439194365 9.501780441678974 -1 0 0
131 2 1 0.027 13.792363882652815 6.5431769082730815 2.1877587438388915 0 0 0
535 1 5 0.1268 17.904756238545026 2.1781126945748666 7.155273898853628 0 0 1
248 2 5 0.053 15.785638297374543 5.593869846884928 2.076503130077212 0 0 0
134 2 5 0.053 13.339568705813175 5.616646013936858 1.8389075191936393 0 0 0
106 1 5 0.053 15.994169863176515 1.6530681696027245 3.3898267787561687 0 0 1
14 1 4 -0.1268 10.847489573087799 1.9095165222279737 5.434025322075252 0 0 0
292 4 5 0.053 14.983982161053836 5.012254265934729 9.694046815823905 -1 0 0
289 1 5 0.053 18.90650067100725 9.988554345781827 2.645912241685698 -1 0 0
288 1 5 0.053 18.298818067609282 10.719984886272876 4.159072622616593 -1 0 0
287 1 1 -0.159 19.077011782905025 10.851920624242782 3.3794639215759155 -1 0 0
26 1 4 0.0265 1.5578175832198797 1.6342112093895715 7.992292067393616 1 0 1
16 1 5 0.1268 10.503627856482307 1.531737434528679 6.3703338190540615 0 0 0
565 3 5 0.053 11.518023888552978 11.313079988901833 7.0587338677169145 0 0 0
179 2 5 0.1268 10.27235751636856 10.919824385020606 2.6579441753587103 0 0 0
149 1 4 -0.1268 1.8148159958239385 13.785103728550437 10.213113125201817 1 -1 1
21 1 5 0.1268 2.05880585060292 17.35572097522744 10.065287851539422 1 -1 1
141 1 5 0.053 4.070758287118208 10.905790824179775 9.58396179003007 1 -1 1
282 1 1 -0.106 2.0777228458366084 10.998803547670255 4.0990161941551015 0 0 0
319 3 1 -0.106 6.9695944764193385 15.394505530779595 2.0152566735071797 0 -1 1
546 1 5 0.053 6.00516939706599 17.661179345366513 2.4997210355777852 0 0 0
483 1 5 0.053 2.8266018766190912 11.385429246187345 3.3559030359628332 0 0 0
151 3 5 0.053 6.235433792177374 11.00451358020108 5.4699171617767455 0 -1 1
138 1 5 0.053 4.492249560059376 11.394437274702602 7.226743467029981 1 -1 1
156 3 6 0.2487 8.848455561372123 10.507682513681095 5.271503987087711 0 -1 1
570 3 5 0.053 9.425510321512991 11.849947032136228 9.248162632771667 0 0 0
451 3 5 0.053 8.555406196753887 11.786057475088091 6.9993237887073425 0 0 0
86 3 2 0.08 3.3512500586507006 14.036802291833059 1.9862764933168973 0 0 1
154 3 5 0.053 6.080992538515262 10.46047474928508 3.7846163437630445 0 -1 1
252 1 1 0.027 8.884498903178539 1.4153226347772403 9.922710542646692 0 1 0
244 1 1 -0.0233 6.155976440021772 19.306239356358567 9.870883333579917 0 0 0
142 1 1 0.027 3.848741248846156 11.925056818635921 9.144369731811038 1 -1 1
73 1 7 0.4241 6.538231868989513 12.782173350011234 8.430745299854797 0 0 0
256 1 5 0.1268 8.904887331160303 16.46119130546957 9.415297515192524 0 0 0
20 1 5 0.1268 3.252213401710837 19.133664329471145 9.090154136470632 1 -1 1
461 1 10 -0.1595 9.32345123642392 18.83674425925843 8.914812246553732 0 0 0
152 3 1 -0.159 6.754270160425619 10.82579996380495 4.548730546780783 0 -1 1
98 1 5 0.053 6.745712382223776 19.277407196061006 4.015792888255962 0 0 0
63 1 1 -0.106 5.692455399546331 19.008695186589463 4.092233593226513 0 0 0
540 1 6 0.2487 8.11599355852126 17.633048720284144 4.574073093913588 0 0 0
139 1 11 -0.5571 6.220097972573947 11.88831434175191 8.254829254961855 1 -1 1
140 1 2 0.08 4.807212258774273 12.162325203684446 7.922772840570474 1 -1 1
464 3 6 0.2487 4.953655870728522 12.087540160545243 3.555800245538413 0 -1 1
254 1 5 0.053 5.453976844508203 13.454474938117324 6.361612038180873 1 -1 1
258 1 5 0.053 3.7110720247801634 13.448582331952766 6.4788079782215275 1 -1 1
547 1 6 0.2487 8.563178257197073 17.13818656636522 6.129520183224924 0 0 0
65 1 4 0 6.557863182042154 17.230817140744534 5.782467702399824 0 0 0
542 1 8 -0.4974 7.862798892770078 17.615998479329058 5.5181485188234465 0 0 0
46 1 5 0.053 7.476343108234271 14.474228374952727 7.158922577624713 0 0 0
64 1 4 0 5.53768491927953 17.90725344564426 5.080551701925866 0 0 0
48 1 5 0.053 7.062729559136574 15.284628571744847 8.548689151589759 0 0 0
67 1 4 0 6.23212381149894 16.202988227330113 6.639963588852045 0 0 0
69 1 1 -0.159 7.322890930924311 15.50980153023843 7.468595515622448 0 0 0
44 1 5 0.053 8.246582162095335 16.145939937970347 7.420358291323338 0 0 0
70 1 4 0 4.923610938006149 15.797770042061412 6.907167085684083 0 0 0
66 1 4 -0.1268 4.2466461859468465 17.512370949513013 5.393882259253217 0 0 0
72 1 8 -0.3314 4.639250164765736 14.735074880901994 7.882672047968648 0 0 0
68 1 4 0 3.8856479766084004 16.512114756547152 6.288508639808099 0 0 0
74 1 6 0.2487 3.7473940192739486 15.065834476067183 8.260044467988987 0 0 0
257 1 1 -0.0233 4.647269997813136 13.508165695277867 7.114621788116064 1 -1 1
100 1 5 0.1268 3.4157507931273647 18.1454550804037 4.925103412601825 0 0 0
327 3 8 -0.3314 9.551700568851299 11.246611528765397 5.200795001359499 0 -1 1
322 3 4 0 7.544832398818108 12.05568347655677 4.027572216434027 0 -1 1
320 3 4 0 6.8097922142273095 12.98750273905046 3.1740698963944167 0 -1 1
325 3 4 0 8.907916292917534 12.161399465072883 4.292367256723631 0 -1 1
317 3 8 -0.3314 5.321022392714575 12.917190809333672 3.1086187785026493 0 -1 1
326 3 4 0 9.614435424385098 13.224492683846961 3.59348958220297 0 -1 1
321 3 4 0 7.507205757643201 14.058636991368882 2.694629690147144 0 -1 1
323 3 4 -0.1268 8.893401937382297 14.16796809969348 2.82815754364325 0 -1 1
569 3 1 -0.0233 9.57431099936503 11.86987848240626 6.614109780702949 0 0 0
71 1 1 -0.106 2.4513996039736226 16.1698118643869 6.414564268957238 0 0 0
324 3 5 0.1268 9.427438920715757 15.05800324084468 2.408923038260003 0 -1 1
88 3 5 0.053 2.6882400555502337 13.647323750182391 2.8137461026953434 0 0 1
465 3 5 0.053 7.555541277095923 16.337997447265597 2.4341320423897757 0 -1 1
143 1 10 -0.1595 2.4584992323469477 11.976627998346457 8.760718979695731 1 -1 1
202 1 5 0.053 2.4281784651228397 14.613721982611885 4.805773553320191 0 0 0
567 3 5 0.053 9.814213423203732 12.937025516786225 6.508638608535332 0 0 0
279 1 5 0.053 1.8791176215377792 11.773031274995045 4.96821873561372 0 0 0
316 3 5 0.053 5.917265030325569 15.536869952918057 2.2599278414455277 0 -1 1
75 1 5 0.053 2.2909210603336954 15.44155621393106 7.181856049633562 0 0 0
245 1 5 0.053 6.165487144995649 18.326956219811862 9.388397153480929 0 0 0
84 3 1 -0.0233 4.651959993875299 13.178254166547353 1.8834732521429638 0 0 1
91 1 4 0 15.331734301638926 16.85937379530087 2.6906580352745593 0 0 0
559 3 11 -0.5571 3.5561993561024203 15.39488170796442 2.4596504142837206 0 0 1
318 3 7 0.4241 4.172803080087032 15.231630495223511 3.188116673750348 0 -1 1
462 1 4 0.0265 10.26890148170633 17.995970146720964 9.269894660475893 0 0 0
146 1 4 0.0265 1.679842643819176 13.110500878749301 9.033251719557379 1 -1 1
255 1 4 -0.1268 9.943605070589124 16.72598308130703 9.473336229679786 0 0 0
204 1 1 -0.159 1.876222146985273 15.44229769568992 5.145816206311565 0 0 0
506 1 5 0.053 1.4798350133756855 18.235692885448152 3.2023061640483834 1 -1 1
205 1 5 0.053 1.6381378681828414 16.11486639972115 4.296809537336891 0 0 0
101 1 5 0.053 1.7080460723462383 16.896977965014024 6.718145490871869 0 0 0
571 3 1 0.027 10.384032597831544 11.933280518649825 8.83323456949163 0 0 0
22 1 4 -0.1268 2.209809294399719 19.047038998325526 8.796818333189332 1 -1 1
95 1 8 -0.1654 15.683330519725061 17.935548194867913 3.591497558224416 0 0 0
144 1 5 0.053 4.065986253789529 12.699331026245062 9.898231956511014 1 -1 1
118 4 5 0.1268 18.618605275856766 2.2331825821669575 10.454413079402048 -1 0 0
566 3 5 0.053 10.4553573804882 13.071801472756308 8.56674771717333 0 0 0
381 3 5 0.053 12.625425354122235 14.960688950019458 4.228048903482953 0 -1 1
501 1 10 -0.1595 19.10459470040732 18.984635214969714 1.4989337253757697 0 -1 1
31 1 1 -0.106 17.792190692805477 16.68949287016415 9.833310311004091 0 -1 1
5 1 5 0.053 15.326323983633944 19.567627944399845 5.654310812216564 0 -1 0
8 1 1 0.027 13.382414736692244 19.084591942930466 6.5196237928493925 0 -1 0
6 1 5 0.053 13.562194028338817 18.972699819431092 7.6238838535874685 0 -1 0
110 1 5 0.053 12.719810459678566 19.29718428596167 2.3125064893171907 0 0 0
35 1 5 0.053 16.746015308111865 16.7751777518192 9.538032985716333 0 -1 1
36 1 5 0.1268 16.758330836603257 18.557382341697178 8.091313682889064 0 -1 1
568 3 2 0.08 10.559270281284636 11.161841942531636 7.504464352404701 0 0 0
23 1 4 -0.1268 1.4926339508652742 17.994788480518736 9.365578356395211 1 -1 1
332 3 5 0.053 11.328970169550614 12.683304050822866 4.641595671603797 0 -1 1
29 1 4 0 18.482426767848473 15.41360571615098 9.580635597855586 0 -1 1
96 1 7 0.4241 18.908544402821157 18.432179126442207 5.290118602271806 0 0 0
504 1 1 0.027 18.851118557932836 18.299939125682776 2.7458280937479396 0 -1 1
112 1 4 0 15.71563655304858 15.537006849266266 3.0108762804965883 0 0 0
582 1 5 0.053 18.44280826745627 17.28887160807585 2.634765792843533 0 -1 1
573 3 10 -0.1595 11.35277689372518 11.613083324558977 9.813089686412429 0 0 0
365 1 5 0.053 13.67572764461347 11.232404640796295 5.41662963787274 0 0 0
3 1 1 -0.0233 14.393580368903585 18.2252649314199 4.359741020552429 0 -1 0
30 1 4 0 18.500293957564637 17.811453266112096 9.106967400178737 0 -1 1
218 1 4 0 13.864093219643964 14.16808999144008 9.2914094964256 0 0 0
104 1 5 0.053 16.59436746693673 19.032513191095234 2.083005576502355 0 -1 1
7 1 5 0.053 12.457214139453873 18.548713631459194 6.260932767666899 0 -1 0
420 1 5 0.1268 11.849607937185928 19.39376482024963 9.214353660043479 0 0 0
489 1 5 0.053 18.82151034317308 11.718914350192376 2.7650165941870344 -1 0 0
220 1 5 0.1268 10.461727265568534 14.651933146101666 9.986890142823476 0 0 0
216 1 4 -0.1268 13.560698308321063 14.268449542877017 7.941618780458467 0 0 0
369 1 10 -0.1595 15.42739605140825 11.465644401055334 6.503331161048964 0 0 0
370 1 11 -0.5571 14.77541025727808 10.259470172166784 3.0133142036533886 0 0 0
366 1 5 0.053 16.374101560127606 11.045285418299095 4.046030906763294 0 0 0
371 1 4 0.0265 14.87650219622129 12.352243979105694 7.408306372026786 0 0 0
367 1 1 0.027 14.701587982083998 10.869241872308532 5.407224143189681 0 0 0
153 1 6 0.2487 15.620031682700962 12.552491881024796 1.576762190096294 0 0 0
424 1 4 0 12.123807941805653 15.988601874913208 9.974212462446188 0 0 0
148 1 4 -0.1268 18.97662158982694 13.493989159338268 8.18502035090308 0 -1 1
109 1 4 0 15.456418228658011 14.449584812041058 2.1400707929124376 0 0 0
389 3 5 0.053 11.011311334431753 15.212612616640227 4.811815665696018 0 -1 1
512 3 5 0.053 11.336195072495105 15.407648340932989 3.175208462844444 0 -1 1
372 1 1 -0.0233 14.897529217223159 12.556527931826407 3.5408431316306244 0 0 0
425 1 4 -0.1268 14.792713785488255 13.163840840294075 9.706722353080918 0 0 0
328 3 1 -0.106 11.09237101907802 13.33034649148063 3.7851623843545896 0 -1 1
368 1 2 0.08 15.276614751127042 11.168819383166559 4.032031202246791 0 0 0
373 1 5 0.053 15.076489608666044 13.238408752375063 4.408725586821019 0 0 0
108 1 2 0.08 17.935470340144107 19.010910168682457 3.745512727813494 0 -1 1
107 1 11 -0.5571 17.973933432964643 18.651727173698674 5.120571779629792 0 -1 1
421 1 4 -0.1268 11.590030703907978 18.364942940686774 9.477025244824546 0 0 0
376 1 5 0.1268 16.00079869610788 11.526219438995192 9.030038076152259 0 0 0
25 1 4 -0.1268 19.366720472530353 14.87814159450702 10.479684643207401 0 -1 1
105 1 1 -0.0233 16.457386921719376 19.06999849968627 3.159762231138155 0 -1 1
94 1 5 0.053 17.137795885884078 15.974117806878994 4.621186484911526 0 0 0
99 1 5 0.053 13.884088167591635 18.97092686489414 3.735137348522973 0 -1 0
188 1 4 -0.1268 13.951258687741475 13.344414409928545 7.01237090889122 0 0 0
33 1 4 -0.1268 17.888205355381437 18.730570653402538 8.245061959550151 0 -1 1
155 1 8 -0.3314 15.765055617844915 13.079114336934024 2.456301415741842 0 0 0
2 1 5 0.053 13.736444866717836 17.28448813934824 4.4970586615361725 0 -1 0
92 1 1 -0.159 16.392582213582877 15.234101000874496 4.362239761726778 0 0 0
93 1 5 0.053 15.715902222708328 15.140518878288988 5.177310044073673 0 0 0
145 1 5 0.1268 18.89837067602805 12.990197405527153 7.227139203383045 0 -1 1
28 1 5 0.1268 17.429095488537783 14.926195905645724 7.80933084281883 0 -1 1
219 1 1 -0.106 13.205791339940637 15.049307852998815 10.423650808110114 0 0 0
374 1 4 -0.1268 15.321156822824083 12.324640941480169 8.716958236216158 0 0 0
423 1 4 -0.1268 12.530075558508129 17.382547258179887 9.735651780199943 0 0 0
184 1 5 0.1268 13.67812625194181 13.508475804979138 5.896937706808702 0 0 0
203 1 5 0.053 19.238175850775562 14.955693327085061 5.403777869452349 -1 0 0
383 3 1 -0.159 11.572761618306659 14.776967792436906 4.0334105975217405 0 -1 1
385 3 5 0.053 11.675554235782709 12.992154112770535 2.9414423707726876 0 -1 1
32 1 4 -0.1268 18.540393676654126 1.4815833667208693 7.751223372013097 0 0 1
375 1 5 0.053 13.828718669351964 12.586006643987806 3.197881052496707 0 0 0
4 1 2 0.08 14.639134436267339 18.667313879860544 5.740912638875501 0 -1 0
38 1 5 0.053 16.906856246663125 14.2869786695738 4.283486963785167 0 0 0
24 1 4 -0.1268 18.202144405594495 14.600401560373307 8.500997455840334 0 -1 1
443 5 5 0.053 3.7566857917812113 3.723229329888277 1.6308556742605755 1 1 1
215 1 5 0.1268 12.962338110384051 15.155618275880997 7.713483601445214 0 0 0
217 1 4 -0.1268 10.789469448827848 15.666505084412107 9.785832515667945 0 0 0
422 1 5 0.1268 13.572082363446237 17.66507612967027 9.805176994402823 0 0 0
111 1 4 0 14.72006543305152 17.10192737166885 1.4198702365626723 0 0 0
97 1 7 0.4241 16.080884091415662 17.327623735245268 5.958366230706531 0 0 0
334 1 4 0 14.547913301147345 8.626901813241073 10.516615287381603 -1 0 0
584 5 5 0.1268 5.237773257926104 5.93141213126055 14.926150676486229 1 1 0
470 5 4 -0.1268 3.960773884167695 5.172963623960653 16.54131119599269 1 1 0
585 5 4 -0.1268 5.069097472986412 5.094062554054448 15.645381936119799 1 1 0
516 5 4 0 5.917326934617812 3.99633662169962 15.687307495822195 1 1 0
468 5 5 0.1268 3.252329107109358 6.002692255831522 16.275965379675995 1 1 0
562 5 5 0.1268 8.654912121012718 5.788658928839077 15.549906521098062 1 1 0
469 5 4 0.0265 3.6689095990923035 4.120064086117214 17.45342918854788 1 1 0
477 5 4 -0.1268 9.10003514242673 4.791128287503552 15.848741531686763 1 1 0
475 5 4 0 8.401013149539285 3.6474577294101795 15.522204075298262 1 1 0
513 5 5 0.053 7.230438056141407 4.52486839491946 13.9720876613588 1 1 0
515 5 1 -0.106 7.103910915154835 3.770884632670334 14.783323082027627 1 1 0
192 2 5 0.1268 7.790229384445145 9.19276431058162 16.69093172832749 0 0 -1
519 1 9 -0.266 5.6215564031442655 7.683458234838401 13.096598732271358 0 0 0
521 1 3 0.08 4.541648414775006 8.459956742451984 13.612768434012416 0 0 0
520 1 1 0.027 3.1282493196360925 7.942282431171119 13.251140152304357 0 0 0
167 1 5 0.053 5.191882274516395 7.324157825769833 17.75016699955207 0 0 -1
358 1 10 -0.1595 2.598513704415442 8.250203512725092 11.969426990303354 0 0 0
331 5 4 -0.1268 4.532045007283043 3.043186593864283 17.46702130055487 1 1 0
333 5 4 -0.1268 5.6472169115375435 3.0427018403323247 16.67411622663448 1 1 0
166 1 5 0.053 5.441870895167299 3.34125728993568 12.257887879408665 0 1 0
478 5 4 -0.1268 9.006487617923115 2.4149336546165765 15.675645394058312 1 1 0
514 5 5 0.053 6.930670941505916 2.8780576570328167 14.197834335636426 1 1 0
457 3 5 0.1268 9.112988433193184 8.397048590944406 12.039849958382861 0 0 0
524 1 5 0.053 3.174064733516839 6.869875373252104 13.50582533445176 0 0 0
467 5 10 -0.1595 2.604637884286398 4.173597930765146 18.293655326709484 1 1 0
525 1 5 0.053 4.641606668624221 8.716478262265206 14.644938694963335 0 0 0
518 1 5 0.053 2.4081271762720515 8.311267821241888 14.044527051741383 0 0 0
315 1 5 0.053 9.850284215771554 3.225194751803552 12.590219431573221 0 0 0
170 1 5 0.053 3.034663844894216 8.338817540430139 18.33086737948657 0 0 -1
456 3 4 -0.1268 9.877762905379909 9.16890708880211 12.033597577206153 0 0 0
169 1 10 -0.1595 6.01184852653648 7.662856384934362 19.597994068487175 0 0 -1
243 1 11 -0.5571 7.456481333941628 2.0395173744106563 11.651741813397814 0 1 0
168 1 1 0.027 4.850796890405259 7.467231195492805 18.805404278825783 0 0 -1
127 1 5 0.1268 7.76497176859899 3.5278306415932 18.594076413694232 0 0 -1
120 1 5 0.1268 6.233146396398055 5.31253404399356 18.153508870837072 0 0 -1
176 1 4 -0.1268 6.8802753921845605 5.444957260100209 18.992091406925688 0 0 -1
43 1 2 0.08 3.8454286800976094 8.584484397650991 19.025344559163003 0 0 -1
172 1 5 0.053 4.391436140798029 6.489511379270879 19.07832496922493 0 0 -1
460 3 5 0.053 9.724213255027252 8.53668678160878 14.93968449186934 0 0 0
473 5 1 0.027 2.820095217053037 3.4383341987646014 19.519499791150444 1 1 0
90 3 5 0.053 1.703514866514242 14.759679071976167 19.140236741021752 0 0 0
124 1 4 -0.1268 7.805524633418664 4.4192057105877485 19.22800159583383 0 0 -1
330 5 5 0.1268 4.330855077084754 2.063686505333145 17.88345887863224 1 1 0
480 5 4 -0.1268 10.239011003148336 2.3000075067035395 16.29815748281004 1 1 0
272 5 5 0.1268 6.321734451468504 2.165562682832148 16.797496551100508 1 1 0
132 1 5 0.053 10.087017102045218 3.031636893292334 19.549880234885563 0 0 -1
39 1 11 -0.5571 4.250512634580948 9.87306988662702 18.521050771012753 0 0 -1
314 1 5 0.053 10.474445255532334 5.2986388894861225 11.891164779231897 0 0 0
549 3 5 0.053 10.429449739485637 7.286441659603397 13.909365436533802 0 0 0
226 4 5 0.053 3.6943015520745703 2.1782650085263184 13.856851812565418 0 0 0
228 4 5 0.053 2.849613424641489 1.6265880155657417 15.360496951119886 0 0 0
190 2 4 -0.1268 8.140459026195543 10.25719493652622 16.76063538379877 0 0 -1
229 4 1 -0.106 2.885729077757772 1.5255660527080257 14.314494608841459 0 0 0
522 1 5 0.053 5.31007269603149 9.171067598031975 11.655500863346093 0 0 0
186 2 4 0 8.769258810547846 10.767596601360866 17.863907537541877 0 0 -1
523 1 1 0.027 5.504405979352166 9.048785863251204 12.672445697217915 0 0 0
187 2 1 -0.106 8.581698457927798 9.999315178218653 19.11216366965602 0 0 -1
183 2 5 0.053 7.73944112146663 9.292887793482784 18.962155243594225 0 0 -1
526 1 5 0.053 6.295045304379712 9.746282837086396 13.089503821162012 0 0 0
162 1 1 -0.159 3.565534451501173 4.348252422795364 11.531287116736925 0 1 0
479 5 4 -0.1268 10.338451624405183 4.6443470593113885 16.462530141672765 1 1 0
453 3 4 -0.1268 9.950566062006653 10.05027239199822 10.960368025229242 0 0 0
471 5 5 0.053 2.8158372770109983 2.4029105131888837 19.282622870915667 1 1 0
191 2 5 0.1268 9.549902534117699 7.513248120459115 18.35006312168008 0 0 -1
341 1 5 0.1268 5.891368321761543 5.967320108862149 11.163419520324824 0 1 0
165 1 1 -0.106 4.846910247304096 3.4699394492342224 11.336244526506922 0 1 0
340 1 5 0.053 7.52384385450403 7.531136061039595 10.69395883848893 0 1 0
449 1 7 0.4241 4.722710862462968 10.27606878701431 19.261182441332153 0 0 -1
233 4 4 0 1.5908480332011017 2.0426439760547366 13.68937053624621 0 0 0
236 4 5 0.1268 19.340152974606013 3.2382475934934067 15.467726416095159 -1 0 0
136 2 4 -0.1268 10.111697268785358 8.01304310458951 19.23301583020467 0 0 -1
161 1 5 0.053 3.8485365206207054 5.4207428340357975 11.785947407792666 0 1 0
517 1 5 0.1268 19.67140258325874 10.646799405360428 10.941511044534552 -1 0 0
175 1 7 0.4241 7.459721776691165 2.8840866506215157 11.21069229800828 0 1 0
164 1 5 0.053 4.440260073315063 2.4758131502396967 11.10654311835569 0 1 0
160 1 5 0.053 2.951739701900649 4.037059391862911 12.434203820406761 0 1 0
185 2 4 0 9.777593906920302 9.347228611870058 19.71879736655699 0 0 -1
312 1 3 0.08 10.904744016713648 3.3075223398632976 12.326022493461588 0 0 0
581 3 1 -0.106 10.616220022990507 8.317355396754358 14.309069411255294 0 0 0
311 1 1 0.027 11.20199786300309 4.647857701167888 11.772571986625238 0 0 0
232 4 4 -0.1268 19.722948286596747 1.7646670913906255 12.308188360733292 -1 0 0
212 3 5 0.053 19.491495878357526 6.216680650555558 17.862617906803123 0 0 0
353 1 4 0.0265 19.573220009457515 8.561495367481227 11.957760353948434 -1 0 0
235 4 4 -0.1268 19.10636619771305 2.925137340331643 14.398024505384774 -1 0 0
580 3 4 0 10.684335575852227 9.251202112164503 13.128595343965005 0 0 0
234 4 4 -0.1268 18.703506127366353 2.368534241361238 11.560100331993345 -1 0 0
563 5 5 0.1268 10.942061228528653 5.5820428151308645 16.597238316802027 1 1 0
482 5 4 0.0265 10.961194908264202 3.437322567323857 16.654133545912206 1 1 0
350 1 4 -0.1268 19.123325740799743 9.820321631705324 11.48675408283168 -1 0 0
290 1 5 0.1268 19.03854263627332 6.671553973189903 12.985217217256404 -1 0 0
442 3 4 0.0265 12.946407038665017 14.431462826611499 14.29351207272094 -1 0 0
494 5 5 0.053 16.355115521888862 2.571205648456 17.045438202858357 1 1 0
352 1 4 -0.1268 18.686483617424713 7.571020777063041 12.458192638107644 -1 0 0
239 4 4 -0.1268 18.05169620417478 3.4747330280002844 13.670237884833082 -1 0 0
240 4 5 0.1268 17.368293626644956 4.170982034552624 14.189155882115644 -1 0 0
241 4 10 -0.1595 16.896815538107113 3.9231064561925564 11.61247602917658 -1 0 0
213 3 9 -0.266 19.06773662710019 6.8221390039068535 15.914217901592028 0 0 0
210 3 1 0.027 18.674567844920887 6.3159496612334305 17.17727729418157 0 0 0
214 3 5 0.053 18.65030218276138 8.543771632218927 16.93396922048712 0 0 0
492 5 1 0.027 15.62124499858202 3.3062318580112358 16.792505607671067 1 1 0
484 5 10 -0.1595 12.237437550198157 3.2775477248859053 17.204936236009427 1 1 0
348 1 4 -0.1268 17.30127151391655 7.8120221698750125 12.426471910049028 -1 0 0
208 3 1 0.027 16.810890250590617 7.675727510566581 15.975383550285269 0 0 0
487 5 1 0.027 13.22663645305089 4.293541796912173 17.028643341369133 1 1 0
419 3 5 0.1268 12.51964883188721 6.778188013508062 13.660903162126697 0 0 0
418 3 4 -0.1268 12.862976897900532 7.491218267990083 14.527961180355422 0 0 0
414 3 4 0.0265 14.493186246424631 8.091654524990433 16.236801191913614 0 0 0
417 3 4 0 11.900754393810278 8.297356160768178 15.060718108537138 0 0 0
416 3 5 0.1268 14.665530266835557 6.481123770189442 14.742300426412307 0 0 0
415 3 4 -0.1268 14.105339971346488 7.314186849627131 15.152072969902733 0 0 0
413 3 10 -0.1595 15.765353369319895 7.969892361839429 16.885285464690806 0 0 0
455 3 4 -0.1268 12.197510080233524 8.988050322551974 16.182732880972516 0 0 0
412 3 4 -0.1268 13.480254893086721 8.942013252208255 16.774663288728803 0 0 0
206 3 5 0.053 16.762798341292893 6.582928128966141 15.623206861414385 0 0 0
490 5 3 0.08 14.545787077371577 3.858762897063161 17.642611899758826 1 1 0
211 3 3 0.08 18.180648966220176 7.623747014251085 16.698392229040962 0 0 0
209 3 5 0.053 16.893464056564795 8.337517490557413 15.138471625053915 0 0 0
486 5 9 -0.266 15.78339597353849 4.621808701222976 17.24673677723704 1 1 0
485 5 5 0.053 13.235956763480429 4.66786299772067 16.01762296764045 1 1 0
488 5 5 0.053 14.476294475268384 3.6647796301525144 18.703284136288715 1 1 0
491 5 5 0.053 12.878863041488106 5.197607585762199 17.528774942077078 1 1 0
238 4 4 0.0265 17.86588401297921 3.186504296247268 12.274963651249355 -1 0 0
310 1 1 0.027 11.834997773810954 2.285137823907482 13.088022964200707 0 0 0
342 1 4 0 16.81904978008354 9.010337329361198 11.858082082825597 -1 0 0
391 1 5 0.1268 12.904493535459322 8.368304657104744 11.833550414112395 -1 0 0
284 1 5 0.1268 16.53051479704431 7.126254183181235 12.848553773247717 -1 0 0
306 1 10 -0.1595 13.165552279391251 2.124601275412516 12.698060424844689 0 0 0
493 5 5 0.053 15.475825046411355 3.132257008912757 15.76213472733926 1 1 0
207 3 5 0.053 18.03586267323672 5.425572441354793 17.19858318096405 0 0 0
337 1 1 -0.106 15.337742202173988 9.24468134570408 11.766544894532053 -1 0 0
411 3 5 0.1268 13.65299872323483 9.567460041914973 17.652068104056987 0 0 0
454 3 5 0.1268 11.469503200632493 9.804078405886983 16.5185627176559 0 0 0
338 1 5 0.053 14.7190190367253 9.095604307164297 12.676425644097998 -1 0 0
343 1 4 -0.1268 17.754929046442136 9.969864774746462 11.376480691610132 -1 0 0
307 1 5 0.1268 15.487449728723325 19.698694990207795 11.703345524778223 0 -1 0
308 1 5 0.053 12.259329570465695 5.030810799356802 11.876823622299796 0 0 0
137 2 5 0.1268 11.455429289562453 6.381270767876575 19.307036627524376 0 0 -1
377 1 5 0.053 11.836318595882151 2.5010601208195227 14.16473606248375 0 0 0
496 1 5 0.1268 18.999974947698917 1.857506028515126 17.446740184340044 0 0 0
550 3 5 0.1268 17.028744299527737 10.395070921004544 16.62206680644647 -1 0 0
390 1 4 -0.1268 13.265845914567253 8.222839032885103 10.80335968849982 -1 0 0
578 3 4 -0.1268 11.584104561504287 10.279274019942946 13.167178903248358 0 0 0
159 1 5 0.053 2.863268519180325 4.228162888128173 10.668264483208537 0 1 0
304 1 4 0.0265 14.034219943651365 19.652087998263994 13.371664395794593 0 -1 0
300 1 5 0.1268 12.791063283591038 19.21817602324883 15.145143632804844 0 -1 0
336 1 5 0.053 15.153979809745127 10.322759166203596 11.666324238229505 -1 0 0
313 1 9 -0.266 10.993877527865921 3.42823190967861 10.915376177872192 0 0 0
551 3 5 0.1268 18.618328470195557 10.685736398829649 18.579717882996263 -1 0 0
579 3 5 0.1268 12.307013336851776 10.355678785385257 14.004666875689951 0 0 0
440 3 5 0.1268 18.251624097705836 14.330113475990721 15.167330279243183 -1 0 0
221 1 5 0.053 14.089212428052972 15.548175589460612 10.851402148837488 0 0 0
263 1 1 -0.159 13.15034748320463 12.969504405113405 18.28459640127923 0 0 -1
61 2 5 0.1268 7.753140602681531 10.492008390021004 14.602096642626433 0 0 -1
230 4 5 0.1268 2.092532012823444 19.561278825546523 11.738739356695364 0 -1 0
476 5 5 0.1268 8.45226509199555 1.499249655256408 15.52561671888841 1 1 0
541 4 5 0.053 2.389589555288809 11.478107485308776 15.806133623120854 0 -1 0
444 4 5 0.1268 5.125481342440757 18.764041960844658 12.934519963813722 0 -1 0
246 1 5 0.053 7.700804090805446 18.509150535408693 11.171568920379094 0 0 0
147 1 5 0.1268 2.571200775832904 13.562390060545193 10.96459842317911 1 -1 1
60 2 4 -0.1268 8.176212975048806 10.943908042912156 15.547008839260556 0 0 -1
178 2 5 0.1268 9.671929884503733 12.405859026870559 18.72428752318975 0 0 -1
543 4 9 -0.266 4.419202157786609 11.327960335752365 14.852130757841834 0 -1 0
544 4 1 0.027 3.1142765553775047 12.006514504382954 15.10437586604744 0 -1 0
538 4 5 0.053 4.499336244046583 12.13030892027896 16.72258699458359 0 -1 0
548 4 5 0.053 2.6904626126171145 12.47887930470748 14.309972989787541 0 -1 0
52 2 5 0.053 6.933463489452063 12.353018135659584 13.480953963573786 0 0 -1
509 3 5 0.053 6.8620745153595575 16.489509116943267 18.446548997307552 0 -1 0
231 4 4 0 3.416929006345264 18.402216660337302 14.242870634626284 0 -1 0
445 4 4 -0.1268 4.4922873645674 17.97234652900451 13.447504205727501 0 -1 0
55 2 1 0.027 8.025164557844315 12.460158620054772 13.170594416365036 0 0 -1
79 2 3 0.08 8.24908664683607 13.503235662312377 12.01375288413091 0 0 -1
405 4 3 0.08 4.37498251976813 12.462453330381576 15.721617943881185 0 -1 0
58 2 4 0.0265 8.776224988398551 12.228074244347177 15.452440218462222 0 0 -1
59 2 10 -0.1595 8.818905069108972 12.898153314437296 14.253380753439828 0 0 -1
182 2 4 -0.1268 9.357919585583051 12.035486553733403 17.78280715953254 0 0 -1
181 2 4 -0.1268 9.297440511675033 12.765927167416875 16.584088316399836 0 0 -1
404 4 4 -0.1268 3.1018025207309114 16.09747157276557 14.965991514637064 0 -1 0
406 4 1 0.027 5.068607594176185 13.816109559236994 15.443927509995902 0 -1 0
402 4 10 -0.1595 4.621120534309913 14.381639799993467 14.227480330146749 0 -1 0
408 4 5 0.053 4.827206194743509 14.395657141374429 16.368394845941424 0 -1 0
400 4 4 0.0265 4.235156863395046 15.736999951999918 14.304676427327584 0 -1 0
410 4 5 0.053 6.153483466086627 13.672332044441708 15.29777197696856 0 -1 0
397 4 4 -0.1268 4.829491242389508 16.636408244272946 13.432479353366194 0 -1 0
396 4 5 0.1268 5.6974312846205954 16.3161849260077 12.904160880545982 0 -1 0
201 4 4 -0.1268 2.713305333970883 17.430754885959736 14.948672158943108 0 -1 0
583 3 5 0.053 8.274977085731539 15.414270757968811 18.514090661386554 0 -1 0
78 2 1 0.027 7.261240315397431 14.467544951746032 11.458061484686427 0 0 -1
561 3 1 0.027 2.5299744807891593 14.005466720005268 19.08240675340778 0 0 0
510 3 1 -0.159 7.222482965088786 15.496521704373421 18.858071850487264 0 -1 0
511 3 5 0.053 6.644798885013257 14.708156377445592 18.372445940921942 0 -1 0
537 3 5 0.053 3.277927303495631 14.358748116090602 18.32004636545461 0 0 0
76 2 5 0.053 6.289479245232484 14.381486341497963 11.840160152629249 0 0 -1
198 3 5 0.053 7.847120394343151 16.4455302196902 13.630744982852937 -1 0 0
196 3 1 0.027 8.770698719208427 16.41170363218324 14.25819417882826 -1 0 0
54 2 5 0.053 8.392998566132402 11.489440898202808 12.819005183112774 0 0 -1
194 3 5 0.053 8.599313462825211 15.603429683927683 15.042899370497164 -1 0 0
409 4 5 0.1268 2.6405135314132613 15.394380676213745 15.579613828330576 0 -1 0
77 2 9 -0.266 7.738776676238229 13.304573346024712 10.712282881528777 0 0 -1
237 4 5 0.1268 1.8863725923417403 17.771093833271642 15.614156827336593 0 -1 0
81 2 5 0.053 9.333630390033811 13.80102287581272 11.965194505964147 0 0 -1
80 2 5 0.053 7.467482341420055 15.4637774499743 10.960977796083837 0 0 -1
558 3 10 -0.1595 1.8986238636907729 12.724072172296959 18.89372492326465 0 0 0
200 3 5 0.053 9.916011991338783 17.41686726880844 12.804838592958081 -1 0 0
51 2 5 0.1268 9.680704185740307 13.843832987168271 16.711125125380114 0 0 -1
199 3 9 -0.266 9.410532710099561 17.646400698594604 14.728990582892985 -1 0 0
481 5 5 0.1268 10.70108400043669 19.665143710890078 16.502256478736705 1 0 0
536 3 5 0.1268 19.65279933653614 14.59607965047792 17.053692895184934 -1 0 0
197 3 3 0.08 10.076722376390745 16.858840525970002 13.733059473076176 -1 0 0
163 3 5 0.053 11.869457309012928 16.156213563496387 12.651757698632602 -1 0 0
437 3 5 0.1268 14.12678777778519 15.802023505955896 13.123507874156713 -1 0 0
302 1 4 -0.1268 16.193683976548485 18.53279799502716 13.36890759605349 0 -1 0
495 1 5 0.1268 17.906644084099526 19.497188296181825 15.555764354079935 0 -1 0
441 3 5 0.1268 14.066246533003296 11.430954259257161 15.51951837077538 -1 0 0
27 1 5 0.1268 19.635503596008427 15.467092176672498 11.333511164706024 0 -1 1
339 1 5 0.1268 17.374487453050733 10.886262447936204 10.884332637343963 -1 0 0
575 3 4 0.0265 10.933112049973433 11.00776407886629 10.985451699662264 0 0 0
262 1 1 -0.106 14.590101244485865 13.577897463030945 18.21583816682221 0 0 -1
85 1 1 -0.159 12.757479644358286 18.82278822510783 19.630553928831674 0 0 -1
429 3 5 0.053 16.436165592505795 11.004868753224123 14.390090846851457 -1 0 0
502 1 4 -0.1268 17.631294777155205 16.55246072562602 17.4213045320465 0 -1 0
264 1 5 0.053 12.42648377756034 13.848239045759165 18.41932864200563 0 0 -1
395 3 5 0.1268 12.022933330445467 12.857379363613553 15.472892381244925 -1 0 0
433 3 5 0.1268 16.17688480417366 14.424626883113822 13.118447091946367 -1 0 0
261 1 5 0.053 15.269167505105115 12.704769461953621 18.24811100379238 0 0 -1
555 3 4 0 17.429094407299843 12.38181304675116 15.786447987342429 -1 0 0
305 1 4 -0.1268 15.261255259352426 19.371220506255547 12.747166477393467 0 -1 0
309 1 5 0.053 11.268132404757655 19.735250854744393 13.016764270982398 0 -1 0
554 3 4 -0.1268 18.49633589621284 11.469910584273707 17.785128435399287 -1 0 0
557 3 4 -0.1268 18.23156157685981 13.536915348182985 15.912939099350092 -1 0 0
299 1 4 0 15.805536550024007 17.841998306462884 14.50298214152434 0 -1 0
553 3 4 -0.1268 17.55372952920326 11.4115419049342 16.796732507694543 -1 0 0
427 1 5 0.053 12.913873062837308 14.391540661621697 11.245216567018801 0 0 0
298 1 4 -0.1268 14.584209097428852 18.047117561289333 15.126818525019257 0 -1 0
577 3 4 -0.1268 11.728866969690397 11.222224395399651 12.130315223698968 0 0 0
301 1 4 -0.1268 13.662056456664242 18.973145889849057 14.58164804634851 0 -1 0
463 1 5 0.1268 17.229331817800343 15.487700297226054 17.515612742487406 0 -1 0
431 3 5 0.053 17.470993042957517 12.31489945850834 13.72558052379334 -1 0 0
393 3 4 -0.1268 12.987428666376424 13.172191885388742 14.915175452356266 -1 0 0
556 3 4 0.0265 19.30028312530297 12.603273187915052 17.894249712785026 -1 0 0
503 1 4 -0.1268 18.188030805413717 17.02757964099112 18.580361470160724 0 -1 0
266 1 5 0.1268 14.024541458798538 16.22879274292452 17.979446578638495 0 0 -1
505 1 5 0.1268 18.32821712002187 16.231968694070627 19.32504620367733 0 -1 0
62 1 5 0.053 14.158886191471314 18.245521074196276 18.130592097593187 0 0 -1
560 3 4 -0.1268 19.12084688244557 13.597746491216585 16.944583108768377 -1 0 0
268 1 4 -0.1268 14.472164559858925 16.03290836290559 18.994878284403107 0 0 -1
293 1 5 0.053 16.390994372885956 15.923195723312768 15.204949798252155 0 -1 0
87 1 5 0.053 12.184002401357576 19.473097717532475 18.94564357329105 0 0 -1
435 3 4 -0.1268 15.311881009988998 14.038973173363592 13.717236612122775 -1 0 0
394 3 10 -0.1595 11.839529541462072 15.112294014251267 14.451263573992884 -1 0 0
398 3 5 0.053 12.291811353879659 16.950971159477966 14.007077802645698 -1 0 0
303 1 5 0.1268 17.1532597729739 18.359968888983268 12.822292667896933 0 -1 0
438 3 4 -0.1268 14.12220594613648 14.820027672117174 13.649535253051555 -1 0 0
458 1 5 0.053 17.728639351991667 16.676017995793543 14.431239118746372 0 -1 0
195 3 1 0.027 11.52152745232137 16.24436988307869 13.66428271032704 -1 0 0
34 1 5 0.053 17.709055020303218 16.80910866139547 10.983766043413477 0 -1 1
89 1 1 -0.106 14.1425071135062 18.385630750250748 19.21030439682395 0 0 -1
500 1 4 0.0265 18.60315942596003 18.393917093866875 18.702316700504667 0 -1 0
259 1 5 0.053 12.736469855387792 12.421688382092896 17.40864637884195 0 0 -1
498 1 4 -0.1268 18.52257628674873 19.214477407456606 17.589949350827602 0 -1 0
497 1 4 -0.1268 17.934514445804524 18.785989670866343 16.445531207769804 0 -1 0
499 1 4 0 17.50840397002819 17.417450950215674 16.341980019385616 0 -1 0
434 3 1 -0.106 16.655921794809174 12.062113408797785 14.497932490026031 -1 0 0
267 1 4 0 14.803257999237495 14.69982785903255 19.274753905332496 0 0 -1
83 1 5 0.053 12.161268378037907 17.882379304289195 19.64036732328416 0 0 -1
436 3 4 0 15.314030369166648 12.848929011120337 14.366067288489914 -1 0 0
295 1 1 -0.106 16.872629861306645 16.884692088104607 15.081810116982409 0 -1 0
260 1 5 0.053 14.65327731266155 14.049976312914186 17.169077743490334 0 0 -1
574 3 5 0.1268 12.550031257776254 11.924689186532099 12.050138568030215 0 0 0
439 3 4 -0.1268 14.115303889688587 12.36375930313132 14.936427555551111 -1 0 0
296 1 5 0.1268 14.399932871839784 17.465986320200315 16.072531608773534 0 -1 0
426 1 5 0.1268 15.116338672987853 12.999347008675034 10.712628981924308 0 0 0
225 1 5 0.053 14.779269590846322 19.210892272577993 19.45192563609742 0 0 -1
265 1 5 0.053 13.042005702927801 12.341398805242505 19.216747869954965 0 0 -1
242 1 5 0.053 5.386223003071412 19.060073343073633 10.66151571678849 0 0 0
253 1 5 0.053 9.631933216026564 1.5357474007948895 10.675264872343998 0 1 0
552 3 5 0.053 5.389606423081587 13.760222737402914 19.552618270257796 0 0 0
133 2 5 0.053 13.969928612321002 7.186596228270782 19.692067236031065 0 0 -1
135 2 4 -0.1268 11.232712991002481 7.33710771701897 19.720493191398866 0 0 -1
247 1 2 0.08 7.5502070305684885 19.441382711428673 10.626971052086551 0 0 0
82 3 5 0.053 4.5167783214789505 12.237988285377979 19.653681012508866 0 0 0
270 5 5 0.053 18.49300501412398 4.658601391817328 19.658978013412245 0 1 0

Velocities

283 0.0024564538174893106 -0.003964071081651581 -0.001622209785881638
278 -0.0014917344163373231 -0.003565967248033496 -0.0025278468574063484
116 -0.004238854975233951 -0.0001185197398382293 0.0032371224343241316
114 0.03481297899433046 -0.010341511211549966 0.0341385516403803
281 0.006477050957031628 -0.007712552581961615 -0.0022543999797673825
361 0.0019994938968377783 -0.0022644209457804492 -0.00743739575827762
356 0.010528180980222429 0.0016680245153547824 0.01099262949680422
359 -0.02638093174027112 0.010746697944155524 -0.0136637517094621
357 -0.0008582967005912623 0.0020311843021560308 0.001484508070713792
354 0.0016345798003747983 -0.0051060809615824975 0.001921109629373409
447 -0.0013571408619729194 0.005594549377339351 -0.0062986732739351075
351 0.008607579531921546 0.002418682922358958 0.004533740338266721
448 -0.009720128782743366 0.008667432930000307 0.015517989990219864
446 -0.0141204204283781 -0.008938061095017873 -0.024279069710444107
450 -0.02003478774158899 0.0014019510217345378 -0.027736733710147593
285 0.0007830730084493167 0.0075831546823085525 0.0038783442671416362
286 0.007146775251745988 0.01717470426491956 0.02371150579035211
349 -0.0013060278212263998 -0.0001695604874230292 -0.007468755923873666
41 -0.0012119691470085972 -0.0002923400621900755 0.002368164529873197
177 -0.0010788667351783437 0.00612885615198907 0.0018276117184817702
345 -0.004566801751133174 -0.0005068016673848214 0.0049168317327165974
401 0.0004206790476130797 -0.006096475853745737 0.02187676245356504
403 0.008996460208281577 0.0046760420503630705 0.002411290101124819
399 0.025027396737205745 0.017880060052969955 -0.012564529239695513
346 -0.005120077029144888 -0.011298784845685285 -0.003171882198242257
280 -0.004257481897128708 0.00028197548214010086 -0.007501265860407565
360 -0.0037354861024889133 -0.009149173630421207 0.007137032891272933
528 0.0018637004807403532 0.010475578162303044 0.0018113937674413038
276 -0.005167715641791051 0.0037123764568384007 -0.006357450574543197
507 0.011084169902424123 0.006742479854871689 0.0014846310846845995
363 -0.035576937185439084 -0.003274688484791198 0.002727632610485711
222 -0.0017978820644087784 -0.030596092464631516 0.009245009181738864
223 -0.004363189280964459 0.00025237753304433385 -0.0012997400550795386
362 -0.002682190540519827 0.0010679712295947896 -0.006835519669268826
347 0.0011780591122024463 0.006769877924772376 -0.0020041582893236434
56 0.0017528842638156092 0.0014345147232802551 -0.0035477033956402785
277 0.008077252513236816 0.0007090404042591477 0.0020107431310412336
344 -0.006071178119741433 -0.004810544255264801 -0.001217548250072631
407 -0.003608219692094421 0.03026009035800276 -0.03090787993223034
47 -0.0003636132756022253 -0.001235804203917397 0.002762816286470429
45 0.035462150387683695 -0.011534561943136516 0.006051102245536948
49 0.0024780939692094833 -0.0034964134301741726 -0.003004783798424929
50 0.007916526987902493 -0.0032145781624501307 -0.023069531556770703
173 -0.0026726892025728376 -0.0024481623990329888 -0.0017297298637110202
40 -0.012834287168122382 0.008986282406826671 0.045593684093133434
42 0.009005500892717563 0.016663581691377938 0.002118600156302609
15 -0.0037604293676148583 -0.0041743896562545495 0.005402349004930866
224 -0.016507976611799126 0.024227511139410147 0.013822577492810352
474 -0.01625955772410127 0.024397934796250704 0.011470692331612303
472 -0.0029725584322759214 0.0006481600803091124 -0.0024310473525694957
459 -0.004109461031385188 -0.0005226709513014249 -0.00788208334991424
452 0.01717770303082107 0.022061814488588505 0.013957507028167775
150 0.0072109115408259435 -0.05032075318946764 -0.002038394175380153
227 -0.0054705622417023595 0.017302631580443536 0.016970156148242634
432 -0.019892276029513715 0.016453063221293675 -0.02153106435996128
273 -0.007230669043357506 -0.027753895327150974 -0.0047906901111629645
529 -0.004036092740314462 -0.005194114784850371 -0.023296016358661773
117 0.001675003495874447 0.0026763417175997024 0.006395001764749394
171 0.009143879919002762 -0.008992401076793614 0.023867062967271382
189 -0.010352695421289273 -0.016090180469093104 0.015783492197140907
193 -0.005110319145869591 -0.003424550001160393 -0.006554443467403678
527 0.009778100342625135 0.0005722991457908303 0.00042087083412431053
531 -7.97959512098836e-05 -0.00047762360575762016 0.0031290712287045655
274 0.0038314038381919773 -0.00016297723670638832 0.0033706986209322467
534 0.007618400011231628 0.0005035167290231118 -0.006102410657696757
576 -0.012347708878476327 -0.0061866509745898204 -0.01030656554183321
572 0.00399169645840473 -0.007519713862006103 -0.010575248509467164
57 0.004942734132147729 0.0001316428229617954 0.023565220335395883
17 -0.0022239767592456207 -0.010073756572334202 0.0006829838758963213
174 0.005694396371546424 -0.003787552864273503 0.0018320824451650774
466 -0.008861583432215759 0.007790274983517578 -0.005728099042354968
533 0.015961027583882865 -0.02357450706662984 -0.004036391813575286
379 0.007059128109546514 -0.005547845957944755 -0.0013577805709342153
545 0.013976378945541596 -0.007195238366692257 -0.0009097743414337356
18 -0.03347119603068526 0.01564729259108445 -0.013076898583303968
539 0.0076889414701926785 0.00963720712498244 -0.020143838141965062
1 0.000928775446930407 -0.003062372184835883 -0.006188670063219152
564 0.004295685827444355 0.0005332489102113933 0.004052670786490519
180 0.000165020771593931 0.003247034416515346 -0.004798220629103163
122 0.03372552932746927 0.01745479878163156 -0.0020949361251514464
269 9.929418391451491e-05 0.007068319999454817 -0.003393188355406784
121 -0.005788695764918431 0.0005139165492335021 0.008610616885817643
275 0.01865093164757628 -0.00943158616182719 0.005841677529563069
355 0.008347420053728558 0.0005026384945272554 0.004097592506781453
329 -0.015059807483876149 -0.0017910800823690376 -0.03319126494603501
53 0.004418761882275463 0.019603525692459246 -0.006464794524864154
532 -0.004768888778253835 0.00473433443305285 -0.005178095382866304
128 0.00546910860321061 -0.004795706333433761 0.00041785266319628914
508 0.008065254179299606 0.004714990959900305 -0.0025547414859395864
119 -0.012611127219525776 -0.011364155076620292 -0.014644864363751644
13 0.0029697225951063216 0.007965919732638395 0.006573811751996077
530 0.018327509126514003 -0.005279337340943104 -0.003868974891277741
294 0.009189290380624764 0.004217741945005862 0.005501972505653096
428 0.010579740070201018 -0.023634211421110007 0.00972603675887519
297 0.01764056167471707 0.00240636029085382 0.03824107216411225
115 0.009709360731673174 -0.026122667188349113 0.004575928385706416
430 0.002949448933760399 -0.005261579331196128 -0.0017574740091285412
158 0.007336240302816155 0.0053249961076883255 -0.035409816812646176
113 -0.00315614415688656 -0.0009353143687196902 -0.00341976048831929
125 -0.006063321960074878 0.0008594359847834982 0.0026439285582949205
378 -0.010945204415340602 -0.00785442389401941 -0.008401416070035155
11 -0.0010538266726329774 -0.00337535303126603 0.00928639629172733
380 0.0011797552595115793 0.004841938260311558 0.0032741786976319886
251 -0.0012701380551396726 -0.005277187699181915 -0.003841261677413909
12 0.0008729731770971918 0.002496169668054784 0.0021639900669796555
384 0.0011537200374469039 0.0014073377477703745 -0.007180363565890715
387 0.016096888072259483 -0.015299028324122357 -0.023342984397288057
388 0.0022075564016120325 -0.0036548161330833993 -0.004712749873906477
392 -4.670104941570439e-05 0.00859809477294077 -0.001180398422272082
9 0.0020097563469235013 -0.00015258440209590224 -0.0012373957726497817
103 0.008698881487887665 -0.0144891280952065 -0.0081612886854775
10 -0.010689037995419159 -0.02675736637378079 -0.009255661614125391
250 -0.004628677535544474 0.0033352640147678216 -0.0018822746987185964
102 0.01887461302332538 0.00714542972698232 -0.009202344935997505
129 0.0012197062933729215 0.0020524889047846303 -0.0016165237886161387
364 -0.0008306812397653644 0.018392211686585662 0.017879642837206024
291 -0.0049131367225055175 0.005868436818353651 -0.0006589073859063545
386 -0.0017433437887232268 -0.0021806611232553902 0.0005235235733458183
335 -0.011706267005762586 0.026297003936798225 -0.01279199543611204
37 -0.01798094961024303 -0.01833273479689599 0.0004357656957171271
157 -0.031987415585761694 0.004466485414050823 -0.037999611712555524
382 0.029300619002308813 -0.0016110841364619843 0.0009541133914328936
271 0.009375486913657477 0.010121511685325464 0.0027695648433362138
130 0.0023070739791939674 -0.007872240448749472 -0.003236322893480982
19 0.018395512524655086 0.03590146313987472 -0.009777857837964286
126 0.01746312449424321 -0.012107922970780689 -0.0014113957608665078
249 -0.006198865276369486 0.008923526811851091 -0.00945974754364476
123 0.000692641517484799 0.003523252679996091 -0.00576633057082594
131 -0.001597987099343649 0.00019664815217970228 -0.002141746047204375
535 -0.011426458260654025 0.014172139129159137 -0.008662000482697897
248 0.010842288620069605 -0.016076433492936425 -0.004155136082661523
134 -0.03344157745081651 -0.02649796493125072 0.00047819530996014755
106 -0.01384683452136605 0.019946710509035816 -0.0007661339862988221
14 -0.0017185857149008444 -0.006360470202764426 0.0008154251090111312
292 -0.0023165967145011143 -0.014259552462572005 -0.02025665649959319
289 0.019871177197772653 0.004550825570827245 0.009261931118820049
288 -0.027198394965406266 -0.01647401098917023 0.015099313938918994
287 -0.0015234959022512936 0.004261607703286916 -0.00075366677014289
26 0.0013000697607452394 0.004606091259135445 -0.0022058311959329726
16 0.014293114025070362 -0.02853678740226723 -0.023811380957141602
565 -0.012487031929841165 -0.028420419158533616 -0.03969760289612362
179 -0.010982229695426176 0.00902486303393548 -0.0021104505789697682
149 -0.0015669536267456483 0.004350720316088243 0.0005349681621693269
21 -0.007672004741941285 -0.004921409392105482 0.00556931717158091
141 -0.024167940631664907 -0.01011039448808207 0.0072815359556445075
282 0.004973303323995883 0.006581841953707446 0.001829706014371691
319 -0.0029533201190801097 0.0017419076126689004 -0.007911051144011536
546 0.0313999447358616 -0.0006442084229006695 0.010078212494068683
483 -0.009023155886380082 0.018138782409360617 -0.01690507284857118
151 -0.01654342473850788 0.005233879706053265 -0.026798481355404604
138 -0.028352125318119314 0.009801521356158024 0.008320515545856926
156 -0.03470927255945511 0.01091812716400632 -0.004047142487041957
570 -0.0013075607005490887 -0.0019005531014029725 0.0022693033836270133
451 0.006534260283388761 -0.00894414835444301 0.014564093821622727
86 0.004023088014922065 0.0006254212386889658 -0.004631017437478188
154 -0.004239113334043608 0.010955389135086447 -0.015471435388780465
252 -0.0003907944266564177 0.0005722613037323999 0.002284583222010366
244 0.006493743776158461 0.0007745580039643501 -0.00036785023287907016
142 0.005208879468906648 0.005226773027535144 0.0041916635045866485
73 0.025771612967373535 -0.01698757520651742 0.02486610137359404
256 0.02014651555773567 0.008832840016369636 -0.01308997640405602
20 0.003404330879828672 -0.00859037187954351 0.00016444689405594818
461 -0.00015635711028463899 0.004717708400852295 0.004501759748085317
152 -0.007717717432794717 -0.001454229906341159 -0.004062213659459985
98 -0.010848607902022588 0.02001595608946381 -0.0024422534872904312
63 -0.00648920683786797 -0.004329466751757819 -0.004652615625534582
540 -0.012452392416381245 0.005566493385405777 -0.01630475891911284
139 0.0005710588348138325 -0.004133593758685443 0.0021531929317455617
140 0.002018845907497749 0.0003633772033797532 -0.0015865020388241672
464 0.006520243801907482 0.014820649102138234 -0.035271409695930116
254 -0.012705115151457535 -0.01016342945436445 0.024356595223087044
258 0.010443359268784548 0.004349557772277252 0.006220292681384025
547 -0.032376685252422405 0.009602748187679595 -0.016541377905805198
65 0.00506375445644069 0.002010670933817073 -0.0009183620860660368
542 0.003705167757419596 -0.0014749307293732059 0.0026843799106822637
46 -0.029353730875390453 -0.030744790395412926 -0.002024131407494742
64 -0.00605489931446139 0.001027042700524801 0.0010537543321018144
48 -0.007217202176528381 0.022446631917518698 0.004355972075227653
67 0.002129971125627188 -0.0023590042079827582 -0.0011151921793027381
69 0.0015436248303727358 -0.0022400355077528047 -0.0004458947139839446
44 0.003951907749265156 0.0032397748358440415 9.01091059433766e-05
70 0.0002458256784577142 -0.006757534760701498 -0.005514820631194612
66 0.004318420703548068 -0.0015731884382241819 0.005371106383530274
72 -0.003977203793483764 -0.0014643669615978848 0.0013440927409424522
68 -0.0011987178695165484 -0.005525621536430406 -0.0022813560281323914
74 0.00872670559745437 0.010428484403495161 -0.006351186767159726
257 -0.0037554303160998977 0.0017763357040303618 -0.002170586295470774
100 -0.009077165898704694 0.014603414335856853 0.013302860525396676
327 0.0010888581695376774 -0.005675505893647994 0.0029337617028983853
322 -0.007502697930462224 -0.004555308794919229 0.0006398946649376054
320 0.00816753513967486 -0.0019022514919469534 -0.0017347448086691343
325 0.001631472391224556 0.004217238204403669 0.0028274438636802976
317 -0.0034341883447640722 -0.003057737386490017 -0.008815157819314431
326 -0.0015980157784791515 -0.0006958439896509639 -0.006208712610677129
321 -0.0038309424677698484 0.009286384122856307 -0.004911134840778101
323 -0.0037582669925710676 0.0038750431458902594 -0.0002025090042276621
569 0.0026768143392219344 0.0049301450812618604 -0.00263959195528893
71 -0.006950562429760943 -0.0022636664723567445 -0.0015805265178580068
324 -0.010109788715881711 0.0008487778854926898 -0.0029307105911171114
88 0.0028441688999042408 0.015216891306920098 0.013886070646848644
465 0.008104946085756546 0.004489821727826251 -0.004640455049772393
143 0.004284307432671431 -0.007571090100500995 0.0001350689528594078
202 -0.01664238931057365 0.008767890267891364 -0.01096296684221078
567 -0.012219339124539343 -0.005362753976226484 -0.013107411621156882
279 -0.015820449459175993 -0.012480911487830771 -0.00430107780898243
316 -0.022207359936530335 0.02028480108660274 -0.010316612661626373
75 0.02996155302116864 0.014217621020456088 -0.0038721894916538564
245 -0.00045735084931027627 -0.02792361307152929 -0.005697871818213102
84 0.00308542380181704 0.0013665814620198143 0.001691707430829662
91 -0.0019811518122724386 -0.004071760178046155 -0.006918047393971626
559 0.006804793593999406 0.0027572464933097603 0.00535425310912449
318 -0.03045463454267187 0.020572678177676305 -0.004590137248439521
462 0.008456313173943795 0.007866535308780422 -0.0021764424597445014
146 0.00632238264193736 0.002432862222421263 0.0014604003204886618
255 -0.004097272427145966 -0.00702520063875768 0.0021689713464017536
204 -0.004067331608224854 -0.001962087394585493 0.003781451685586124
506 -0.016831659281109267 0.008829623852648521 0.018724380430071047
205 0.018116690124581305 0.0162141990794123 -0.014201163521993427
101 0.00982988510529842 0.010308756569495063 -0.026554186362961776
571 0.0005119811987103968 0.0014793433762567997 0.008116196840110166
22 -0.001226025222218222 -0.004440841938083524 0.012858991081755493
95 0.0010766620271868478 0.0008851063314774244 -0.0013293488288761413
144 -0.0013677662597224834 -0.026168196434516056 0.009602733558176703
118 -0.01794640459255476 0.003189896357351739 -0.003888053414457016
566 -0.014885225661610513 0.024670200626132406 0.016907105086560407
381 -0.010095534332233981 -0.009475642438998944 -0.015055216154132606
501 0.0008792037479644964 -0.003632797303343759 0.0026924203888374575
31 -0.006672767297932989 0.0017605077607472112 -0.0027929434838238555
5 0.006416241460460271 0.010716722103745848 -0.009501733448031981
8 -0.0060277477317835105 0.003473026275403032 0.0020940578295135233
6 -0.0010316950169517922 0.018346398713113825 0.0028715182867900986
110 0.008017361191653853 -0.009607811972597234 -0.0002504975860996831
35 -0.010106875910225107 0.0017148672715061781 -0.011075964426934906
36 0.011983097774532887 0.0076589206250534374 0.001550189388418767
568 0.002699411980604063 -0.0035641949056867935 -0.0022309364180251247
23 0.0019345093964903556 -0.0022350124495517398 -0.005345595247758551
332 0.0006798100922518751 -0.003121364623107594 -0.002106618182171108
29 0.0013201225601216745 -0.002439367134863662 0.0036334003894764933
96 0.008958417097165721 0.0014525346307478519 0.014296492974581689
504 -0.0025424825148733826 -0.008339750061451334 -0.0012699950689440574
112 0.004709473668632707 -0.005417597415676442 0.000916482454980044
582 0.018959753131217734 0.010127887283431516 -0.01800778032091927
573 -0.0036328073994461555 0.004021121333341453 -9.944046551357407e-05
365 0.01274266594750912 0.01440503149750128 0.008180451085826608
3 -0.003939688330270361 0.003656928287247376 0.0034483151853803764
30 0.004921764466783353 0.01019591642933719 -0.004616959766719538
218 0.004173979257608516 0.0023744373301549737 -0.00032724287066611624
104 0.0184059175643631 -0.009521150020198972 0.020431192672190967
7 0.01745177187361655 0.029637110997206496 -0.0051543701499130665
420 0.004061809089077442 -0.012872849331426139 -0.01950858300671047
489 0.0065065742164973905 0.01364568170615203 0.021275120513701746
220 -0.0033378598064945446 -0.006153679385424075 0.0005778561556921579
216 0.002044024139583239 0.0002145148916641719 -0.0023214031618040507
369 -0.006333055574874756 -0.005872830178381678 -0.0004378746716374663
370 0.005999072750886613 0.0009068219783324694 4.481145091904424e-05
366 -0.033373478647097256 -0.001495528554576317 -0.034950188676544584
371 -0.0015703709564625055 1.1983482653811981e-05 -0.004031858577012967
367 0.004504712627788316 -0.0035190709786550047 0.00018550545787263136
153 -0.014569052134483134 0.019945684635259614 -0.019803088216537198
424 -0.004457618476787428 0.0035806084231086747 -0.006158062939249735
148 -0.0010703851022358449 0.0009915365262600675 0.004939229685558399
109 -0.004158015049890225 0.0022554345388008626 0.0007049974360662364
389 -0.015236919617537183 0.008353450930148798 0.023034853624889585
512 -0.011841177616222059 0.03672728771967115 0.023779284959746315
372 -0.0024851213135487623 0.005875640785542963 -0.0026082583410725812
425 -0.0034469164819740366 -0.003951769802598964 0.0021894083646591903
328 0.0030740617416480896 -0.006462498470058823 0.002568475832470326
368 -0.002003198676238877 -0.005988757710231121 0.004906136417254226
373 0.01683971632978568 0.003381066218614758 -0.013230746527309748
108 -0.008218295818917327 -0.0039520592261497595 0.0025709520715751313
107 0.002658798255392311 -0.0022385513963267467 0.0018893405700020046
421 -0.0009070443711776906 -0.004956138248411889 0.007437567948681792
376 0.009004784388040657 -0.025378188583336087 -0.004437118609880623
25 0.0062350285257153516 0.0019664152226936114 0.005841877578900565
105 0.007424135194592966 -0.0033492069634295622 -0.0018164844248360532
94 -0.011434177404694016 -0.007610680178138408 -0.03497625133809739
99 -0.011901899369457626 -0.0008982227896826245 0.021886260007339963
188 0.0015982876643053554 0.0031051602158899496 -0.004456282379046952
33 -0.00017032609803078837 -0.0028458771769815966 0.005820438771366249
155 -0.007357633741303442 0.006133585408825952 0.003511364469665095
2 -0.016125263909004477 0.031940523013092824 -0.010789236291887818
92 -0.0035889860116343243 0.0067633720568550755 0.009445856084504664
93 -0.00625120304617676 0.013108362307736727 -0.01336452508230674
145 -0.022419867457745546 -0.014735538007856624 -0.005604075183263974
28 -0.01300533790923192 -0.01793917692017 0.027842405623841868
219 -0.006354274873253694 -0.0010490773786369133 0.004055258175915775
374 0.004691927036070111 0.0035409934388963143 0.0020042529989124066
423 0.001518439409121851 -0.0006922159513134661 0.0051113085812862355
184 -0.008854829719539771 0.01937353108591692 -0.004434485550837613
203 -0.0030381359544002103 -0.028798269040296 -0.00312200597928326
383 0.0008958214388647963 -0.012304987530081215 0.0021899934010390382
385 0.003701726310632533 -0.03339919375822448 0.0027438761375473218
32 0.000886071999881458 0.0058967468771153365 0.010292031061771975
375 -0.0037778783482436203 0.0321363832865202 0.005154953426973455
4 0.0025381406199248917 -0.007826683579755257 -0.0008629114082364741
38 0.011376550020480923 -0.02158803318539449 -0.021212612576456527
24 -0.00426647676449942 -0.006001376223558234 -0.0002291682038399452
443 0.010088919713262808 0.01420905075996633 -0.006425496571759231
215 0.0039653479181739415 -0.02831237718730798 -0.021057502989907207
217 -0.010058304348762504 -0.0014382627515707078 0.0025938312410728236
422 -0.031110874087192483 0.005371400583929194 0.010660226130472331
111 -3.082574889253947e-05 0.005223830628392969 -5.775208275978671e-05
97 0.00829522194240058 -0.0017468674385652586 0.0003351279532819354
334 0.007420949869095822 0.0038400284407591016 0.005668154044703718
584 -0.0035276922289674104 0.004566133111654246 0.0019111824363296618
470 -0.0016137666120127293 0.005379597644085048 0.0043992405051167804
585 -0.0009911900081012567 0.0010462136351966642 -0.0037413958993708046
516 0.002643931601721453 0.0012835679906986579 -0.005000450621338186
468 -0.017601002041806 -0.015559258278687675 -0.02182656194497802
562 0.005021672775222981 -0.016289762197302552 0.02811796908701331
469 0.0070335554780924965 -0.008302330459167489 -0.003134168797953328
477 -0.004940360654084192 0.002412696277824991 0.001006587718862799
475 0.0036012391873182555 0.006666493397497858 -0.000996168691375263
513 0.022936793846618862 0.010254388530463487 0.020018358060100393
515 -0.004164527231499993 0.002079639455570238 0.004677467207089819
192 -0.003350937977393267 0.027210126369467964 0.01356494628997349
519 -0.0009707037062869644 -0.005187116215427426 -0.0009898821813399108
521 -0.00036192415683802446 -0.007299740761583918 0.0002436315710463483
520 -0.0003053714042422277 0.0026621357629966896 -0.003664917035757388
167 -0.0046948140959032075 -0.005363933048127592 -0.01998392213355003
358 -0.0031476739424406005 0.006262891129791135 -0.0009877661796425477
331 -0.006475543736413086 -0.007064468580513605 0.00154731295086659
333 -0.008856768078334102 0.0008882899014090314 0.002011234957447296
166 -0.012756483485002893 0.0039273232028486605 -0.022027222519990945
478 0.0008362605219413312 0.008100441235909358 0.0015056178996655958
514 0.002080923493598733 -0.007007230761545383 -0.00252834715623664
457 0.0035622720331430976 -0.0001524167111142965 0.0017969558333081968
524 0.021430634917473705 0.01787695353663033 0.008011824036706578
467 0.0019732009977046793 -0.0012145540538189786 0.002697347392295799
525 0.009086025369214237 -0.03079680523787383 0.007958514704011115
518 -0.008789454751302982 0.013663335770752523 0.021220333734803264
315 -0.0006984272345760209 0.024034562115147172 0.008820992894053916
170 -0.01628949861715115 0.013113886206266126 -0.01528514947783408
456 -0.003446606850190362 0.0004623382106241335 0.0032878750573708546
169 -0.0014512214575370117 -0.003932283274897297 -0.0003093785554554381
243 -0.0008957625285930614 -0.004521778445439602 -0.0010485459645097719
168 0.002991254533417781 -0.0062627182940374875 0.009170126092929744
127 0.01869849966770399 0.007090381151189288 -0.003188449254719221
120 -0.010114942341173066 0.014994345753421102 0.034149189732372257
176 0.0010740886149751784 0.008103690531253767 -0.0018534505232604048
43 0.00525044874373076 -0.0010399374231103054 -0.0015647415394761488
172 -0.014250178258013824 0.00726746850349507 0.011611844009754606
460 0.011710325229256819 0.00681703909897763 0.04124545823981749
473 -0.0035041666772565845 0.00020861499425650065 0.0021938754437154265
90 0.018813010665682667 0.009813742548506496 0.0018318640730393713
124 0.006525558912301858 0.0014457179020338445 0.0018893326386183852
330 0.010769102139191447 0.008373594173287126 -0.0004883545282204896
480 0.0016604534523402283 -0.002385456043577164 -0.002657457073529162
272 0.001475033989216371 0.0062166739928131 0.009358451943054211
132 0.010550168639736427 0.02185609753842016 0.012022320771121777
39 -0.0016128801804303288 -0.004005598216050176 0.0022304827033013098
314 -0.007082454772929754 -0.009518715760557565 -0.00023394716287437794
549 0.0069842567272733235 -0.012635605982372318 -0.009422643121293938
226 0.015966100567778155 -0.003505158195795154 0.0138486416362132
228 -0.024070406184498024 -0.01852812561619058 0.011894296339428477
190 0.0036766857864046973 0.00221600472564436 -0.011076628999069792
229 0.005537486117708394 -0.0008975749945674963 -0.002448413081053993
522 0.009929896702823113 0.0005807174290810816 -0.016224036385988013
186 0.0041863101174964105 -0.0020964703063118114 0.008798665449919968
523 0.007699498792613636 -0.0037178415616071236 0.0005247289369854734
187 -0.003809774636887875 0.0011332127945750169 0.0032596328552021605
183 -0.007774845375993005 -0.017954263074266216 0.01090815386032569
526 -0.009901759418362745 0.02308498614077557 0.029056195188153392
162 -0.004466976332127814 -0.0024033179812112753 -0.006243239405434494
479 -0.005410147756976465 -0.005057323432505529 -0.0019446807302257265
453 0.0019156887985484368 -0.0005065066148973352 0.002334413880458672
471 0.00770229919872505 0.012679084960130605 -0.024726148057117293
191 0.00996683037949739 0.0014032462813907164 -0.01105036114709233
341 0.004964185540999254 -0.03362684857985683 -0.008410935297956616
165 -0.003991092099643769 0.0031925689834430685 0.008382375779851617
340 -0.01971449542560714 0.0016938284311436875 0.00891563134087476
449 -0.007630122840722729 -0.019601697052209644 0.012136521047052888
233 -0.0014958066518616548 -0.0032408032634499637 0.006355731288984413
236 0.01887087650215342 0.016000820825172075 0.030408180768422274
136 -0.004042647325302216 0.0033810113257640227 0.0027426988850338097
161 -0.011052580189336789 0.003199142585253179 0.0019433681664712743
517 -0.03564084774979908 0.005673050395244514 -0.0180506825334445
175 0.008589349946407424 -0.01912066050315452 0.018678349513101492
164 0.009722781576100533 -0.0004668845501545957 -0.002166598496704571
160 0.024160597123154375 -0.014925101962308195 0.017918846741576067
185 -0.004768913638031558 0.006229078410014516 0.004015216691073215
312 0.00237775390667427 0.003559294976054155 -0.0014981806786215017
581 -0.005463330382308064 -0.002015169985064475 0.012944532666866227
311 0.001183173155468071 -0.0019832816405928344 -0.0021116609147970138
232 0.00822890315233906 0.005107958748642907 0.0004634122123287787
212 0.00821390057233888 -0.015034793817897001 0.005426814316070731
353 -0.0012660335554885312 0.007148222826423171 0.003874140586430442
235 -0.0023318029819579477 0.0032241609398237577 -0.001846085806862262
580 0.005143272424990869 -0.0067772116182013105 0.005780811922988897
234 0.0048835403969895875 -0.006113148233545956 0.0093330863116694
563 -0.01379226085016568 -0.005755414814227821 -0.006677552530542938
482 0.0014897464529675779 0.0013463384971831346 -0.00589878407971377
350 0.00023147740782071663 -0.012369275962589268 -0.0039054215670047215
290 0.0011537936000300714 -0.000747132044687201 0.01928068940950938
442 -0.0035067323057961534 -0.005148836378910515 0.003156930023640327
494 -0.0053412234098018764 -0.0006463632616503378 -0.01972557090257115
352 -0.002549049982804132 0.0018353873750652063 -0.0009376141130044882
239 0.0025446055891027103 -0.00024258910036723924 -0.0011741939703170934
240 0.013111178739381498 0.0033187302647852716 0.0016078621349098208
241 0.00680485265224934 -0.004405152939272015 -0.005934204218721432
213 -0.0018979620075130084 0.00802285161771576 -0.0045421686758187
210 -0.006907029809544173 0.007103476451970677 -0.0013358315201096684
214 0.008279112654010984 -0.011444776715862939 -0.015257626481432796
492 -0.0010783019346937825 -0.003222450977671278 -0.0017837807441184656
484 -0.0018375648098648343 0.004093815334423835 0.00027852331192538654
348 -0.006413948201620838 0.00650373270009552 -0.008803409880451727
208 -0.0010893777515957495 0.002458722289059819 0.00317227941570416
487 0.005792217529093083 0.007106440796054251 0.009418598726124513
419 0.014053911230232304 0.007668567902798321 -0.03268621383750669
418 0.005383508206760253 -0.005335173858693923 0.007573704347067465
414 -0.0005467549184575968 0.0036214022960228127 0.011535060719539931
417 0.0033553191524987353 -0.0012182988314442186 -0.0037864960098919166
416 -0.008810994492794946 0.027754992558994364 0.02800595861046092
415 -0.0006727525238066251 -0.0030192063707610997 -0.0010449749701418362
413 0.0007558353717261783 -0.001058217391929269 0.0072357363155778785
455 -0.0039859165416089165 0.003072616686053718 0.0011536543653576227
412 -0.009395780912665956 0.0019427315736330031 0.00402772540167286
206 0.03312593737895419 -0.008427929405300441 -0.021644265345917135
490 -0.0026157077799613053 -0.0038037794640573444 -0.008007387075465068
211 0.004566863616556041 0.0007125226520495815 0.003689335930883045
209 -0.00032682709607608157 -0.0006475670281668727 0.010041940561716568
486 0.0037091677221964244 -0.0011144539463693172 0.002161610885203443
485 -0.002352890872328524 0.007825036946769576 -0.0068306271986237075
488 0.013553478391911952 0.026738076615618264 0.01040357599252458
491 -0.01753137858412315 0.0018999223185634045 -0.004795075946833355
238 -0.006349237372067157 -0.0028031055703468225 0.001060851114535544
310 -0.00071467570599236 -0.003706789881730707 0.0008604978717283206
342 0.0059470016798352345 0.003745644212577673 0.0019722206558814314
391 0.004283875047397666 0.009537523567013595 0.01268568998512304
284 0.024670389233565647 -0.010570003568592428 -0.006047013956267504
306 0.0028526362232605892 -0.0014036393718600214 -0.0048142602166378
493 0.008160636977322992 -0.027939441835903658 -0.009879206902393608
207 -0.011037251241889832 0.0031067643631123233 -0.034517615827989956
337 5.450878120706733e-05 0.002421283725406863 -0.00016424148890577822
411 0.025462685238212702 0.016214271373115655 0.024985860098128084
454 0.0012290777769016457 -0.01444270272066551 0.005159175746133613
338 -0.012667460089840255 0.004806487138499029 -0.01840415496628576
343 -0.0022053475539063824 0.0010046403031445399 0.0004379257487235969
307 0.01919407896569026 -0.000131385088925275 -0.0005202326889454793
308 0.0010742757646223446 -0.010774276618754313 0.01112972205903522
137 -0.013892366401207432 0.011836246075396841 -0.009029902599791605
377 0.0018572148816128078 0.0071687043817679165 0.007486468552755916
496 0.006080008398243413 -0.01237736411567674 -0.0002936772574907978
550 -0.003826298978630906 0.01572458699412777 -0.009713602421984808
390 -0.004228049749612324 -0.0013663621492917431 -0.0005230750433345928
578 -0.004311441381780172 0.00410834613509775 0.004779808101084361
159 0.022763253753408607 -0.000428979390080557 0.017720741237946584
304 -0.0033498498786834053 0.0031731022947226613 -0.00938957556823375
300 -0.005679368795896727 0.019301232582347193 -0.006755573444305794
336 -0.016183373030394264 0.01881276257690586 -0.027895337612826757
313 -0.0018350917581458144 0.005347063872216794 -9.633996670598909e-07
551 0.020558342135469716 0.014249014537868882 -0.025684597462559113
579 0.0035456588113604746 0.002419274426541793 -0.0019548526708353447
440 -0.019611850511112246 -0.00027658976665065197 -0.016561581505734342
221 0.0102171731971441 -0.008725488738772635 -0.020760064663983845
263 0.002289944910374013 0.0004890281655705091 -0.0017061825450387196
61 -0.00747192998787082 -0.006456582673466433 -0.01222573936911978
230 -0.007713316436868472 0.0011049933672546799 0.006266870316056698
476 0.018860385943500167 -0.0059949516360757625 -0.010800470939484335
541 0.010101351817153922 0.012270209690615026 -0.004701992069489857
444 0.01320776367101617 -0.04404184273139059 0.007154457515333621
246 0.007288427804236283 0.0023928883962569536 0.011782797001497687
147 0.01201837059154316 -0.008320935426840386 0.0006062753105006162
60 -0.0012357679451945956 -0.00010968833555273299 -0.004678905127841142
178 0.0007301793716895721 0.0171000836587562 -0.01864263563235202
543 0.0016489595890903039 -0.001811327638373003 -0.007354111244734092
544 -0.002514110619536481 -0.0026978155202685037 0.001307639895801148
538 0.0025332651235502783 0.004343141825696793 -0.00714053274650306
548 -0.004927475552337824 -0.0026017866647705954 0.02120558926177331
52 -0.015970776863384807 0.0009712234567136194 0.002990192639747799
509 -0.011538706446192176 -0.014550248095307297 0.02016753277975376
231 0.0013739852314202537 -0.002902358150264709 -0.0012690601304143152
445 0.0010143089165001388 -0.003814914616949805 -0.000814156441069101
55 -0.004359182380293765 -0.010343306063084803 -0.006411481669577278
79 -0.00719230696242064 0.0033902761615096926 -2.368878177222194e-05
405 0.004445722412852365 -0.002626865345736775 -0.0005186575610501279
58 0.0029430927519269057 0.0012672036294390377 -0.006643037717087352
59 0.004435485542185612 0.0065685183637223836 -0.0018220959674580543
182 -0.0057822736606774556 -0.00042037103102123577 0.009884390002283427
181 -0.003630175042313448 0.0004807774944644193 -0.008249933878186597
404 -0.0046915474142618955 0.00433085617601634 -0.002791958586718429
406 0.0072322437050857166 0.001385030469261681 0.00030874146028839574
402 0.004479454769631655 -0.0052105555174488845 0.0005525628630918025
408 -0.0013296294512061266 0.042729972854148 -0.013608286477355298
400 0.0004570098947366878 0.0075564757116259465 0.0015868955610259694
410 0.0022018914851435383 0.004274969927780568 0.014539755760212969
397 -0.00207878919523473 0.0018543246357672414 0.007912731191664508
396 -0.016117983060117785 0.006342757446996258 -0.008704673610923756
201 0.003317001914798404 0.0012154493066554868 -0.0021232159309046016
583 -0.0016455821535741979 -0.00789203231004163 -0.02159835816853502
78 -0.003713143724469049 -0.0050816335988930145 -0.0007919748630791443
561 -0.0023656120818943897 -0.002864752274078864 0.0025345531110981365
510 0.005895916837022897 -0.00736879611429307 -0.005267904147523586
511 -0.0030714036153598632 0.01616285518160298 -7.303599479641948e-05
537 0.03377401855793153 0.006980769217636652 -0.008494403504114243
76 -0.009785322917011785 -0.0062522005013373886 -0.02921146820010564
198 -0.00728828962327082 0.017537167333997433 2.080870424977462e-05
196 -0.004904279173878175 0.0020083283484381483 0.004217542522542288
54 0.007397608567146078 0.008255492027358985 -0.00258123558082003
194 0.031313225672962776 0.00969418748216376 0.002499572895748122
409 -0.052045828402339324 0.006138062803284945 0.01189022268046515
77 0.0015932068801305216 0.0012622916291657187 -0.006845483641595524
237 0.007490375173118653 -0.017621577646507926 -0.01077091660333013
81 -0.008297726879628878 -0.01035445235091311 -0.02300996035937515
80 0.00023325407654079168 0.01150600279315923 -0.013645400728222241
558 -0.0004329574106261951 -0.00033931215880278736 0.0006029250639982281
200 0.0010581735149701446 -0.010102367070634909 -0.012253561365307654
51 -0.0042837742211974655 0.024865515167352036 -0.007692227211435231
199 -0.0010227628954486022 -0.001829978591611757 0.002743966872800289
481 0.012429855331820179 0.02750410372350066 -0.005415155175567011
536 0.031733572721378736 -0.0077180783944944195 -0.00047697656111615066
197 -0.0023561508424086225 0.0011431027780767727 -0.006688360048998307
163 0.012757197731677543 0.016769154072481782 0.014525939041870314
437 0.040445493742412165 0.006527312240935026 0.012629475191669218
302 -0.0031454961668563575 -0.010270091581884218 0.0013689800491175678
495 -0.023891730399360035 -0.01049077116748543 0.008590486744557879
441 0.010579212975529917 0.0037933895182620495 0.009182495244130659
27 -0.012600736414531058 -0.018311897328929804 0.023958465892060608
339 0.018844175486315996 0.0014728566030930566 -0.0030086408022565216
575 0.002975235898365667 -0.001991978286209439 -0.004713567401593143
262 -0.0036136401846690726 0.003931661461115076 -0.0015519943636305412
85 -0.0017189332564728735 -0.002556386762926122 0.001917954697070177
429 -0.023152991958769558 -0.008169931862239476 0.018131073666889555
502 0.007204857677550086 0.006863726127001854 0.002341395520302274
264 -0.003341703419544913 -0.003956518178276337 -0.010511986491271741
395 0.017802766706247152 -0.002508363668819577 0.006913841392420572
433 -0.019613259750778014 0.009995615735347822 0.004552725377406076
261 0.027401133797181315 0.006060777582820482 -0.008470504025166069
555 -0.0019140078998090906 0.0017548387198167406 -0.007204711071155469
305 -0.0014767093276959878 0.009099491384520798 0.003017002335001752
309 0.011782210891790934 -0.01467981719537106 -0.011971315756780739
554 -0.0018647230807684043 0.0022240551476133985 -0.004578940515609841
557 0.0005937870285666072 -0.002627169990613338 0.002191262920062237
299 -0.002615270919849635 -0.002893328967100339 0.0028881800309433618
553 0.0019462984850934972 -0.006676558129226644 0.006784033794290845
427 0.0036772820194785325 -0.014567711265021509 -0.004115997506493315
298 0.001216608023122192 -0.00221208735830714 -0.0038691695923663678
577 -0.0008510498071601876 -0.0014925744905781573 -0.012657416516498292
301 -0.0027857900531655768 -0.0058018285264484 -0.0022785184911393356
463 0.012762329380107481 -0.005119259872314602 0.02025686292302138
431 -0.021294975501118946 -0.029032918981952555 -0.005824679067193694
393 -0.005674424712734006 0.0013788379620892884 0.0007529608240234545
556 -0.0006591271011629712 -0.0023197835273266547 -0.0050846262173658025
503 0.0010186744542523161 -0.0022492202558542745 0.004174580728965042
266 0.020245441461997093 -0.029053957448292575 -0.018269994278604748
505 -0.03660590407604902 0.02678772168909651 -0.011758358166527663
62 0.004966458906389892 -0.007708233925080667 -0.01484077222971615
560 0.0028952251910060066 0.006316375587292606 0.010467044723724377
268 -0.005607556851495021 -0.004402495200447264 -0.007119040026605611
293 -0.006955450305026953 0.026611387997857394 -0.013486859490211996
87 -0.02305558872756313 0.0018572279958819168 -0.0011232851745420916
435 0.002901479305259714 -0.003179402904484383 -0.0069327692633224785
394 0.0029333364336765404 0.009851094779802923 0.0032351134040167736
398 0.017372808613633207 0.029768432619024576 0.012261730903179778
303 -0.02636036232171094 0.02654341962172165 0.02293902173268697
438 0.0036489562234023765 0.001062068124502884 -0.003221349254468633
458 0.011068634381454239 -0.000882864830433096 0.01684586768228257
195 -0.0030966533410700806 0.0019392110152679637 0.0010893272121718807
34 0.03502486953853101 0.023546039114738106 -0.02418707328213744
89 -0.005697407698803883 0.0037231253182767655 -0.0011464161043956735
500 -0.0035901186373886664 -0.002739548460247315 0.0029240016314174425
259 -0.014482548509557096 -0.014368656995275196 0.01061651631009358
498 0.002820157010544026 -0.0029206942362410273 -0.0016912126317500161
497 -0.003081211456203079 0.002497331888310394 0.00889989013912147
499 0.003660297538205345 -0.008401877080384226 2.1026119514858908e-05
434 0.004271844330866832 -0.007564748746558009 0.0011658117326573002
267 0.0017245740007320854 -0.003681867185207931 -0.0065314773365499
83 -0.017474744465675675 0.0051467658089358135 -0.003864697962405694
436 -0.0041456063513737795 0.0006337751499105547 0.0044034724978147186
295 -0.0029338090999738507 -0.009452695056495824 -0.0018035979236120572
260 -0.005781531792531625 -0.003734649177372891 -0.0036902440237180545
574 -0.012933979567888488 0.0018368828472112833 -0.00046278467367005674
439 0.0003963333538062296 0.004863531747413763 0.008743174908210994
296 -0.011516544621427418 -0.00950780032835654 0.025605845976785124
426 0.005266761325943879 -0.012489988216490713 -0.009328555781298011
225 0.03301891187633913 0.00789520496555055 -0.00046655869796271497
265 0.0020901189926814698 -0.006211671938246455 -0.020753424186928788
242 0.019743387406316794 0.019278046838988587 -0.025867240584690136
253 -0.020529194814211806 0.016896692927989884 -0.007121924613212662
552 0.0016114178010365376 0.01710768962425265 0.006841223508190038
133 0.0014326161864112476 -0.020465090274926923 -0.0025773859420746056
135 -0.004316686504876179 0.003347094294947467 -0.003072631682283518
247 0.006911528425878329 -0.002003945375152184 0.005573025806332416
82 0.00015846033141507518 -0.010239914590046976 0.0215155063158563
270 -0.016022382825544048 0.027924075189229503 -0.020673292548321762

Bonds

1 13 283 281
2 15 283 285
3 15 278 116
4 17 114 116
5 13 281 278
6 4 361 356
7 5 361 363
8 5 361 360
9 5 361 362
10 13 356 351
11 17 359 357
12 13 354 356
13 15 354 357
14 4 447 281
15 5 447 446
16 5 447 450
17 5 447 448
18 15 351 173
19 17 286 285
20 13 349 354
21 6 41 285
22 2 41 43
23 5 41 40
24 5 41 42
25 13 177 49
26 13 177 124
27 4 345 349
28 1 345 403
29 5 345 346
30 5 345 340
31 5 403 401
32 5 403 407
33 5 403 399
34 13 280 283
35 6 528 116
36 2 528 531
37 5 528 529
38 5 528 507
39 13 276 277
40 13 276 278
41 6 223 357
42 2 223 379
43 5 223 224
44 5 223 222
45 13 347 344
46 13 347 351
47 4 56 15
48 4 56 177
49 5 56 132
50 5 56 57
51 13 277 280
52 14 277 275
53 13 344 349
54 14 344 341
55 13 47 174
56 14 47 45
57 13 49 47
58 14 49 50
59 13 15 13
60 12 472 466
61 11 472 474
62 18 227 527
63 17 171 173
64 10 531 527
65 9 531 533
66 4 274 276
67 5 274 117
68 5 274 273
69 13 17 15
70 14 17 18
71 16 174 169
72 13 174 176
73 10 379 193
74 9 379 378
75 5 545 576
76 5 545 572
77 5 545 546
78 14 180 179
79 7 269 466
80 3 269 472
81 5 269 271
82 5 269 270
83 3 121 123
84 8 121 241
85 5 121 119
86 5 121 122
87 18 355 193
88 18 329 564
89 8 532 534
90 2 532 531
91 5 532 530
92 5 532 508
93 13 128 180
94 14 128 126
95 13 13 11
96 14 13 53
97 7 294 291
98 3 294 123
99 5 294 297
100 5 294 249
101 8 430 380
102 2 430 379
103 5 430 428
104 5 430 432
105 1 113 274
106 5 113 115
107 5 113 158
108 5 113 157
109 14 11 10
110 12 251 125
111 11 251 248
112 16 12 9
113 13 12 14
114 13 12 11
115 16 384 380
116 13 384 388
117 13 388 392
118 14 388 387
119 14 392 335
120 3 250 251
121 7 250 125
122 5 250 103
123 5 250 102
124 13 386 384
125 14 386 382
126 18 37 370
127 16 130 129
128 13 130 128
129 12 123 291
130 11 123 292
131 8 131 129
132 3 131 251
133 5 131 134
134 5 131 133
135 13 14 17
136 14 14 16
137 5 287 289
138 5 287 288
139 5 287 489
140 16 26 534
141 13 26 22
142 13 26 32
143 13 149 25
144 14 149 147
145 4 282 280
146 1 282 287
147 5 282 279
148 5 282 483
149 4 319 321
150 1 319 510
151 5 319 316
152 5 319 465
153 17 156 327
154 10 86 559
155 9 86 88
156 8 252 461
157 2 252 247
158 5 252 459
159 5 252 253
160 6 244 173
161 2 244 247
162 5 244 245
163 5 244 242
164 8 142 143
165 2 142 140
166 5 142 144
167 5 142 141
168 18 73 139
169 4 152 322
170 5 152 154
171 5 152 151
172 5 152 150
173 4 63 64
174 1 63 545
175 5 63 98
176 5 63 539
177 17 540 542
178 10 140 139
179 9 140 138
180 17 464 317
181 17 547 542
182 15 65 542
183 13 65 67
184 13 64 65
185 13 67 70
186 4 69 67
187 5 69 46
188 5 69 44
189 5 69 48
190 15 70 72
191 13 66 64
192 14 66 100
193 13 68 66
194 13 68 70
195 17 74 72
196 6 257 72
197 2 257 140
198 5 257 254
199 5 257 258
200 13 322 325
201 13 320 322
202 15 320 317
203 15 325 327
204 13 326 323
205 13 326 325
206 13 321 320
207 13 323 321
208 14 323 324
209 6 569 327
210 2 569 568
211 5 569 567
212 5 569 451
213 4 71 68
214 5 71 75
215 5 71 101
216 6 84 317
217 2 84 86
218 5 84 82
219 5 84 552
220 15 91 95
221 18 318 559
222 16 462 461
223 13 462 255
224 13 462 421
225 16 146 143
226 13 146 149
227 13 255 217
228 14 255 256
229 1 204 71
230 5 204 203
231 5 204 202
232 5 204 205
233 8 571 573
234 2 571 568
235 5 571 570
236 5 571 566
237 13 22 23
238 14 22 20
239 4 31 30
240 4 31 29
241 5 31 35
242 5 31 34
243 8 8 9
244 2 8 4
245 5 8 7
246 5 8 6
247 10 568 564
248 9 568 565
249 13 23 30
250 14 23 21
251 13 29 24
252 13 29 25
253 18 96 107
254 8 504 501
255 2 504 108
256 5 504 506
257 5 504 582
258 13 112 91
259 2 3 4
260 6 3 95
261 5 3 99
262 5 3 2
263 13 30 33
264 13 218 425
265 13 218 216
266 14 216 215
267 16 371 369
268 13 371 188
269 8 367 369
270 2 367 368
271 5 367 365
272 5 367 364
273 17 153 155
274 13 424 423
275 13 148 146
276 14 148 145
277 13 109 112
278 15 109 155
279 6 372 155
280 2 372 368
281 5 372 373
282 5 372 375
283 13 425 374
284 14 425 426
285 4 328 326
286 5 328 385
287 5 328 332
288 10 368 370
289 9 368 366
290 10 108 107
291 9 108 19
292 14 421 420
293 14 25 27
294 6 105 95
295 2 105 108
296 5 105 106
297 5 105 104
298 13 188 216
299 14 188 184
300 13 33 32
301 14 33 36
302 4 92 112
303 5 92 93
304 5 92 94
305 5 92 38
306 4 219 424
307 4 219 218
308 5 219 221
309 5 219 427
310 13 374 371
311 14 374 376
312 13 423 421
313 14 423 422
314 1 383 328
315 5 383 512
316 5 383 381
317 5 383 389
318 14 32 535
319 10 4 1
320 9 4 5
321 13 24 148
322 14 24 28
323 13 217 424
324 14 217 220
325 13 111 268
326 13 111 91
327 18 97 1
328 13 334 390
329 13 334 392
330 13 470 585
331 14 470 468
332 13 585 516
333 14 585 584
334 13 516 333
335 16 469 467
336 13 469 470
337 13 469 331
338 13 477 479
339 14 477 562
340 13 475 477
341 13 475 478
342 4 515 516
343 4 515 475
344 5 515 513
345 5 515 514
346 12 521 519
347 11 521 525
348 3 520 521
349 8 520 358
350 5 520 518
351 5 520 524
352 14 331 330
353 13 333 331
354 14 333 272
355 14 478 476
356 13 456 453
357 14 456 457
358 8 168 169
359 2 168 43
360 5 168 172
361 5 168 167
362 13 176 124
363 14 176 120
364 10 43 39
365 9 43 170
366 3 473 472
367 8 473 467
368 5 473 471
369 5 473 443
370 14 124 127
371 13 480 478
372 14 480 481
373 13 190 186
374 14 190 192
375 4 229 233
376 4 229 231
377 5 229 228
378 5 229 226
379 13 186 182
380 7 523 519
381 3 523 521
382 5 523 522
383 5 523 526
384 4 187 186
385 4 187 185
386 5 187 189
387 5 187 183
388 1 162 165
389 5 162 160
390 5 162 161
391 5 162 159
392 13 479 482
393 14 479 563
394 13 453 575
395 14 453 452
396 4 165 347
397 5 165 164
398 5 165 166
399 18 449 39
400 13 233 235
401 13 136 135
402 14 136 191
403 18 175 243
404 13 185 136
405 13 185 180
406 12 312 313
407 11 312 315
408 4 581 417
409 4 581 580
410 5 581 460
411 5 581 549
412 7 311 313
413 3 311 312
414 5 311 308
415 5 311 314
416 13 232 233
417 14 232 230
418 16 353 358
419 13 353 350
420 13 353 352
421 13 235 239
422 14 235 236
423 13 580 456
424 13 580 578
425 13 234 232
426 14 234 118
427 16 482 484
428 13 482 480
429 13 350 343
430 14 350 517
431 16 442 394
432 13 442 438
433 13 442 393
434 14 352 290
435 14 239 240
436 7 210 213
437 3 210 211
438 5 210 207
439 5 210 212
440 3 492 490
441 7 492 486
442 5 492 493
443 5 492 494
444 13 348 352
445 14 348 284
446 3 208 211
447 8 208 413
448 5 208 206
449 5 208 209
450 8 487 484
451 3 487 490
452 5 487 485
453 5 487 491
454 13 418 417
455 14 418 419
456 16 414 413
457 13 414 415
458 13 414 412
459 13 417 455
460 13 415 418
461 14 415 416
462 13 455 412
463 14 455 454
464 14 412 411
465 12 490 486
466 11 490 488
467 12 211 213
468 11 211 214
469 16 238 241
470 13 238 234
471 13 238 239
472 3 310 312
473 8 310 306
474 5 310 309
475 5 310 377
476 13 342 348
477 4 337 342
478 4 337 334
479 5 337 338
480 5 337 336
481 13 343 342
482 14 343 339
483 13 390 386
484 14 390 391
485 14 578 579
486 16 304 306
487 13 304 301
488 13 304 305
489 5 263 264
490 5 263 259
491 5 263 265
492 13 60 190
493 14 60 61
494 3 544 405
495 7 544 543
496 5 544 548
497 5 544 541
498 13 231 201
499 13 231 445
500 14 445 444
501 3 55 79
502 8 55 59
503 5 55 54
504 5 55 52
505 12 79 77
506 11 79 81
507 12 405 543
508 11 405 538
509 16 58 59
510 13 58 60
511 13 58 181
512 13 182 181
513 14 182 178
514 14 181 51
515 13 404 400
516 14 404 409
517 8 406 402
518 3 406 405
519 5 406 410
520 5 406 408
521 16 400 402
522 13 400 397
523 13 397 445
524 14 397 396
525 13 201 404
526 14 201 237
527 7 78 77
528 3 78 79
529 5 78 80
530 5 78 76
531 8 561 558
532 2 561 86
533 5 561 90
534 5 561 537
535 5 510 583
536 5 510 509
537 5 510 511
538 7 196 199
539 3 196 197
540 5 196 198
541 5 196 194
542 12 197 199
543 11 197 200
544 13 302 305
545 14 302 303
546 16 575 573
547 13 575 577
548 4 262 267
549 1 262 263
550 5 262 261
551 5 262 260
552 1 85 89
553 5 85 110
554 5 85 83
555 5 85 87
556 13 502 503
557 14 502 463
558 13 555 553
559 13 555 557
560 14 305 307
561 13 554 556
562 14 554 551
563 14 557 440
564 13 299 302
565 13 553 554
566 14 553 550
567 13 298 299
568 14 298 296
569 13 577 578
570 14 577 574
571 13 301 298
572 14 301 300
573 14 393 395
574 16 556 558
575 13 556 560
576 13 503 500
577 14 503 505
578 13 560 557
579 14 560 536
580 13 268 267
581 14 268 266
582 13 435 436
583 14 435 433
584 13 438 435
585 14 438 437
586 3 195 197
587 8 195 394
588 5 195 163
589 5 195 398
590 4 89 111
591 5 89 225
592 5 89 62
593 16 500 501
594 13 500 498
595 13 498 497
596 14 498 496
597 14 497 495
598 13 499 502
599 13 499 497
600 4 434 436
601 4 434 555
602 5 434 431
603 5 434 429
604 13 267 109
605 13 436 439
606 4 295 299
607 4 295 499
608 5 295 293
609 5 295 458
610 13 439 393
611 14 439 441
612 13 135 130
613 14 135 137
614 10 247 243
615 9 247 246

Angles

1 24 280 283 281
2 26 281 283 285
3 26 280 283 285
4 24 276 278 281
5 26 281 278 116
6 26 276 278 116
7 11 528 116 278
8 28 278 116 114
9 12 528 116 114
10 9 447 281 283
11 24 283 281 278
12 9 447 281 278
13 23 356 361 363
14 23 356 361 360
15 23 356 361 362
16 29 363 361 360
17 29 363 361 362
18 29 360 361 362
19 9 361 356 354
20 24 354 356 351
21 9 361 356 351
22 11 223 357 354
23 28 354 357 359
24 12 223 357 359
25 24 349 354 356
26 26 356 354 357
27 26 349 354 357
28 23 281 447 446
29 23 281 447 450
30 23 281 447 448
31 29 446 447 450
32 29 446 447 448
33 29 450 447 448
34 24 347 351 356
35 26 356 351 173
36 26 347 351 173
37 11 41 285 283
38 28 283 285 286
39 12 41 285 286
40 9 345 349 344
41 24 344 349 354
42 9 345 349 354
43 16 43 41 285
44 30 40 41 285
45 30 42 41 285
46 15 43 41 40
47 29 40 41 42
48 15 43 41 42
49 9 56 177 49
50 9 56 177 124
51 24 49 177 124
52 1 403 345 349
53 23 349 345 346
54 23 349 345 340
55 2 403 345 346
56 29 346 345 340
57 2 403 345 340
58 2 345 403 401
59 2 345 403 407
60 2 345 403 399
61 29 401 403 407
62 29 401 403 399
63 29 407 403 399
64 9 282 280 277
65 24 277 280 283
66 9 282 280 283
67 16 531 528 116
68 30 529 528 116
69 30 507 528 116
70 15 531 528 529
71 29 529 528 507
72 15 531 528 507
73 9 274 276 277
74 9 274 276 278
75 24 277 276 278
76 16 379 223 357
77 30 224 223 357
78 30 222 223 357
79 15 379 223 224
80 29 224 223 222
81 15 379 223 222
82 9 165 347 344
83 9 165 347 351
84 24 344 347 351
85 22 15 56 177
86 23 15 56 132
87 23 15 56 57
88 23 177 56 132
89 29 132 56 57
90 23 177 56 57
91 24 276 277 280
92 25 276 277 275
93 25 280 277 275
94 24 347 344 349
95 25 347 344 341
96 25 349 344 341
97 24 49 47 174
98 25 49 47 45
99 25 174 47 45
100 24 177 49 47
101 25 177 49 50
102 25 47 49 50
103 11 244 173 351
104 28 351 173 171
105 12 244 173 171
106 9 56 15 17
107 24 17 15 13
108 9 56 15 13
109 6 269 472 473
110 8 269 472 466
111 7 269 472 474
112 7 473 472 474
113 34 474 472 466
114 8 473 472 466
115 18 379 193 355
116 18 531 527 227
117 3 528 531 532
118 5 528 531 527
119 4 528 531 533
120 4 532 531 533
121 33 533 531 527
122 5 532 531 527
123 1 113 274 276
124 2 113 274 117
125 2 113 274 273
126 23 276 274 117
127 29 117 274 273
128 23 276 274 273
129 14 532 534 26
130 24 14 17 15
131 25 14 17 18
132 25 15 17 18
133 27 47 174 169
134 24 47 174 176
135 27 176 174 169
136 13 269 466 472
137 3 223 379 430
138 5 223 379 193
139 4 223 379 378
140 4 430 379 378
141 33 378 379 193
142 5 430 379 193
143 2 63 545 576
144 2 63 545 572
145 2 63 545 546
146 29 576 545 572
147 29 576 545 546
148 29 572 545 546
149 18 4 1 97
150 18 568 564 329
151 24 185 180 128
152 25 185 180 179
153 25 128 180 179
154 31 271 269 466
155 19 472 269 271
156 29 271 269 270
157 31 270 269 466
158 19 472 269 270
159 20 472 269 466
160 21 123 121 241
161 19 123 121 119
162 19 123 121 122
163 32 119 121 241
164 29 119 121 122
165 32 122 121 241
166 17 531 532 534
167 15 531 532 530
168 15 531 532 508
169 32 530 532 534
170 29 530 532 508
171 32 508 532 534
172 24 130 128 180
173 25 130 128 126
174 25 180 128 126
175 24 15 13 11
176 25 15 13 53
177 25 11 13 53
178 31 297 294 291
179 19 123 294 297
180 29 297 294 249
181 31 249 294 291
182 19 123 294 249
183 20 123 294 291
184 17 379 430 380
185 15 379 430 428
186 15 379 430 432
187 32 428 430 380
188 29 428 430 432
189 32 432 430 380
190 2 274 113 115
191 29 115 113 158
192 29 115 113 157
193 2 274 113 158
194 29 158 113 157
195 2 274 113 157
196 13 250 125 251
197 24 12 11 13
198 25 12 11 10
199 25 13 11 10
200 14 430 380 384
201 6 131 251 250
202 8 131 251 125
203 7 131 251 248
204 7 250 251 248
205 34 248 251 125
206 8 250 251 125
207 27 14 12 9
208 27 11 12 9
209 24 14 12 11
210 27 386 384 380
211 24 386 384 388
212 27 388 384 380
213 24 384 388 392
214 25 384 388 387
215 25 392 388 387
216 24 334 392 388
217 25 334 392 335
218 25 388 392 335
219 14 8 9 12
220 20 251 250 125
221 19 251 250 103
222 19 251 250 102
223 31 103 250 125
224 29 103 250 102
225 31 102 250 125
226 14 131 129 130
227 13 294 291 123
228 24 390 386 384
229 25 390 386 382
230 25 384 386 382
231 27 135 130 129
232 24 135 130 128
233 27 128 130 129
234 6 294 123 121
235 8 294 123 291
236 7 294 123 292
237 7 121 123 292
238 34 292 123 291
239 8 121 123 291
240 21 251 131 129
241 32 134 131 129
242 32 133 131 129
243 19 251 131 134
244 29 134 131 133
245 19 251 131 133
246 24 12 14 17
247 25 12 14 16
248 25 17 14 16
249 2 282 287 289
250 2 282 287 288
251 2 282 287 489
252 29 289 287 288
253 29 289 287 489
254 29 288 287 489
255 27 22 26 534
256 27 32 26 534
257 24 22 26 32
258 24 146 149 25
259 25 146 149 147
260 25 25 149 147
261 1 287 282 280
262 23 280 282 279
263 23 280 282 483
264 2 287 282 279
265 29 279 282 483
266 2 287 282 483
267 1 510 319 321
268 23 321 319 316
269 23 321 319 465
270 2 510 319 316
271 29 316 319 465
272 2 510 319 465
273 3 84 86 561
274 5 84 86 559
275 4 84 86 88
276 4 561 86 88
277 33 88 86 559
278 5 561 86 559
279 17 247 252 461
280 15 247 252 459
281 15 247 252 253
282 32 459 252 461
283 29 459 252 253
284 32 253 252 461
285 16 247 244 173
286 30 245 244 173
287 30 242 244 173
288 15 247 244 245
289 29 245 244 242
290 15 247 244 242
291 17 140 142 143
292 15 140 142 144
293 15 140 142 141
294 32 144 142 143
295 29 144 142 141
296 32 141 142 143
297 14 252 461 462
298 23 322 152 154
299 23 322 152 151
300 23 322 152 150
301 29 154 152 151
302 29 154 152 150
303 29 151 152 150
304 1 545 63 64
305 23 64 63 98
306 23 64 63 539
307 2 545 63 98
308 29 98 63 539
309 2 545 63 539
310 18 140 139 73
311 3 257 140 142
312 5 257 140 139
313 4 257 140 138
314 4 142 140 138
315 33 138 140 139
316 5 142 140 139
317 26 64 65 542
318 24 64 65 67
319 26 67 65 542
320 28 65 542 547
321 28 65 542 540
322 35 547 542 540
323 9 63 64 66
324 24 66 64 65
325 9 63 64 65
326 9 69 67 65
327 24 65 67 70
328 9 69 67 70
329 23 67 69 46
330 23 67 69 44
331 23 67 69 48
332 29 46 69 44
333 29 46 69 48
334 29 44 69 48
335 24 68 70 67
336 26 68 70 72
337 26 67 70 72
338 24 68 66 64
339 25 68 66 100
340 25 64 66 100
341 11 257 72 70
342 28 70 72 74
343 12 257 72 74
344 9 71 68 66
345 9 71 68 70
346 24 66 68 70
347 16 140 257 72
348 30 254 257 72
349 30 258 257 72
350 15 140 257 254
351 29 254 257 258
352 15 140 257 258
353 11 569 327 325
354 28 325 327 156
355 12 569 327 156
356 9 152 322 320
357 24 320 322 325
358 9 152 322 325
359 24 321 320 322
360 26 322 320 317
361 26 321 320 317
362 24 326 325 322
363 26 326 325 327
364 26 322 325 327
365 11 84 317 320
366 28 320 317 464
367 12 84 317 464
368 9 328 326 323
369 9 328 326 325
370 24 323 326 325
371 9 319 321 323
372 24 323 321 320
373 9 319 321 320
374 24 326 323 321
375 25 326 323 324
376 25 321 323 324
377 16 568 569 327
378 30 567 569 327
379 30 451 569 327
380 15 568 569 567
381 29 567 569 451
382 15 568 569 451
383 1 204 71 68
384 2 204 71 75
385 2 204 71 101
386 23 68 71 75
387 29 75 71 101
388 23 68 71 101
389 14 142 143 146
390 16 86 84 317
391 30 82 84 317
392 30 552 84 317
393 15 86 84 82
394 29 82 84 552
395 15 86 84 552
396 24 111 91 112
397 26 111 91 95
398 26 112 91 95
399 18 86 559 318
400 27 255 462 461
401 27 421 462 461
402 24 255 462 421
403 27 148 146 143
404 24 148 146 149
405 27 149 146 143
406 24 462 255 217
407 25 462 255 256
408 25 217 255 256
409 2 71 204 203
410 29 203 204 202
411 29 203 204 205
412 2 71 204 202
413 29 202 204 205
414 2 71 204 205
415 17 568 571 573
416 15 568 571 570
417 15 568 571 566
418 32 570 571 573
419 29 570 571 566
420 32 566 571 573
421 24 26 22 23
422 25 26 22 20
423 25 23 22 20
424 11 3 95 91
425 11 105 95 91
426 10 3 95 105
427 14 504 501 500
428 22 30 31 29
429 23 30 31 35
430 23 30 31 34
431 23 29 31 35
432 29 35 31 34
433 23 29 31 34
434 17 4 8 9
435 15 4 8 7
436 15 4 8 6
437 32 7 8 9
438 29 7 8 6
439 32 6 8 9
440 3 569 568 571
441 5 569 568 564
442 4 569 568 565
443 4 571 568 565
444 33 565 568 564
445 5 571 568 564
446 24 22 23 30
447 25 22 23 21
448 25 30 23 21
449 9 31 29 24
450 9 31 29 25
451 24 24 29 25
452 17 108 504 501
453 15 108 504 506
454 15 108 504 582
455 32 506 504 501
456 29 506 504 582
457 32 582 504 501
458 9 92 112 109
459 24 109 112 91
460 9 92 112 91
461 14 571 573 575
462 16 4 3 95
463 30 99 3 95
464 30 2 3 95
465 15 4 3 99
466 29 99 3 2
467 15 4 3 2
468 9 31 30 23
469 24 23 30 33
470 9 31 30 33
471 9 219 218 425
472 9 219 218 216
473 24 425 218 216
474 24 218 216 188
475 25 218 216 215
476 25 188 216 215
477 14 367 369 371
478 18 368 370 37
479 27 374 371 369
480 24 374 371 188
481 27 188 371 369
482 17 368 367 369
483 15 368 367 365
484 15 368 367 364
485 32 365 367 369
486 29 365 367 364
487 32 364 367 369
488 9 219 424 217
489 24 217 424 423
490 9 219 424 423
491 24 24 148 146
492 25 24 148 145
493 25 146 148 145
494 24 267 109 112
495 26 267 109 155
496 26 112 109 155
497 16 368 372 155
498 30 373 372 155
499 30 375 372 155
500 15 368 372 373
501 29 373 372 375
502 15 368 372 375
503 24 218 425 374
504 25 218 425 426
505 25 374 425 426
506 1 383 328 326
507 2 383 328 385
508 2 383 328 332
509 23 326 328 385
510 29 385 328 332
511 23 326 328 332
512 3 372 368 367
513 5 372 368 370
514 4 372 368 366
515 4 367 368 366
516 33 366 368 370
517 5 367 368 370
518 3 105 108 504
519 5 105 108 107
520 4 105 108 19
521 4 504 108 19
522 33 19 108 107
523 5 504 108 107
524 18 108 107 96
525 24 462 421 423
526 25 462 421 420
527 25 423 421 420
528 24 29 25 149
529 25 29 25 27
530 25 149 25 27
531 16 108 105 95
532 30 106 105 95
533 30 104 105 95
534 15 108 105 106
535 29 106 105 104
536 15 108 105 104
537 24 371 188 216
538 25 371 188 184
539 25 216 188 184
540 24 30 33 32
541 25 30 33 36
542 25 32 33 36
543 11 372 155 109
544 28 109 155 153
545 12 372 155 153
546 23 112 92 93
547 23 112 92 94
548 23 112 92 38
549 29 93 92 94
550 29 93 92 38
551 29 94 92 38
552 22 424 219 218
553 23 424 219 221
554 23 424 219 427
555 23 218 219 221
556 29 221 219 427
557 23 218 219 427
558 24 425 374 371
559 25 425 374 376
560 25 371 374 376
561 24 424 423 421
562 25 424 423 422
563 25 421 423 422
564 2 328 383 512
565 29 512 383 381
566 29 512 383 389
567 2 328 383 381
568 29 381 383 389
569 2 328 383 389
570 24 26 32 33
571 25 26 32 535
572 25 33 32 535
573 3 3 4 8
574 5 3 4 1
575 4 3 4 5
576 4 8 4 5
577 33 5 4 1
578 5 8 4 1
579 24 29 24 148
580 25 29 24 28
581 25 148 24 28
582 24 255 217 424
583 25 255 217 220
584 25 424 217 220
585 9 89 111 268
586 9 89 111 91
587 24 268 111 91
588 9 337 334 390
589 9 337 334 392
590 24 390 334 392
591 24 469 470 585
592 25 469 470 468
593 25 585 470 468
594 24 470 585 516
595 25 470 585 584
596 25 516 585 584
597 9 515 516 585
598 24 585 516 333
599 9 515 516 333
600 27 470 469 467
601 27 331 469 467
602 24 470 469 331
603 24 475 477 479
604 25 475 477 562
605 25 479 477 562
606 9 515 475 477
607 9 515 475 478
608 24 477 475 478
609 22 516 515 475
610 23 516 515 513
611 23 516 515 514
612 23 475 515 513
613 29 513 515 514
614 23 475 515 514
615 13 523 519 521
616 6 523 521 520
617 8 523 521 519
618 7 523 521 525
619 7 520 521 525
620 34 525 521 519
621 8 520 521 519
622 21 521 520 358
623 19 521 520 518
624 19 521 520 524
625 32 518 520 358
626 29 518 520 524
627 32 524 520 358
628 14 520 358 353
629 24 469 331 333
630 25 469 331 330
631 25 333 331 330
632 24 516 333 331
633 25 516 333 272
634 25 331 333 272
635 24 475 478 480
636 25 475 478 476
637 25 480 478 476
638 14 473 467 469
639 24 580 456 453
640 25 580 456 457
641 25 453 456 457
642 14 168 169 174
643 18 247 243 175
644 17 43 168 169
645 15 43 168 172
646 15 43 168 167
647 32 172 168 169
648 29 172 168 167
649 32 167 168 169
650 24 174 176 124
651 25 174 176 120
652 25 124 176 120
653 3 41 43 168
654 5 41 43 39
655 4 41 43 170
656 4 168 43 170
657 33 170 43 39
658 5 168 43 39
659 21 472 473 467
660 19 472 473 471
661 19 472 473 443
662 32 471 473 467
663 29 471 473 443
664 32 443 473 467
665 24 177 124 176
666 25 177 124 127
667 25 176 124 127
668 24 482 480 478
669 25 482 480 481
670 25 478 480 481
671 18 43 39 449
672 24 60 190 186
673 25 60 190 192
674 25 186 190 192
675 22 233 229 231
676 23 233 229 228
677 23 233 229 226
678 23 231 229 228
679 29 228 229 226
680 23 231 229 226
681 9 187 186 190
682 24 190 186 182
683 9 187 186 182
684 31 522 523 519
685 19 521 523 522
686 29 522 523 526
687 31 526 523 519
688 19 521 523 526
689 20 521 523 519
690 22 186 187 185
691 23 186 187 189
692 23 186 187 183
693 23 185 187 189
694 29 189 187 183
695 23 185 187 183
696 2 165 162 160
697 29 160 162 161
698 29 160 162 159
699 2 165 162 161
700 29 161 162 159
701 2 165 162 159
702 24 477 479 482
703 25 477 479 563
704 25 482 479 563
705 24 456 453 575
706 25 456 453 452
707 25 575 453 452
708 1 162 165 347
709 2 162 165 164
710 2 162 165 166
711 23 347 165 164
712 29 164 165 166
713 23 347 165 166
714 9 229 233 232
715 24 232 233 235
716 9 229 233 235
717 24 185 136 135
718 25 185 136 191
719 25 135 136 191
720 9 187 185 136
721 9 187 185 180
722 24 136 185 180
723 6 311 312 310
724 8 311 312 313
725 7 311 312 315
726 7 310 312 315
727 34 315 312 313
728 8 310 312 313
729 22 417 581 580
730 23 417 581 460
731 23 417 581 549
732 23 580 581 460
733 29 460 581 549
734 23 580 581 549
735 31 308 311 313
736 19 312 311 308
737 29 308 311 314
738 31 314 311 313
739 19 312 311 314
740 20 312 311 313
741 24 234 232 233
742 25 234 232 230
743 25 233 232 230
744 27 350 353 358
745 27 352 353 358
746 24 350 353 352
747 24 233 235 239
748 25 233 235 236
749 25 239 235 236
750 9 581 580 456
751 9 581 580 578
752 24 456 580 578
753 24 238 234 232
754 25 238 234 118
755 25 232 234 118
756 27 479 482 484
757 24 479 482 480
758 27 480 482 484
759 24 353 350 343
760 25 353 350 517
761 25 343 350 517
762 27 438 442 394
763 27 393 442 394
764 24 438 442 393
765 24 353 352 348
766 25 353 352 290
767 25 348 352 290
768 24 238 239 235
769 25 238 239 240
770 25 235 239 240
771 14 121 241 238
772 13 210 213 211
773 31 207 210 213
774 19 211 210 207
775 29 207 210 212
776 31 212 210 213
777 19 211 210 212
778 20 211 210 213
779 20 490 492 486
780 19 490 492 493
781 19 490 492 494
782 31 493 492 486
783 29 493 492 494
784 31 494 492 486
785 14 487 484 482
786 24 342 348 352
787 25 342 348 284
788 25 352 348 284
789 21 211 208 413
790 19 211 208 206
791 19 211 208 209
792 32 206 208 413
793 29 206 208 209
794 32 209 208 413
795 21 490 487 484
796 32 485 487 484
797 32 491 487 484
798 19 490 487 485
799 29 485 487 491
800 19 490 487 491
801 24 415 418 417
802 25 415 418 419
803 25 417 418 419
804 27 415 414 413
805 27 412 414 413
806 24 415 414 412
807 9 581 417 418
808 24 418 417 455
809 9 581 417 455
810 24 414 415 418
811 25 414 415 416
812 25 418 415 416
813 14 208 413 414
814 24 417 455 412
815 25 417 455 454
816 25 412 455 454
817 24 414 412 455
818 25 414 412 411
819 25 455 412 411
820 6 487 490 492
821 8 487 490 486
822 7 487 490 488
823 7 492 490 488
824 34 488 490 486
825 8 492 490 486
826 6 210 211 208
827 8 210 211 213
828 7 210 211 214
829 7 208 211 214
830 34 214 211 213
831 8 208 211 213
832 13 492 486 490
833 27 234 238 241
834 27 239 238 241
835 24 234 238 239
836 21 312 310 306
837 19 312 310 309
838 19 312 310 377
839 32 309 310 306
840 29 309 310 377
841 32 377 310 306
842 9 337 342 343
843 24 343 342 348
844 9 337 342 348
845 14 310 306 304
846 22 342 337 334
847 23 342 337 338
848 23 342 337 336
849 23 334 337 338
850 29 338 337 336
851 23 334 337 336
852 24 350 343 342
853 25 350 343 339
854 25 342 343 339
855 24 334 390 386
856 25 334 390 391
857 25 386 390 391
858 24 580 578 577
859 25 580 578 579
860 25 577 578 579
861 27 301 304 306
862 27 305 304 306
863 24 301 304 305
864 13 311 313 312
865 2 262 263 264
866 2 262 263 259
867 2 262 263 265
868 29 264 263 259
869 29 264 263 265
870 29 259 263 265
871 24 58 60 190
872 25 58 60 61
873 25 190 60 61
874 13 544 543 405
875 20 405 544 543
876 19 405 544 548
877 19 405 544 541
878 31 548 544 543
879 29 548 544 541
880 31 541 544 543
881 9 229 231 201
882 9 229 231 445
883 24 201 231 445
884 24 231 445 397
885 25 231 445 444
886 25 397 445 444
887 21 79 55 59
888 19 79 55 54
889 19 79 55 52
890 32 54 55 59
891 29 54 55 52
892 32 52 55 59
893 6 78 79 55
894 8 78 79 77
895 7 78 79 81
896 7 55 79 81
897 34 81 79 77
898 8 55 79 77
899 6 406 405 544
900 8 406 405 543
901 7 406 405 538
902 7 544 405 538
903 34 538 405 543
904 8 544 405 543
905 27 60 58 59
906 27 181 58 59
907 24 60 58 181
908 14 55 59 58
909 24 186 182 181
910 25 186 182 178
911 25 181 182 178
912 24 58 181 182
913 25 58 181 51
914 25 182 181 51
915 24 201 404 400
916 25 201 404 409
917 25 400 404 409
918 21 405 406 402
919 32 410 406 402
920 32 408 406 402
921 19 405 406 410
922 29 410 406 408
923 19 405 406 408
924 14 406 402 400
925 27 404 400 402
926 24 404 400 397
927 27 397 400 402
928 24 400 397 445
929 25 400 397 396
930 25 445 397 396
931 24 231 201 404
932 25 231 201 237
933 25 404 201 237
934 31 80 78 77
935 19 79 78 80
936 29 80 78 76
937 31 76 78 77
938 19 79 78 76
939 20 79 78 77
940 17 86 561 558
941 15 86 561 90
942 15 86 561 537
943 32 90 561 558
944 29 90 561 537
945 32 537 561 558
946 2 319 510 583
947 2 319 510 509
948 2 319 510 511
949 29 583 510 509
950 29 583 510 511
951 29 509 510 511
952 31 198 196 199
953 19 197 196 198
954 29 198 196 194
955 31 194 196 199
956 19 197 196 194
957 20 197 196 199
958 13 78 77 79
959 14 561 558 556
960 13 196 199 197
961 6 196 197 195
962 8 196 197 199
963 7 196 197 200
964 7 195 197 200
965 34 200 197 199
966 8 195 197 199
967 24 299 302 305
968 25 299 302 303
969 25 305 302 303
970 27 453 575 573
971 24 453 575 577
972 27 577 575 573
973 1 263 262 267
974 23 267 262 261
975 23 267 262 260
976 2 263 262 261
977 29 261 262 260
978 2 263 262 260
979 2 89 85 110
980 29 110 85 83
981 29 110 85 87
982 2 89 85 83
983 29 83 85 87
984 2 89 85 87
985 24 499 502 503
986 25 499 502 463
987 25 503 502 463
988 9 434 555 553
989 9 434 555 557
990 24 553 555 557
991 24 304 305 302
992 25 304 305 307
993 25 302 305 307
994 24 553 554 556
995 25 553 554 551
996 25 556 554 551
997 24 555 557 560
998 25 555 557 440
999 25 560 557 440
1000 9 295 299 298
1001 24 298 299 302
1002 9 295 299 302
1003 24 555 553 554
1004 25 555 553 550
1005 25 554 553 550
1006 24 301 298 299
1007 25 301 298 296
1008 25 299 298 296
1009 24 575 577 578
1010 25 575 577 574
1011 25 578 577 574
1012 24 304 301 298
1013 25 304 301 300
1014 25 298 301 300
1015 24 442 393 439
1016 25 442 393 395
1017 25 439 393 395
1018 27 554 556 558
1019 24 554 556 560
1020 27 560 556 558
1021 24 502 503 500
1022 25 502 503 505
1023 25 500 503 505
1024 24 556 560 557
1025 25 556 560 536
1026 25 557 560 536
1027 24 111 268 267
1028 25 111 268 266
1029 25 267 268 266
1030 24 438 435 436
1031 25 438 435 433
1032 25 436 435 433
1033 14 195 394 442
1034 24 442 438 435
1035 25 442 438 437
1036 25 435 438 437
1037 21 197 195 394
1038 19 197 195 163
1039 19 197 195 398
1040 32 163 195 394
1041 29 163 195 398
1042 32 398 195 394
1043 1 85 89 111
1044 2 85 89 225
1045 2 85 89 62
1046 23 111 89 225
1047 29 225 89 62
1048 23 111 89 62
1049 27 503 500 501
1050 24 503 500 498
1051 27 498 500 501
1052 24 500 498 497
1053 25 500 498 496
1054 25 497 498 496
1055 24 499 497 498
1056 25 499 497 495
1057 25 498 497 495
1058 9 295 499 502
1059 9 295 499 497
1060 24 502 499 497
1061 22 436 434 555
1062 23 436 434 431
1063 23 436 434 429
1064 23 555 434 431
1065 29 431 434 429
1066 23 555 434 429
1067 9 262 267 268
1068 24 268 267 109
1069 9 262 267 109
1070 9 434 436 435
1071 24 435 436 439
1072 9 434 436 439
1073 22 299 295 499
1074 23 299 295 293
1075 23 299 295 458
1076 23 499 295 293
1077 29 293 295 458
1078 23 499 295 458
1079 24 436 439 393
1080 25 436 439 441
1081 25 393 439 441
1082 24 136 135 130
1083 25 136 135 137
1084 25 130 135 137
1085 3 244 247 252
1086 5 244 247 243
1087 4 244 247 246
1088 4 252 247 246
1089 33 246 247 243
1090 5 252 247 243

Dihedrals

1 26 280 283 281 278
2 30 281 283 285 286
3 30 280 283 285 286
4 26 276 278 281 283
5 30 281 278 116 114
6 30 276 278 116 114
7 15 528 116 278 281
8 31 278 116 528 529
9 31 278 116 528 507
10 15 528 116 278 276
11 10 447 281 278 276
12 10 447 281 283 280
13 25 283 281 447 446
14 25 283 281 447 450
15 25 283 281 447 448
16 25 278 281 447 446
17 25 278 281 447 450
18 25 278 281 447 448
19 12 447 281 283 285
20 28 278 281 283 285
21 12 447 281 278 116
22 28 283 281 278 116
23 10 361 356 351 347
24 10 361 356 354 349
25 25 354 356 361 363
26 25 354 356 361 360
27 25 354 356 361 362
28 25 351 356 361 363
29 25 351 356 361 360
30 25 351 356 361 362
31 12 361 356 351 173
32 28 354 356 351 173
33 12 361 356 354 357
34 28 351 356 354 357
35 15 223 357 354 356
36 31 354 357 223 224
37 31 354 357 223 222
38 15 223 357 354 349
39 26 349 354 356 351
40 30 356 354 357 359
41 30 349 354 357 359
42 26 347 351 356 354
43 30 356 351 173 171
44 30 347 351 173 171
45 15 41 285 283 281
46 31 283 285 41 40
47 31 283 285 41 42
48 15 41 285 283 280
49 10 345 349 344 347
50 25 344 349 345 346
51 25 344 349 345 340
52 26 344 349 354 356
53 11 345 349 344 341
54 27 354 349 344 341
55 25 354 349 345 346
56 25 354 349 345 340
57 10 345 349 354 356
58 12 345 349 354 357
59 28 344 349 354 357
60 18 43 41 285 283
61 46 285 41 43 39
62 19 43 41 285 286
63 38 40 41 285 286
64 38 42 41 285 286
65 35 40 41 43 39
66 34 40 41 43 170
67 35 42 41 43 39
68 34 42 41 43 170
69 10 56 177 49 47
70 11 56 177 49 50
71 10 56 177 124 176
72 11 56 177 124 127
73 25 49 177 56 132
74 25 124 177 56 132
75 25 49 177 56 57
76 25 124 177 56 57
77 26 49 177 124 176
78 27 49 177 124 127
79 27 124 177 49 50
80 1 403 345 349 344
81 23 349 345 403 401
82 23 349 345 403 407
83 23 349 345 403 399
84 1 403 345 349 354
85 33 346 345 403 401
86 33 346 345 403 407
87 33 346 345 403 399
88 33 340 345 403 401
89 33 340 345 403 407
90 33 340 345 403 399
91 10 282 280 277 276
92 25 277 280 282 279
93 25 277 280 282 483
94 26 277 280 283 281
95 11 282 280 277 275
96 27 283 280 277 275
97 25 283 280 282 279
98 25 283 280 282 483
99 10 282 280 283 281
100 12 282 280 283 285
101 28 277 280 283 285
102 18 531 528 116 278
103 46 116 528 531 527
104 19 531 528 116 114
105 38 529 528 116 114
106 38 507 528 116 114
107 35 529 528 531 527
108 34 529 528 531 533
109 35 507 528 531 527
110 34 507 528 531 533
111 10 274 276 277 280
112 11 274 276 277 275
113 10 274 276 278 281
114 25 277 276 274 117
115 25 278 276 274 117
116 25 277 276 274 273
117 25 278 276 274 273
118 26 277 276 278 281
119 27 278 276 277 275
120 12 274 276 278 116
121 28 277 276 278 116
122 18 379 223 357 354
123 46 357 223 379 193
124 19 379 223 357 359
125 38 224 223 357 359
126 38 222 223 357 359
127 35 224 223 379 193
128 34 224 223 379 378
129 35 222 223 379 193
130 34 222 223 379 378
131 10 165 347 344 349
132 11 165 347 344 341
133 10 165 347 351 356
134 25 344 347 165 164
135 25 351 347 165 164
136 25 344 347 165 166
137 25 351 347 165 166
138 26 344 347 351 356
139 27 351 347 344 341
140 12 165 347 351 173
141 28 344 347 351 173
142 24 177 56 15 17
143 24 15 56 177 49
144 24 15 56 177 124
145 24 177 56 15 13
146 26 276 277 280 283
147 26 280 277 276 278
148 26 347 344 349 354
149 26 349 344 347 351
150 29 49 47 174 169
151 26 49 47 174 176
152 27 174 47 49 50
153 45 45 47 174 169
154 26 177 49 47 174
155 27 177 49 47 45
156 44 50 49 47 45
157 26 47 49 177 124
158 15 244 173 351 356
159 31 351 173 244 245
160 31 351 173 244 242
161 15 244 173 351 347
162 10 56 15 17 14
163 25 17 15 56 132
164 25 17 15 56 57
165 26 17 15 13 11
166 27 17 15 13 53
167 11 56 15 17 18
168 27 13 15 17 18
169 25 13 15 56 132
170 25 13 15 56 57
171 11 56 15 13 53
172 10 56 15 13 11
173 9 473 472 466 269
174 8 269 472 473 467
175 6 269 472 473 471
176 6 269 472 473 443
177 6 473 472 269 271
178 6 473 472 269 270
179 42 474 472 269 466
180 43 474 472 473 467
181 47 466 472 473 467
182 7 473 472 269 466
183 3 532 531 528 116
184 39 533 531 528 116
185 4 528 531 532 534
186 2 528 531 532 530
187 2 528 531 532 508
188 5 528 531 527 227
189 2 532 531 528 529
190 2 532 531 528 507
191 40 533 531 532 534
192 41 533 531 527 227
193 5 532 531 527 227
194 1 113 274 276 277
195 1 113 274 276 278
196 23 276 274 113 115
197 23 276 274 113 158
198 23 276 274 113 157
199 17 532 534 26 22
200 17 532 534 26 32
201 32 26 534 532 508
202 32 26 534 532 530
203 26 14 17 15 13
204 27 15 17 14 16
205 26 47 174 176 124
206 27 47 174 176 120
207 27 176 174 47 45
208 16 269 466 472 474
209 22 472 466 269 271
210 22 472 466 269 270
211 3 430 379 223 357
212 39 378 379 223 357
213 4 223 379 430 380
214 2 223 379 430 428
215 2 223 379 430 432
216 5 223 379 193 355
217 2 430 379 223 224
218 2 430 379 223 222
219 40 378 379 430 380
220 41 378 379 193 355
221 5 430 379 193 355
222 26 185 180 128 130
223 27 185 180 128 126
224 37 271 269 472 466
225 36 271 269 472 474
226 37 270 269 472 466
227 36 270 269 472 474
228 21 123 121 241 238
229 36 119 121 123 292
230 36 122 121 123 292
231 37 119 121 123 291
232 37 122 121 123 291
233 20 531 532 534 26
234 34 530 532 531 533
235 34 508 532 531 533
236 48 534 532 531 527
237 35 530 532 531 527
238 35 508 532 531 527
239 27 130 128 180 179
240 45 126 128 130 129
241 44 126 128 180 179
242 29 180 128 130 129
243 27 15 13 11 10
244 44 53 13 11 10
245 37 297 294 123 291
246 36 297 294 123 292
247 37 249 294 123 291
248 36 249 294 123 292
249 20 379 430 380 384
250 34 428 430 379 378
251 34 432 430 379 378
252 48 380 430 379 193
253 35 428 430 379 193
254 35 432 430 379 193
255 33 115 113 274 117
256 33 115 113 274 273
257 33 158 113 274 117
258 33 158 113 274 273
259 33 157 113 274 117
260 33 157 113 274 273
261 22 251 125 250 103
262 22 251 125 250 102
263 16 250 125 251 248
264 29 13 11 12 9
265 45 10 11 12 9
266 26 12 11 13 15
267 27 12 11 13 53
268 17 430 380 384 386
269 17 430 380 384 388
270 32 384 380 430 432
271 32 384 380 430 428
272 8 250 251 131 129
273 47 125 251 131 129
274 43 248 251 131 129
275 7 131 251 250 125
276 6 131 251 250 103
277 6 131 251 250 102
278 9 131 251 125 250
279 6 250 251 131 134
280 6 250 251 131 133
281 42 248 251 250 125
282 26 14 12 11 13
283 27 14 12 11 10
284 27 11 12 14 16
285 26 386 384 388 392
286 27 386 384 388 387
287 27 388 384 386 382
288 27 384 388 392 335
289 45 387 388 384 380
290 44 387 388 392 335
291 29 392 388 384 380
292 26 334 392 388 384
293 27 334 392 388 387
294 17 8 9 12 14
295 17 8 9 12 11
296 32 12 9 8 6
297 32 12 9 8 7
298 36 103 250 251 248
299 36 102 250 251 248
300 37 103 250 251 125
301 37 102 250 251 125
302 17 131 129 130 135
303 32 130 129 131 134
304 32 130 129 131 133
305 17 131 129 130 128
306 16 294 291 123 292
307 22 123 291 294 297
308 22 123 291 294 249
309 29 390 386 384 380
310 26 390 386 384 388
311 27 384 386 390 391
312 45 382 386 384 380
313 26 135 130 128 180
314 27 135 130 128 126
315 27 128 130 135 137
316 9 121 123 291 294
317 8 294 123 121 241
318 6 294 123 121 119
319 6 294 123 121 122
320 6 121 123 294 297
321 6 121 123 294 249
322 42 292 123 294 291
323 43 292 123 121 241
324 47 291 123 121 241
325 7 121 123 294 291
326 21 251 131 129 130
327 37 134 131 251 125
328 36 134 131 251 248
329 37 133 131 251 125
330 36 133 131 251 248
331 29 17 14 12 9
332 45 16 14 12 9
333 26 12 14 17 15
334 27 12 14 17 18
335 44 16 14 17 18
336 26 17 14 12 11
337 26 22 26 32 33
338 27 22 26 32 535
339 27 32 26 22 20
340 27 146 149 25 27
341 45 147 149 146 143
342 44 147 149 25 27
343 29 25 149 146 143
344 1 287 282 280 277
345 23 280 282 287 289
346 23 280 282 287 288
347 23 280 282 287 489
348 1 287 282 280 283
349 33 279 282 287 289
350 33 279 282 287 288
351 33 279 282 287 489
352 33 483 282 287 289
353 33 483 282 287 288
354 33 483 282 287 489
355 1 510 319 321 323
356 23 321 319 510 583
357 23 321 319 510 509
358 23 321 319 510 511
359 1 510 319 321 320
360 33 316 319 510 583
361 33 316 319 510 509
362 33 316 319 510 511
363 33 465 319 510 583
364 33 465 319 510 509
365 33 465 319 510 511
366 3 561 86 84 317
367 39 88 86 84 317
368 4 84 86 561 558
369 2 84 86 561 90
370 2 84 86 561 537
371 5 84 86 559 318
372 2 561 86 84 82
373 2 561 86 84 552
374 40 88 86 561 558
375 41 88 86 559 318
376 5 561 86 559 318
377 20 247 252 461 462
378 34 459 252 247 246
379 34 253 252 247 246
380 48 461 252 247 243
381 35 459 252 247 243
382 35 253 252 247 243
383 18 247 244 173 351
384 46 173 244 247 243
385 19 247 244 173 171
386 38 245 244 173 171
387 38 242 244 173 171
388 35 245 244 247 243
389 34 245 244 247 246
390 35 242 244 247 243
391 34 242 244 247 246
392 20 140 142 143 146
393 34 144 142 140 138
394 34 141 142 140 138
395 48 143 142 140 139
396 35 144 142 140 139
397 35 141 142 140 139
398 17 252 461 462 255
399 17 252 461 462 421
400 32 462 461 252 253
401 32 462 461 252 459
402 1 545 63 64 66
403 23 64 63 545 576
404 23 64 63 545 572
405 23 64 63 545 546
406 1 545 63 64 65
407 33 98 63 545 576
408 33 98 63 545 572
409 33 98 63 545 546
410 33 539 63 545 576
411 33 539 63 545 572
412 33 539 63 545 546
413 3 142 140 257 72
414 39 138 140 257 72
415 4 257 140 142 143
416 2 257 140 142 144
417 2 257 140 142 141
418 5 257 140 139 73
419 2 142 140 257 254
420 2 142 140 257 258
421 40 138 140 142 143
422 41 138 140 139 73
423 5 142 140 139 73
424 30 64 65 542 547
425 30 64 65 542 540
426 26 64 65 67 70
427 30 67 65 542 547
428 30 67 65 542 540
429 10 63 64 66 68
430 25 66 64 63 98
431 25 66 64 63 539
432 28 66 64 65 542
433 26 66 64 65 67
434 11 63 64 66 100
435 27 65 64 66 100
436 25 65 64 63 98
437 25 65 64 63 539
438 10 63 64 65 67
439 12 63 64 65 542
440 10 69 67 70 68
441 10 69 67 65 64
442 25 65 67 69 46
443 25 65 67 69 44
444 25 65 67 69 48
445 28 70 67 65 542
446 25 70 67 69 46
447 25 70 67 69 44
448 25 70 67 69 48
449 12 69 67 65 542
450 12 69 67 70 72
451 28 65 67 70 72
452 26 68 70 67 65
453 30 68 70 72 74
454 30 67 70 72 74
455 26 68 66 64 65
456 26 64 66 68 70
457 15 257 72 70 68
458 31 70 72 257 254
459 31 70 72 257 258
460 15 257 72 70 67
461 10 71 68 66 64
462 11 71 68 66 100
463 10 71 68 70 67
464 25 66 68 71 75
465 25 70 68 71 75
466 25 66 68 71 101
467 25 70 68 71 101
468 26 66 68 70 67
469 27 70 68 66 100
470 12 71 68 70 72
471 28 66 68 70 72
472 18 140 257 72 70
473 46 72 257 140 139
474 19 140 257 72 74
475 38 254 257 72 74
476 38 258 257 72 74
477 35 254 257 140 139
478 34 254 257 140 138
479 35 258 257 140 139
480 34 258 257 140 138
481 15 569 327 325 326
482 31 325 327 569 567
483 31 325 327 569 451
484 15 569 327 325 322
485 10 152 322 325 326
486 10 152 322 320 321
487 25 320 322 152 154
488 25 320 322 152 151
489 25 320 322 152 150
490 25 325 322 152 154
491 25 325 322 152 151
492 25 325 322 152 150
493 12 152 322 320 317
494 28 325 322 320 317
495 12 152 322 325 327
496 28 320 322 325 327
497 26 321 320 322 325
498 30 322 320 317 464
499 30 321 320 317 464
500 26 326 325 322 320
501 30 326 325 327 156
502 30 322 325 327 156
503 15 84 317 320 322
504 31 320 317 84 82
505 31 320 317 84 552
506 15 84 317 320 321
507 10 328 326 323 321
508 11 328 326 323 324
509 10 328 326 325 322
510 25 323 326 328 385
511 25 325 326 328 385
512 25 323 326 328 332
513 25 325 326 328 332
514 26 323 326 325 322
515 27 325 326 323 324
516 12 328 326 325 327
517 28 323 326 325 327
518 10 319 321 323 326
519 25 323 321 319 316
520 25 323 321 319 465
521 26 323 321 320 322
522 11 319 321 323 324
523 27 320 321 323 324
524 25 320 321 319 316
525 25 320 321 319 465
526 10 319 321 320 322
527 12 319 321 320 317
528 28 323 321 320 317
529 26 326 323 321 320
530 26 321 323 326 325
531 18 568 569 327 325
532 46 327 569 568 564
533 19 568 569 327 156
534 38 567 569 327 156
535 38 451 569 327 156
536 35 567 569 568 564
537 34 567 569 568 565
538 35 451 569 568 564
539 34 451 569 568 565
540 1 204 71 68 66
541 1 204 71 68 70
542 23 68 71 204 203
543 23 68 71 204 202
544 23 68 71 204 205
545 17 142 143 146 148
546 17 142 143 146 149
547 32 146 143 142 141
548 32 146 143 142 144
549 18 86 84 317 320
550 46 317 84 86 559
551 19 86 84 317 464
552 38 82 84 317 464
553 38 552 84 317 464
554 35 82 84 86 559
555 34 82 84 86 88
556 35 552 84 86 559
557 34 552 84 86 88
558 26 111 91 112 109
559 26 255 462 421 423
560 27 255 462 421 420
561 27 421 462 255 256
562 26 148 146 149 25
563 27 148 146 149 147
564 27 149 146 148 145
565 29 217 255 462 461
566 45 256 255 462 461
567 26 462 255 217 424
568 27 462 255 217 220
569 44 256 255 217 220
570 26 217 255 462 421
571 33 203 204 71 75
572 33 203 204 71 101
573 33 202 204 71 75
574 33 202 204 71 101
575 33 205 204 71 75
576 33 205 204 71 101
577 20 568 571 573 575
578 34 570 571 568 565
579 34 566 571 568 565
580 48 573 571 568 564
581 35 570 571 568 564
582 35 566 571 568 564
583 29 23 22 26 534
584 45 20 22 26 534
585 26 26 22 23 30
586 27 26 22 23 21
587 44 20 22 23 21
588 26 23 22 26 32
589 15 3 95 91 111
590 15 105 95 91 111
591 15 3 95 91 112
592 15 105 95 91 112
593 31 91 95 3 99
594 31 91 95 3 2
595 31 91 95 105 106
596 31 91 95 105 104
597 13 3 95 105 108
598 14 3 95 105 106
599 14 3 95 105 104
600 14 105 95 3 99
601 14 105 95 3 2
602 13 105 95 3 4
603 17 504 501 500 503
604 17 504 501 500 498
605 32 500 501 504 582
606 32 500 501 504 506
607 24 29 31 30 23
608 24 30 31 29 24
609 24 30 31 29 25
610 24 29 31 30 33
611 20 4 8 9 12
612 34 7 8 4 5
613 34 6 8 4 5
614 48 9 8 4 1
615 35 7 8 4 1
616 35 6 8 4 1
617 3 571 568 569 327
618 39 565 568 569 327
619 4 569 568 571 573
620 2 569 568 571 570
621 2 569 568 571 566
622 5 569 568 564 329
623 2 571 568 569 567
624 2 571 568 569 451
625 40 565 568 571 573
626 41 565 568 564 329
627 5 571 568 564 329
628 26 22 23 30 33
629 27 30 23 22 20
630 10 31 29 24 148
631 11 31 29 24 28
632 10 31 29 25 149
633 11 31 29 25 27
634 25 24 29 31 35
635 25 25 29 31 35
636 25 24 29 31 34
637 25 25 29 31 34
638 26 24 29 25 149
639 27 24 29 25 27
640 27 25 29 24 28
641 20 108 504 501 500
642 34 506 504 108 19
643 34 582 504 108 19
644 48 501 504 108 107
645 35 506 504 108 107
646 35 582 504 108 107
647 10 92 112 91 111
648 10 92 112 109 267
649 25 109 112 92 93
650 25 109 112 92 94
651 25 109 112 92 38
652 25 91 112 92 93
653 25 91 112 92 94
654 25 91 112 92 38
655 12 92 112 91 95
656 28 109 112 91 95
657 12 92 112 109 155
658 28 91 112 109 155
659 17 571 573 575 453
660 17 571 573 575 577
661 32 575 573 571 566
662 32 575 573 571 570
663 18 4 3 95 91
664 46 95 3 4 1
665 35 99 3 4 1
666 34 99 3 4 5
667 35 2 3 4 1
668 34 2 3 4 5
669 10 31 30 23 22
670 25 23 30 31 35
671 25 23 30 31 34
672 26 23 30 33 32
673 27 23 30 33 36
674 11 31 30 23 21
675 27 33 30 23 21
676 25 33 30 31 35
677 25 33 30 31 34
678 11 31 30 33 36
679 10 31 30 33 32
680 10 219 218 425 374
681 11 219 218 425 426
682 10 219 218 216 188
683 11 219 218 216 215
684 25 425 218 219 221
685 25 216 218 219 221
686 25 425 218 219 427
687 25 216 218 219 427
688 26 425 218 216 188
689 27 425 218 216 215
690 27 216 218 425 426
691 26 218 216 188 371
692 27 218 216 188 184
693 17 367 369 371 374
694 17 367 369 371 188
695 32 371 369 367 364
696 32 371 369 367 365
697 26 374 371 188 216
698 27 374 371 188 184
699 27 188 371 374 376
700 20 368 367 369 371
701 34 365 367 368 366
702 34 364 367 368 366
703 48 369 367 368 370
704 35 365 367 368 370
705 35 364 367 368 370
706 10 219 424 217 255
707 25 217 424 219 221
708 25 217 424 219 427
709 26 217 424 423 421
710 27 217 424 423 422
711 11 219 424 217 220
712 27 423 424 217 220
713 25 423 424 219 221
714 25 423 424 219 427
715 11 219 424 423 422
716 10 219 424 423 421
717 29 24 148 146 143
718 26 24 148 146 149
719 27 146 148 24 28
720 45 145 148 146 143
721 26 267 109 112 91
722 30 267 109 155 153
723 30 112 109 155 153
724 18 368 372 155 109
725 46 155 372 368 370
726 19 368 372 155 153
727 38 373 372 155 153
728 38 375 372 155 153
729 35 373 372 368 370
730 34 373 372 368 366
731 35 375 372 368 370
732 34 375 372 368 366
733 26 218 425 374 371
734 27 218 425 374 376
735 44 426 425 374 376
736 26 374 425 218 216
737 1 383 328 326 323
738 1 383 328 326 325
739 23 326 328 383 512
740 23 326 328 383 381
741 23 326 328 383 389
742 3 367 368 372 155
743 39 366 368 372 155
744 4 372 368 367 369
745 2 372 368 367 365
746 2 372 368 367 364
747 5 372 368 370 37
748 2 367 368 372 373
749 2 367 368 372 375
750 40 366 368 367 369
751 41 366 368 370 37
752 5 367 368 370 37
753 3 504 108 105 95
754 39 19 108 105 95
755 4 105 108 504 501
756 2 105 108 504 506
757 2 105 108 504 582
758 5 105 108 107 96
759 2 504 108 105 106
760 2 504 108 105 104
761 40 19 108 504 501
762 41 19 108 107 96
763 5 504 108 107 96
764 29 423 421 462 461
765 45 420 421 462 461
766 26 462 421 423 424
767 27 462 421 423 422
768 26 29 25 149 146
769 27 29 25 149 147
770 18 108 105 95 91
771 46 95 105 108 107
772 35 106 105 108 107
773 34 106 105 108 19
774 35 104 105 108 107
775 34 104 105 108 19
776 27 371 188 216 215
777 45 184 188 371 369
778 44 184 188 216 215
779 29 216 188 371 369
780 27 30 33 32 535
781 44 36 33 32 535
782 15 372 155 109 267
783 31 109 155 372 373
784 31 109 155 372 375
785 15 372 155 109 112
786 24 218 219 424 217
787 24 424 219 218 425
788 24 424 219 218 216
789 24 218 219 424 423
790 29 425 374 371 369
791 26 425 374 371 188
792 27 371 374 425 426
793 45 376 374 371 369
794 27 424 423 421 420
795 44 422 423 421 420
796 33 512 383 328 385
797 33 512 383 328 332
798 33 381 383 328 385
799 33 381 383 328 332
800 33 389 383 328 385
801 33 389 383 328 332
802 29 33 32 26 534
803 45 535 32 26 534
804 26 26 32 33 30
805 27 26 32 33 36
806 4 3 4 8 9
807 2 3 4 8 7
808 2 3 4 8 6
809 40 5 4 8 9
810 3 8 4 3 95
811 39 5 4 3 95
812 5 8 4 1 97
813 41 5 4 1 97
814 2 8 4 3 2
815 5 3 4 1 97
816 2 8 4 3 99
817 26 29 24 148 146
818 27 29 24 148 145
819 44 28 24 148 145
820 26 148 24 29 25
821 26 255 217 424 423
822 27 424 217 255 256
823 10 89 111 268 267
824 11 89 111 268 266
825 10 89 111 91 112
826 25 268 111 89 225
827 25 91 111 89 225
828 25 268 111 89 62
829 25 91 111 89 62
830 26 268 111 91 112
831 27 91 111 268 266
832 28 268 111 91 95
833 12 89 111 91 95
834 10 337 334 390 386
835 11 337 334 390 391
836 10 337 334 392 388
837 11 337 334 392 335
838 25 390 334 337 338
839 25 392 334 337 338
840 25 390 334 337 336
841 25 392 334 337 336
842 26 390 334 392 388
843 27 390 334 392 335
844 27 392 334 390 391
845 29 585 470 469 467
846 45 468 470 469 467
847 26 469 470 585 516
848 27 469 470 585 584
849 44 468 470 585 584
850 26 585 470 469 331
851 26 470 585 516 333
852 27 516 585 470 468
853 10 515 516 585 470
854 25 585 516 515 513
855 25 585 516 515 514
856 26 585 516 333 331
857 27 585 516 333 272
858 11 515 516 585 584
859 27 333 516 585 584
860 25 333 516 515 513
861 25 333 516 515 514
862 11 515 516 333 272
863 10 515 516 333 331
864 26 470 469 331 333
865 27 470 469 331 330
866 27 331 469 470 468
867 26 475 477 479 482
868 27 475 477 479 563
869 44 562 477 479 563
870 26 479 477 475 478
871 10 515 475 477 479
872 11 515 475 477 562
873 10 515 475 478 480
874 11 515 475 478 476
875 25 477 475 515 513
876 25 478 475 515 513
877 25 477 475 515 514
878 25 478 475 515 514
879 26 477 475 478 480
880 27 477 475 478 476
881 27 478 475 477 562
882 24 475 515 516 585
883 24 516 515 475 477
884 24 516 515 475 478
885 24 475 515 516 333
886 16 523 519 521 525
887 22 521 519 523 522
888 22 521 519 523 526
889 9 520 521 519 523
890 8 523 521 520 358
891 6 523 521 520 518
892 6 523 521 520 524
893 6 520 521 523 522
894 6 520 521 523 526
895 42 525 521 523 519
896 43 525 521 520 358
897 47 519 521 520 358
898 7 520 521 523 519
899 21 521 520 358 353
900 36 518 520 521 525
901 36 524 520 521 525
902 37 518 520 521 519
903 37 524 520 521 519
904 17 520 358 353 350
905 17 520 358 353 352
906 32 353 358 520 518
907 32 353 358 520 524
908 29 333 331 469 467
909 45 330 331 469 467
910 26 469 331 333 516
911 27 469 331 333 272
912 27 516 333 331 330
913 44 272 333 331 330
914 26 475 478 480 482
915 27 475 478 480 481
916 17 473 467 469 470
917 17 473 467 469 331
918 32 469 467 473 471
919 32 469 467 473 443
920 26 580 456 453 575
921 27 580 456 453 452
922 44 457 456 453 452
923 26 453 456 580 578
924 17 168 169 174 47
925 17 168 169 174 176
926 32 174 169 168 167
927 32 174 169 168 172
928 20 43 168 169 174
929 34 172 168 43 170
930 34 167 168 43 170
931 48 169 168 43 39
932 35 172 168 43 39
933 35 167 168 43 39
934 27 174 176 124 127
935 45 120 176 174 169
936 44 120 176 124 127
937 29 124 176 174 169
938 3 168 43 41 285
939 39 170 43 41 285
940 4 41 43 168 169
941 2 41 43 168 172
942 2 41 43 168 167
943 5 41 43 39 449
944 2 168 43 41 40
945 2 168 43 41 42
946 40 170 43 168 169
947 41 170 43 39 449
948 5 168 43 39 449
949 21 472 473 467 469
950 36 471 473 472 474
951 36 443 473 472 474
952 37 471 473 472 466
953 37 443 473 472 466
954 26 177 124 176 174
955 27 177 124 176 120
956 27 482 480 478 476
957 45 481 480 482 484
958 44 481 480 478 476
959 29 478 480 482 484
960 26 60 190 186 182
961 27 186 190 60 61
962 24 231 229 233 232
963 24 233 229 231 201
964 24 233 229 231 445
965 24 231 229 233 235
966 10 187 186 190 60
967 25 190 186 187 189
968 25 190 186 187 183
969 26 190 186 182 181
970 27 190 186 182 178
971 11 187 186 190 192
972 27 182 186 190 192
973 25 182 186 187 189
974 25 182 186 187 183
975 11 187 186 182 178
976 10 187 186 182 181
977 37 522 523 521 519
978 36 522 523 521 525
979 37 526 523 521 519
980 36 526 523 521 525
981 24 185 187 186 190
982 24 186 187 185 136
983 24 186 187 185 180
984 24 185 187 186 182
985 33 160 162 165 164
986 33 160 162 165 166
987 33 161 162 165 164
988 33 161 162 165 166
989 33 159 162 165 164
990 33 159 162 165 166
991 29 477 479 482 484
992 26 477 479 482 480
993 27 482 479 477 562
994 45 563 479 482 484
995 29 456 453 575 573
996 26 456 453 575 577
997 27 575 453 456 457
998 45 452 453 575 573
999 1 162 165 347 344
1000 1 162 165 347 351
1001 23 347 165 162 160
1002 23 347 165 162 161
1003 23 347 165 162 159
1004 10 229 233 232 234
1005 25 232 233 229 228
1006 25 232 233 229 226
1007 26 232 233 235 239
1008 27 232 233 235 236
1009 11 229 233 232 230
1010 27 235 233 232 230
1011 25 235 233 229 228
1012 25 235 233 229 226
1013 11 229 233 235 236
1014 10 229 233 235 239
1015 26 185 136 135 130
1016 27 185 136 135 137
1017 44 191 136 135 137
1018 26 135 136 185 180
1019 10 187 185 136 135
1020 11 187 185 136 191
1021 10 187 185 180 128
1022 11 187 185 180 179
1023 25 136 185 187 189
1024 25 180 185 187 189
1025 25 136 185 187 183
1026 25 180 185 187 183
1027 26 136 185 180 128
1028 27 136 185 180 179
1029 27 180 185 136 191
1030 9 310 312 313 311
1031 8 311 312 310 306
1032 6 311 312 310 309
1033 6 311 312 310 377
1034 6 310 312 311 308
1035 6 310 312 311 314
1036 42 315 312 311 313
1037 43 315 312 310 306
1038 47 313 312 310 306
1039 7 310 312 311 313
1040 24 580 581 417 418
1041 24 417 581 580 456
1042 24 417 581 580 578
1043 24 580 581 417 455
1044 37 308 311 312 313
1045 36 308 311 312 315
1046 37 314 311 312 313
1047 36 314 311 312 315
1048 26 234 232 233 235
1049 27 233 232 234 118
1050 26 350 353 352 348
1051 27 350 353 352 290
1052 27 352 353 350 517
1053 27 233 235 239 240
1054 44 236 235 239 240
1055 10 581 580 456 453
1056 11 581 580 456 457
1057 10 581 580 578 577
1058 11 581 580 578 579
1059 25 456 580 581 460
1060 25 578 580 581 460
1061 25 456 580 581 549
1062 25 578 580 581 549
1063 26 456 580 578 577
1064 27 456 580 578 579
1065 27 578 580 456 457
1066 29 232 234 238 241
1067 45 118 234 238 241
1068 26 238 234 232 233
1069 27 238 234 232 230
1070 44 118 234 232 230
1071 26 232 234 238 239
1072 26 479 482 480 478
1073 27 479 482 480 481
1074 27 480 482 479 563
1075 29 343 350 353 358
1076 45 517 350 353 358
1077 26 353 350 343 342
1078 27 353 350 343 339
1079 44 517 350 343 339
1080 26 343 350 353 352
1081 26 438 442 393 439
1082 27 438 442 393 395
1083 27 393 442 438 437
1084 29 348 352 353 358
1085 45 290 352 353 358
1086 26 353 352 348 342
1087 27 353 352 348 284
1088 29 235 239 238 241
1089 45 240 239 238 241
1090 26 238 239 235 233
1091 27 238 239 235 236
1092 17 121 241 238 234
1093 17 121 241 238 239
1094 32 238 241 121 119
1095 32 238 241 121 122
1096 16 210 213 211 214
1097 22 211 213 210 207
1098 22 211 213 210 212
1099 37 207 210 211 213
1100 36 207 210 211 214
1101 37 212 210 211 213
1102 36 212 210 211 214
1103 36 493 492 490 488
1104 36 494 492 490 488
1105 37 493 492 490 486
1106 37 494 492 490 486
1107 17 487 484 482 479
1108 32 482 484 487 485
1109 32 482 484 487 491
1110 17 487 484 482 480
1111 27 342 348 352 290
1112 44 284 348 352 290
1113 21 211 208 413 414
1114 36 206 208 211 214
1115 36 209 208 211 214
1116 37 206 208 211 213
1117 37 209 208 211 213
1118 21 490 487 484 482
1119 37 485 487 490 486
1120 36 485 487 490 488
1121 37 491 487 490 486
1122 36 491 487 490 488
1123 26 415 418 417 455
1124 27 417 418 415 416
1125 26 415 414 412 455
1126 27 415 414 412 411
1127 27 412 414 415 416
1128 10 581 417 418 415
1129 25 418 417 581 460
1130 25 418 417 581 549
1131 26 418 417 455 412
1132 27 418 417 455 454
1133 11 581 417 418 419
1134 27 455 417 418 419
1135 25 455 417 581 460
1136 25 455 417 581 549
1137 11 581 417 455 454
1138 10 581 417 455 412
1139 29 418 415 414 413
1140 45 416 415 414 413
1141 26 414 415 418 417
1142 27 414 415 418 419
1143 44 416 415 418 419
1144 26 418 415 414 412
1145 17 208 413 414 415
1146 17 208 413 414 412
1147 32 414 413 208 206
1148 32 414 413 208 209
1149 27 417 455 412 411
1150 44 454 455 412 411
1151 29 455 412 414 413
1152 45 411 412 414 413
1153 26 414 412 455 417
1154 27 414 412 455 454
1155 8 492 490 487 484
1156 47 486 490 487 484
1157 43 488 490 487 484
1158 7 487 490 492 486
1159 6 487 490 492 493
1160 6 487 490 492 494
1161 9 487 490 486 492
1162 6 492 490 487 485
1163 6 492 490 487 491
1164 42 488 490 492 486
1165 9 208 211 213 210
1166 8 210 211 208 413
1167 6 210 211 208 206
1168 6 210 211 208 209
1169 6 208 211 210 207
1170 6 208 211 210 212
1171 42 214 211 210 213
1172 43 214 211 208 413
1173 47 213 211 208 413
1174 7 208 211 210 213
1175 22 490 486 492 493
1176 22 490 486 492 494
1177 16 492 486 490 488
1178 26 234 238 239 235
1179 27 234 238 239 240
1180 27 239 238 234 118
1181 21 312 310 306 304
1182 36 309 310 312 315
1183 36 377 310 312 315
1184 37 309 310 312 313
1185 37 377 310 312 313
1186 10 337 342 343 350
1187 25 343 342 337 338
1188 25 343 342 337 336
1189 26 343 342 348 352
1190 27 343 342 348 284
1191 11 337 342 343 339
1192 27 348 342 343 339
1193 25 348 342 337 338
1194 25 348 342 337 336
1195 11 337 342 348 284
1196 10 337 342 348 352
1197 17 310 306 304 301
1198 17 310 306 304 305
1199 32 304 306 310 309
1200 32 304 306 310 377
1201 24 334 337 342 343
1202 24 342 337 334 390
1203 24 342 337 334 392
1204 24 334 337 342 348
1205 26 350 343 342 348
1206 27 342 343 350 517
1207 26 334 390 386 384
1208 27 334 390 386 382
1209 44 391 390 386 382
1210 26 386 390 334 392
1211 26 580 578 577 575
1212 27 580 578 577 574
1213 26 301 304 305 302
1214 27 301 304 305 307
1215 27 305 304 301 300
1216 16 311 313 312 315
1217 22 312 313 311 308
1218 22 312 313 311 314
1219 29 190 60 58 59
1220 45 61 60 58 59
1221 26 58 60 190 186
1222 27 58 60 190 192
1223 44 61 60 190 192
1224 26 190 60 58 181
1225 22 405 543 544 548
1226 22 405 543 544 541
1227 16 544 543 405 538
1228 36 548 544 405 538
1229 36 541 544 405 538
1230 37 548 544 405 543
1231 37 541 544 405 543
1232 10 229 231 201 404
1233 11 229 231 201 237
1234 10 229 231 445 397
1235 11 229 231 445 444
1236 25 201 231 229 228
1237 25 445 231 229 228
1238 25 201 231 229 226
1239 25 445 231 229 226
1240 26 201 231 445 397
1241 27 201 231 445 444
1242 27 445 231 201 237
1243 26 231 445 397 400
1244 27 231 445 397 396
1245 21 79 55 59 58
1246 36 54 55 79 81
1247 36 52 55 79 81
1248 37 54 55 79 77
1249 37 52 55 79 77
1250 9 55 79 77 78
1251 8 78 79 55 59
1252 6 78 79 55 54
1253 6 78 79 55 52
1254 6 55 79 78 80
1255 6 55 79 78 76
1256 42 81 79 78 77
1257 43 81 79 55 59
1258 47 77 79 55 59
1259 7 55 79 78 77
1260 8 544 405 406 402
1261 47 543 405 406 402
1262 43 538 405 406 402
1263 7 406 405 544 543
1264 6 406 405 544 548
1265 6 406 405 544 541
1266 9 406 405 543 544
1267 6 544 405 406 410
1268 6 544 405 406 408
1269 42 538 405 544 543
1270 26 60 58 181 182
1271 27 60 58 181 51
1272 27 181 58 60 61
1273 17 55 59 58 60
1274 17 55 59 58 181
1275 32 58 59 55 54
1276 32 58 59 55 52
1277 27 186 182 181 51
1278 44 178 182 181 51
1279 29 182 181 58 59
1280 45 51 181 58 59
1281 26 58 181 182 186
1282 27 58 181 182 178
1283 29 201 404 400 402
1284 26 201 404 400 397
1285 27 400 404 201 237
1286 45 409 404 400 402
1287 21 405 406 402 400
1288 37 410 406 405 543
1289 36 410 406 405 538
1290 37 408 406 405 543
1291 36 408 406 405 538
1292 17 406 402 400 404
1293 32 400 402 406 410
1294 32 400 402 406 408
1295 17 406 402 400 397
1296 26 404 400 397 445
1297 27 404 400 397 396
1298 27 397 400 404 409
1299 27 400 397 445 444
1300 45 396 397 400 402
1301 44 396 397 445 444
1302 29 445 397 400 402
1303 26 231 201 404 400
1304 27 231 201 404 409
1305 44 237 201 404 409
1306 26 404 201 231 445
1307 37 80 78 79 77
1308 36 80 78 79 81
1309 37 76 78 79 77
1310 36 76 78 79 81
1311 20 86 561 558 556
1312 34 90 561 86 88
1313 34 537 561 86 88
1314 48 558 561 86 559
1315 35 90 561 86 559
1316 35 537 561 86 559
1317 37 198 196 197 199
1318 36 198 196 197 200
1319 37 194 196 197 199
1320 36 194 196 197 200
1321 16 78 77 79 81
1322 22 79 77 78 80
1323 22 79 77 78 76
1324 17 561 558 556 554
1325 17 561 558 556 560
1326 32 556 558 561 537
1327 32 556 558 561 90
1328 16 196 199 197 200
1329 22 197 199 196 198
1330 22 197 199 196 194
1331 9 195 197 199 196
1332 8 196 197 195 394
1333 6 196 197 195 163
1334 6 196 197 195 398
1335 6 195 197 196 198
1336 6 195 197 196 194
1337 42 200 197 196 199
1338 43 200 197 195 394
1339 47 199 197 195 394
1340 7 195 197 196 199
1341 27 299 302 305 307
1342 44 303 302 305 307
1343 26 453 575 577 578
1344 27 453 575 577 574
1345 27 577 575 453 452
1346 1 263 262 267 268
1347 23 267 262 263 264
1348 23 267 262 263 259
1349 23 267 262 263 265
1350 1 263 262 267 109
1351 33 261 262 263 264
1352 33 261 262 263 259
1353 33 261 262 263 265
1354 33 260 262 263 264
1355 33 260 262 263 259
1356 33 260 262 263 265
1357 33 110 85 89 225
1358 33 110 85 89 62
1359 33 83 85 89 225
1360 33 83 85 89 62
1361 33 87 85 89 225
1362 33 87 85 89 62
1363 26 499 502 503 500
1364 27 499 502 503 505
1365 44 463 502 503 505
1366 26 503 502 499 497
1367 10 434 555 553 554
1368 11 434 555 553 550
1369 10 434 555 557 560
1370 11 434 555 557 440
1371 25 553 555 434 431
1372 25 557 555 434 431
1373 25 553 555 434 429
1374 25 557 555 434 429
1375 26 553 555 557 560
1376 27 553 555 557 440
1377 27 557 555 553 550
1378 29 302 305 304 306
1379 45 307 305 304 306
1380 26 304 305 302 299
1381 27 304 305 302 303
1382 29 553 554 556 558
1383 26 553 554 556 560
1384 27 556 554 553 550
1385 45 551 554 556 558
1386 26 555 557 560 556
1387 27 555 557 560 536
1388 10 295 299 298 301
1389 25 298 299 295 293
1390 25 298 299 295 458
1391 26 298 299 302 305
1392 27 298 299 302 303
1393 11 295 299 298 296
1394 27 302 299 298 296
1395 25 302 299 295 293
1396 25 302 299 295 458
1397 11 295 299 302 303
1398 10 295 299 302 305
1399 26 555 553 554 556
1400 27 555 553 554 551
1401 44 550 553 554 551
1402 26 554 553 555 557
1403 26 301 298 299 302
1404 27 299 298 301 300
1405 27 575 577 578 579
1406 45 574 577 575 573
1407 44 574 577 578 579
1408 29 578 577 575 573
1409 29 298 301 304 306
1410 45 300 301 304 306
1411 26 304 301 298 299
1412 27 304 301 298 296
1413 44 300 301 298 296
1414 26 298 301 304 305
1415 29 439 393 442 394
1416 45 395 393 442 394
1417 26 442 393 439 436
1418 27 442 393 439 441
1419 26 554 556 560 557
1420 27 554 556 560 536
1421 27 560 556 554 551
1422 29 502 503 500 501
1423 26 502 503 500 498
1424 27 500 503 502 463
1425 45 505 503 500 501
1426 27 556 560 557 440
1427 45 536 560 556 558
1428 44 536 560 557 440
1429 29 557 560 556 558
1430 26 111 268 267 109
1431 26 267 268 111 91
1432 26 438 435 436 439
1433 27 436 435 438 437
1434 17 195 394 442 438
1435 17 195 394 442 393
1436 32 442 394 195 163
1437 32 442 394 195 398
1438 29 435 438 442 394
1439 45 437 438 442 394
1440 26 442 438 435 436
1441 27 442 438 435 433
1442 44 437 438 435 433
1443 26 435 438 442 393
1444 21 197 195 394 442
1445 36 163 195 197 200
1446 36 398 195 197 200
1447 37 163 195 197 199
1448 37 398 195 197 199
1449 1 85 89 111 268
1450 1 85 89 111 91
1451 23 111 89 85 110
1452 23 111 89 85 83
1453 23 111 89 85 87
1454 26 503 500 498 497
1455 27 503 500 498 496
1456 27 498 500 503 505
1457 27 500 498 497 495
1458 45 496 498 500 501
1459 44 496 498 497 495
1460 29 497 498 500 501
1461 26 499 497 498 500
1462 27 499 497 498 496
1463 10 295 499 502 503
1464 11 295 499 502 463
1465 10 295 499 497 498
1466 11 295 499 497 495
1467 25 502 499 295 293
1468 25 497 499 295 293
1469 25 502 499 295 458
1470 25 497 499 295 458
1471 26 502 499 497 498
1472 27 502 499 497 495
1473 27 497 499 502 463
1474 24 555 434 436 435
1475 24 436 434 555 553
1476 24 436 434 555 557
1477 24 555 434 436 439
1478 10 262 267 268 111
1479 25 268 267 262 261
1480 25 268 267 262 260
1481 26 268 267 109 112
1482 11 262 267 268 266
1483 27 109 267 268 266
1484 25 109 267 262 261
1485 25 109 267 262 260
1486 10 262 267 109 112
1487 12 262 267 109 155
1488 28 268 267 109 155
1489 10 434 436 435 438
1490 25 435 436 434 431
1491 25 435 436 434 429
1492 26 435 436 439 393
1493 27 435 436 439 441
1494 11 434 436 435 433
1495 27 439 436 435 433
1496 25 439 436 434 431
1497 25 439 436 434 429
1498 11 434 436 439 441
1499 10 434 436 439 393
1500 24 499 295 299 298
1501 24 299 295 499 502
1502 24 299 295 499 497
1503 24 499 295 299 302
1504 27 436 439 393 395
1505 44 441 439 393 395
1506 29 136 135 130 129
1507 26 136 135 130 128
1508 27 130 135 136 191
1509 45 137 135 130 129
1510 3 252 247 244 173
1511 39 246 247 244 173
1512 4 244 247 252 461
1513 2 244 247 252 459
1514 2 244 247 252 253
1515 5 244 247 243 175
1516 2 252 247 244 245
1517 2 252 247 244 242
1518 40 246 247 252 461
1519 41 246 247 243 175
1520 5 252 247 243 175

Impropers

1 26 280 283 281 285
2 26 276 278 281 116
3 29 528 116 114 278
4 24 447 281 278 283
5 13 356 361 363 360
6 13 356 361 363 362
7 13 356 361 360 362
8 14 363 361 360 362
9 24 361 356 351 354
10 29 223 357 359 354
11 26 349 354 356 357
12 13 281 447 446 450
13 13 281 447 446 448
14 13 281 447 450 448
15 14 446 447 450 448
16 26 347 351 356 173
17 29 41 285 286 283
18 24 345 349 354 344
19 5 43 41 40 285
20 5 43 41 42 285
21 15 40 41 42 285
22 4 43 41 40 42
23 24 56 177 49 124
24 2 403 345 346 349
25 2 403 345 340 349
26 13 349 345 346 340
27 3 403 345 346 340
28 3 345 403 401 407
29 3 345 403 401 399
30 3 345 403 407 399
31 14 401 403 407 399
32 24 282 280 283 277
33 5 531 528 529 116
34 5 531 528 507 116
35 15 529 528 507 116
36 4 531 528 529 507
37 24 274 276 277 278
38 5 379 223 224 357
39 5 379 223 222 357
40 15 224 223 222 357
41 4 379 223 224 222
42 24 165 347 344 351
43 12 15 56 177 132
44 12 15 56 177 57
45 13 15 56 132 57
46 13 177 56 132 57
47 25 276 277 280 275
48 25 347 344 349 341
49 25 49 47 174 45
50 25 177 49 47 50
51 29 244 173 171 351
52 24 56 15 13 17
53 22 269 472 473 466
54 21 269 472 473 474
55 23 269 472 466 474
56 23 473 472 466 474
57 19 528 531 532 527
58 18 528 531 532 533
59 20 528 531 527 533
60 20 532 531 527 533
61 1 113 274 276 117
62 1 113 274 276 273
63 3 113 274 117 273
64 13 276 274 117 273
65 25 14 17 15 18
66 27 176 174 47 169
67 19 223 379 430 193
68 18 223 379 430 378
69 20 223 379 193 378
70 20 430 379 193 378
71 3 63 545 576 572
72 3 63 545 576 546
73 3 63 545 572 546
74 14 576 545 572 546
75 25 128 180 185 179
76 8 472 269 271 466
77 8 472 269 270 466
78 16 271 269 270 466
79 7 472 269 271 270
80 11 123 121 241 119
81 11 123 121 241 122
82 7 123 121 119 122
83 17 119 121 122 241
84 6 531 532 534 530
85 6 531 532 534 508
86 4 531 532 530 508
87 17 530 532 508 534
88 25 130 128 180 126
89 25 15 13 11 53
90 8 123 294 297 291
91 8 123 294 249 291
92 16 297 294 249 291
93 7 123 294 297 249
94 6 379 430 380 428
95 6 379 430 380 432
96 4 379 430 428 432
97 17 428 430 432 380
98 3 274 113 115 158
99 3 274 113 115 157
100 3 274 113 158 157
101 14 115 113 158 157
102 25 13 11 12 10
103 22 131 251 250 125
104 21 131 251 250 248
105 23 131 251 125 248
106 23 250 251 125 248
107 27 14 12 11 9
108 27 388 384 386 380
109 25 384 388 392 387
110 25 388 392 334 335
111 10 251 250 125 103
112 10 251 250 125 102
113 7 251 250 103 102
114 16 103 250 102 125
115 25 390 386 384 382
116 27 128 130 135 129
117 22 294 123 121 291
118 21 294 123 121 292
119 23 294 123 291 292
120 23 121 123 291 292
121 9 251 131 134 129
122 9 251 131 133 129
123 17 134 131 133 129
124 7 251 131 134 133
125 25 12 14 17 16
126 3 282 287 289 288
127 3 282 287 289 489
128 3 282 287 288 489
129 14 289 287 288 489
130 27 22 26 32 534
131 25 146 149 25 147
132 2 287 282 279 280
133 2 287 282 483 280
134 13 280 282 279 483
135 3 287 282 279 483
136 2 510 319 316 321
137 2 510 319 465 321
138 13 321 319 316 465
139 3 510 319 316 465
140 19 84 86 561 559
141 18 84 86 561 88
142 20 84 86 559 88
143 20 561 86 559 88
144 6 247 252 461 459
145 6 247 252 461 253
146 4 247 252 459 253
147 17 459 252 253 461
148 5 247 244 245 173
149 5 247 244 242 173
150 15 245 244 242 173
151 4 247 244 245 242
152 6 140 142 143 144
153 6 140 142 143 141
154 4 140 142 144 141
155 17 144 142 141 143
156 13 322 152 154 151
157 13 322 152 154 150
158 13 322 152 151 150
159 14 154 152 151 150
160 2 545 63 98 64
161 2 545 63 539 64
162 13 64 63 98 539
163 3 545 63 98 539
164 19 257 140 142 139
165 18 257 140 142 138
166 20 257 140 139 138
167 20 142 140 139 138
168 26 67 65 64 542
169 30 65 542 547 540
170 24 63 64 65 66
171 24 69 67 70 65
172 13 67 69 46 44
173 13 67 69 46 48
174 13 67 69 44 48
175 14 46 69 44 48
176 26 67 70 68 72
177 25 68 66 64 100
178 29 257 72 74 70
179 24 71 68 66 70
180 5 140 257 254 72
181 5 140 257 258 72
182 15 254 257 258 72
183 4 140 257 254 258
184 29 569 327 156 325
185 24 152 322 325 320
186 26 321 320 322 317
187 26 322 325 326 327
188 29 84 317 464 320
189 24 328 326 323 325
190 24 319 321 320 323
191 25 326 323 321 324
192 5 568 569 567 327
193 5 568 569 451 327
194 15 567 569 451 327
195 4 568 569 567 451
196 1 204 71 68 75
197 1 204 71 68 101
198 3 204 71 75 101
199 13 68 71 75 101
200 5 86 84 82 317
201 5 86 84 552 317
202 15 82 84 552 317
203 4 86 84 82 552
204 26 111 91 112 95
205 27 255 462 421 461
206 27 149 146 148 143
207 25 462 255 217 256
208 3 71 204 203 202
209 3 71 204 203 205
210 3 71 204 202 205
211 14 203 204 202 205
212 6 568 571 573 570
213 6 568 571 573 566
214 4 568 571 570 566
215 17 570 571 566 573
216 25 26 22 23 20
217 28 3 95 105 91
218 12 30 31 29 35
219 12 30 31 29 34
220 13 30 31 35 34
221 13 29 31 35 34
222 6 4 8 9 7
223 6 4 8 9 6
224 4 4 8 7 6
225 17 7 8 6 9
226 19 569 568 571 564
227 18 569 568 571 565
228 20 569 568 564 565
229 20 571 568 564 565
230 25 22 23 30 21
231 24 31 29 24 25
232 6 108 504 501 506
233 6 108 504 501 582
234 4 108 504 506 582
235 17 506 504 582 501
236 24 92 112 91 109
237 5 4 3 99 95
238 5 4 3 2 95
239 15 99 3 2 95
240 4 4 3 99 2
241 24 31 30 33 23
242 24 219 218 425 216
243 25 188 216 218 215
244 27 188 371 374 369
245 6 368 367 369 365
246 6 368 367 369 364
247 4 368 367 365 364
248 17 365 367 364 369
249 24 219 424 423 217
250 25 24 148 146 145
251 26 112 109 267 155
252 5 368 372 373 155
253 5 368 372 375 155
254 15 373 372 375 155
255 4 368 372 373 375
256 25 218 425 374 426
257 1 383 328 326 385
258 1 383 328 326 332
259 3 383 328 385 332
260 13 326 328 385 332
261 19 372 368 367 370
262 18 372 368 367 366
263 20 372 368 370 366
264 20 367 368 370 366
265 19 105 108 504 107
266 18 105 108 504 19
267 20 105 108 107 19
268 20 504 108 107 19
269 25 423 421 462 420
270 25 149 25 29 27
271 5 108 105 106 95
272 5 108 105 104 95
273 15 106 105 104 95
274 4 108 105 106 104
275 25 371 188 216 184
276 25 30 33 32 36
277 29 372 155 153 109
278 13 112 92 93 94
279 13 112 92 93 38
280 13 112 92 94 38
281 14 93 92 94 38
282 12 424 219 218 221
283 12 424 219 218 427
284 13 424 219 221 427
285 13 218 219 221 427
286 25 425 374 371 376
287 25 424 423 421 422
288 3 328 383 512 381
289 3 328 383 512 389
290 3 328 383 381 389
291 14 512 383 381 389
292 25 33 32 26 535
293 19 3 4 8 1
294 18 3 4 8 5
295 20 3 4 1 5
296 20 8 4 1 5
297 25 29 24 148 28
298 25 255 217 424 220
299 24 89 111 268 91
300 24 337 334 390 392
301 25 469 470 585 468
302 25 470 585 516 584
303 24 515 516 333 585
304 27 470 469 331 467
305 25 475 477 479 562
306 24 515 475 477 478
307 12 516 515 475 513
308 12 516 515 475 514
309 13 516 515 513 514
310 13 475 515 513 514
311 22 523 521 520 519
312 21 523 521 520 525
313 23 523 521 519 525
314 23 520 521 519 525
315 11 521 520 358 518
316 11 521 520 358 524
317 7 521 520 518 524
318 17 518 520 524 358
319 25 333 331 469 330
320 25 516 333 331 272
321 25 480 478 475 476
322 25 580 456 453 457
323 6 43 168 169 172
324 6 43 168 169 167
325 4 43 168 172 167
326 17 172 168 167 169
327 25 174 176 124 120
328 19 41 43 168 39
329 18 41 43 168 170
330 20 41 43 39 170
331 20 168 43 39 170
332 11 472 473 467 471
333 11 472 473 467 443
334 7 472 473 471 443
335 17 471 473 443 467
336 25 176 124 177 127
337 25 482 480 478 481
338 25 60 190 186 192
339 12 233 229 231 228
340 12 233 229 231 226
341 13 233 229 228 226
342 13 231 229 228 226
343 24 187 186 182 190
344 8 521 523 522 519
345 8 521 523 526 519
346 16 522 523 526 519
347 7 521 523 522 526
348 12 186 187 185 189
349 12 186 187 185 183
350 13 186 187 189 183
351 13 185 187 189 183
352 3 165 162 160 161
353 3 165 162 160 159
354 3 165 162 161 159
355 14 160 162 161 159
356 25 477 479 482 563
357 25 456 453 575 452
358 1 162 165 347 164
359 1 162 165 347 166
360 3 162 165 164 166
361 13 347 165 164 166
362 24 229 233 235 232
363 25 185 136 135 191
364 24 187 185 136 180
365 22 311 312 310 313
366 21 311 312 310 315
367 23 311 312 313 315
368 23 310 312 313 315
369 12 417 581 580 460
370 12 417 581 580 549
371 13 417 581 460 549
372 13 580 581 460 549
373 8 312 311 308 313
374 8 312 311 314 313
375 16 308 311 314 313
376 7 312 311 308 314
377 25 234 232 233 230
378 27 350 353 352 358
379 25 233 235 239 236
380 24 581 580 456 578
381 25 238 234 232 118
382 27 480 482 479 484
383 25 353 350 343 517
384 27 438 442 393 394
385 25 348 352 353 290
386 25 235 239 238 240
387 8 211 210 207 213
388 8 211 210 212 213
389 16 207 210 212 213
390 7 211 210 207 212
391 10 490 492 486 493
392 10 490 492 486 494
393 7 490 492 493 494
394 16 493 492 494 486
395 25 342 348 352 284
396 11 211 208 413 206
397 11 211 208 413 209
398 7 211 208 206 209
399 17 206 208 209 413
400 9 490 487 485 484
401 9 490 487 491 484
402 17 485 487 491 484
403 7 490 487 485 491
404 25 415 418 417 419
405 27 415 414 412 413
406 24 581 417 455 418
407 25 414 415 418 416
408 25 417 455 412 454
409 25 455 412 414 411
410 22 487 490 492 486
411 21 487 490 492 488
412 23 487 490 486 488
413 23 492 490 486 488
414 22 210 211 208 213
415 21 210 211 208 214
416 23 210 211 213 214
417 23 208 211 213 214
418 27 234 238 239 241
419 11 312 310 306 309
420 11 312 310 306 377
421 7 312 310 309 377
422 17 309 310 377 306
423 24 337 342 348 343
424 12 342 337 334 338
425 12 342 337 334 336
426 13 342 337 338 336
427 13 334 337 338 336
428 25 350 343 342 339
429 25 334 390 386 391
430 25 577 578 580 579
431 27 301 304 305 306
432 3 262 263 264 259
433 3 262 263 264 265
434 3 262 263 259 265
435 14 264 263 259 265
436 25 58 60 190 61
437 10 405 544 543 548
438 10 405 544 543 541
439 7 405 544 548 541
440 16 548 544 541 543
441 24 229 231 201 445
442 25 397 445 231 444
443 11 79 55 59 54
444 11 79 55 59 52
445 7 79 55 54 52
446 17 54 55 52 59
447 22 78 79 55 77
448 21 78 79 55 81
449 23 78 79 77 81
450 23 55 79 77 81
451 22 406 405 544 543
452 21 406 405 544 538
453 23 406 405 543 538
454 23 544 405 543 538
455 27 60 58 181 59
456 25 186 182 181 178
457 25 182 181 58 51
458 25 201 404 400 409
459 9 405 406 410 402
460 9 405 406 408 402
461 17 410 406 408 402
462 7 405 406 410 408
463 27 397 400 404 402
464 25 400 397 445 396
465 25 231 201 404 237
466 8 79 78 80 77
467 8 79 78 76 77
468 16 80 78 76 77
469 7 79 78 80 76
470 6 86 561 558 90
471 6 86 561 558 537
472 4 86 561 90 537
473 17 90 561 537 558
474 3 319 510 583 509
475 3 319 510 583 511
476 3 319 510 509 511
477 14 583 510 509 511
478 8 197 196 198 199
479 8 197 196 194 199
480 16 198 196 194 199
481 7 197 196 198 194
482 22 196 197 195 199
483 21 196 197 195 200
484 23 196 197 199 200
485 23 195 197 199 200
486 25 299 302 305 303
487 27 577 575 453 573
488 2 263 262 261 267
489 2 263 262 260 267
490 13 267 262 261 260
491 3 263 262 261 260
492 3 89 85 110 83
493 3 89 85 110 87
494 3 89 85 83 87
495 14 110 85 83 87
496 25 499 502 503 463
497 24 434 555 553 557
498 25 302 305 304 307
499 25 553 554 556 551
500 25 560 557 555 440
501 24 295 299 302 298
502 25 555 553 554 550
503 25 301 298 299 296
504 25 575 577 578 574
505 25 304 301 298 300
506 25 439 393 442 395
507 27 560 556 554 558
508 25 502 503 500 505
509 25 556 560 557 536
510 25 111 268 267 266
511 25 438 435 436 433
512 25 442 438 435 437
513 11 197 195 394 163
514 11 197 195 394 398
515 7 197 195 163 398
516 17 163 195 398 394
517 1 85 89 111 225
518 1 85 89 111 62
519 3 85 89 225 62
520 13 111 89 225 62
521 27 498 500 503 501
522 25 500 498 497 496
523 25 498 497 499 495
524 24 295 499 502 497
525 12 436 434 555 431
526 12 436 434 555 429
527 13 436 434 431 429
528 13 555 434 431 429
529 24 262 267 109 268
530 24 434 436 439 435
531 12 299 295 499 293
532 12 299 295 499 458
533 13 299 295 293 458
534 13 499 295 293 458
535 25 436 439 393 441
536 25 136 135 130 137
537 19 244 247 252 243
538 18 244 247 252 246
539 20 244 247 243 246
540 20 252 247 243 246
