LAMMPS data file via write_data, version 4 Jul 2026, timestep = 2611250, units = real

585 atoms
11 atom types
615 bonds
18 bond types
1090 angles
35 angle types
1526 dihedrals
48 dihedral types
540 impropers
30 improper types

1.3734169280559119 19.78036208194105 xlo xhi
1.3734169280559119 19.78036208194105 ylo yhi
1.3734169280559119 19.78036208194105 zlo zhi

Masses

1 12.01115
2 12.01115
3 12.01115
4 12.01115
5 1.00797
6 1.00797
7 1.00797
8 14.0067
9 15.9994
10 15.9994
11 15.9994

Pair Coeffs # lj/class2/coul/long

1 0.054 4.01
2 0.054 4.01
3 0.054 4.01
4 0.064 4.01
5 0.02 2.995
6 0.013 1.098
7 0.013 1.098
8 0.065 4.07
9 0.24 3.535
10 0.24 3.535
11 0.24 3.535

Bond Coeffs # class2

1 1.53 299.67 -501.77 679.81
2 1.53 299.67 -501.77 679.81
3 1.53 299.67 -501.77 679.81
4 1.501 321.902 -521.821 572.163
5 1.101 345 -691.89 844.6
6 1.457 365.805 -699.637 998.484
7 1.42 400.395 -835.195 1313.01
8 1.42 400.395 -835.195 1313.01
9 1.101 345 -691.89 844.6
10 1.42 400.395 -835.195 1313.01
11 1.101 345 -691.89 844.6
12 1.42 400.395 -835.195 1313.01
13 1.417 470.836 -627.618 1327.63
14 1.0982 372.825 -803.453 894.317
15 1.412 257.775 0 0
16 1.3768 428.88 -738.235 1114.97
17 1.006 466.74 -1073.6 1251.11
18 0.965 532.506 -1282.9 2004.77

Angle Coeffs # class2

1 108.4 43.9594 -8.3924 -9.3379
2 110.77 41.453 -10.604 5.129
3 112.67 39.516 -7.443 -9.5583
4 110.77 41.453 -10.604 5.129
5 111.27 54.5381 -8.3642 -13.0838
6 112.67 39.516 -7.443 -9.5583
7 110.77 41.453 -10.604 5.129
8 111.27 54.5381 -8.3642 -13.0838
9 120.05 44.7148 -22.7352 0
10 112.444 47.2337 -10.6612 -10.2062
11 109 80 0 0
12 110.954 50.8652 -4.4522 -10.0298
13 104.5 35.7454 -10.0067 -6.2729
14 102.969 38.9739 -6.2595 -8.171
15 110.77 41.453 -10.604 5.129
16 111.91 60.7147 -13.3366 -13.0785
17 111.27 54.5381 -8.3642 -13.0838
18 105.8 52.7061 -12.109 -9.8681
19 110.77 41.453 -10.604 5.129
20 111.27 54.5381 -8.3642 -13.0838
21 111.27 54.5381 -8.3642 -13.0838
22 111 44.3234 -9.4454 0
23 111 44.3234 -9.4454 0
24 118.9 61.0226 -34.9931 0
25 117.94 35.1558 -12.4682 0
26 120 102 0 0
27 123.42 73.6781 -21.6787 0
28 110 41.6 0 0
29 107.66 39.641 -12.921 -2.4318
30 110.62 51.3137 -6.7198 -2.6003
31 108.728 58.5446 -10.8088 -12.4006
32 108.728 58.5446 -10.8088 -12.4006
33 108.728 58.5446 -10.8088 -12.4006
34 108.728 58.5446 -10.8088 -12.4006
35 107.067 45.252 -7.5558 -9.512

BondBond Coeffs

1 0 1.53 1.501
2 3.3872 1.53 1.101
3 0 1.53 1.53
4 3.3872 1.53 1.101
5 11.4318 1.53 1.42
6 0 1.53 1.53
7 3.3872 1.53 1.101
8 11.4318 1.53 1.42
9 12.0676 1.501 1.417
10 -2.1113 1.457 1.457
11 0 1.457 1.412
12 -6.4168 1.457 1.006
13 -7.1131 1.42 1.42
14 0 1.42 1.3768
15 3.3872 1.53 1.101
16 4.6217 1.53 1.457
17 11.4318 1.53 1.42
18 -9.6879 1.42 0.965
19 3.3872 1.53 1.101
20 11.4318 1.53 1.42
21 11.4318 1.53 1.42
22 0 1.501 1.501
23 2.9168 1.501 1.101
24 68.2856 1.417 1.417
25 1.0795 1.417 1.0982
26 0 1.417 1.412
27 48.4754 1.417 1.3768
28 0 1.412 1.006
29 5.3316 1.101 1.101
30 12.426 1.101 1.457
31 23.1979 1.101 1.42
32 23.1979 1.101 1.42
33 23.1979 1.101 1.42
34 23.1979 1.101 1.42
35 -1.8749 1.006 1.006

BondAngle Coeffs

1 0 0 1.53 1.501
2 20.754 11.421 1.53 1.101
3 8.016 8.016 1.53 1.53
4 20.754 11.421 1.53 1.101
5 2.6868 20.4033 1.53 1.42
6 8.016 8.016 1.53 1.53
7 20.754 11.421 1.53 1.101
8 2.6868 20.4033 1.53 1.42
9 47.0579 31.0771 1.501 1.417
10 -7.2229 -7.2229 1.457 1.457
11 0 0 1.457 1.412
12 31.8096 20.5799 1.457 1.006
13 -2.8112 -2.8112 1.42 1.42
14 0 0 1.42 1.3768
15 20.754 11.421 1.53 1.101
16 6.0876 16.5702 1.53 1.457
17 2.6868 20.4033 1.53 1.42
18 28.58 18.9277 1.42 0.965
19 20.754 11.421 1.53 1.101
20 2.6868 20.4033 1.53 1.42
21 2.6868 20.4033 1.53 1.42
22 0 0 1.501 1.501
23 26.4608 11.7717 1.501 1.101
24 28.8708 28.8708 1.417 1.417
25 20.0033 24.2183 1.417 1.0982
26 0 0 1.417 1.412
27 58.479 107.681 1.417 1.3768
28 0 0 1.412 1.006
29 18.103 18.103 1.101 1.101
30 13.4582 42.4332 1.101 1.457
31 4.6189 55.327 1.101 1.42
32 4.6189 55.327 1.101 1.42
33 4.6189 55.327 1.101 1.42
34 4.6189 55.327 1.101 1.42
35 28.0322 28.0322 1.006 1.006

Dihedral Coeffs # class2

1 -0.2802 0 -0.0678 0 -0.0122 0
2 0 0 0.0316 0 -0.1681 0
3 0.1764 0 0.1766 0 -0.5206 0
4 0.7137 0 0.266 0 -0.2545 0
5 -0.6732 0 -0.4778 0 -0.167 0
6 0 0 0.0316 0 -0.1681 0
7 0.7137 0 0.266 0 -0.2545 0
8 0.7137 0 0.266 0 -0.2545 0
9 -0.5203 0 -0.3028 0 -0.345 0
10 0 0 4.4072 0 0 0
11 0 0 1.559 0 0 0
12 0 0 3 0 0 0
13 -0.1406 0 0.4168 0 0.015 0
14 0.1904 0 -0.1342 0 -0.246 0
15 0 0 2.25 0 0 0
16 0.5302 0 0 0 -0.3966 0
17 0 0 1.5 0 0 0
18 0 0 0 0 0.05 180
19 -1.1506 0 -0.6344 0 -0.1845 0
20 0 0 0 0 0.13 180
21 0 0 0 0 0.13 180
22 0.5302 0 0 0 -0.3966 0
23 -0.0228 0 0.028 0 -0.1863 0
24 -0.2802 0 -0.0678 0 -0.0122 0
25 -0.2801 0 -0.0678 0 -0.0122 0
26 8.3667 0 1.1932 0 0 0
27 0 0 3.9661 0 0 0
28 0 0 3 0 0 0
29 0 0 4.8498 0 0 0
30 0 0 2.25 0 0 0
31 0 0 0 0 0.05 180
32 0.9513 0 0.1155 0 0.072 0
33 -0.1432 0 0.0617 0 -0.1083 0
34 -0.1432 0 0.0617 0 -0.1083 0
35 -0.1435 0 0.253 0 -0.0905 0
36 -0.1432 0 0.0617 0 -0.1083 0
37 -0.1435 0 0.253 0 -0.0905 0
38 -0.5187 0 -0.4837 0 -0.1692 0
39 -0.2428 0 0.4065 0 -0.3079 0
40 -0.1435 0 0.253 0 -0.0905 0
41 0.1863 0 -0.4338 0 -0.2121 0
42 -0.1435 0 0.253 0 -0.0905 0
43 -0.1435 0 0.253 0 -0.0905 0
44 0 0 1.8769 0 0 0
45 0 0 1.7234 0 0 0
46 0 0 0 0 0.158 180
47 -0.182 0 -0.1084 0 -0.7047 0
48 -0.182 0 -0.1084 0 -0.7047 0

AngleAngleTorsion Coeffs

1 0 108.4 120.05
2 -16.164 112.67 110.77
3 -27.3953 112.67 111.91
4 -29.042 112.67 111.27
5 -12.1038 111.27 105.8
6 -16.164 112.67 110.77
7 -29.042 112.67 111.27
8 -29.042 112.67 111.27
9 -19.0059 111.27 104.5
10 -14.4097 120.05 118.9
11 4.4444 120.05 117.94
12 0 120.05 120
13 -24.3818 112.444 111.91
14 -12.5567 112.444 110.62
15 0 109 120
16 -16.4438 104.5 108.728
17 0 102.969 123.42
18 0 111.91 109
19 -7.5499 111.91 110.954
20 0 111.27 102.969
21 0 111.27 102.969
22 -16.4438 104.5 108.728
23 0 108.4 110.77
24 0 111 120.05
25 -5.8888 120.05 111
26 0 118.9 118.9
27 -4.8141 118.9 117.94
28 0 118.9 120
29 -21.0247 118.9 123.42
30 0 120 110
31 0 109 110.62
32 0 102.969 108.728
33 -12.564 110.77 110.77
34 -12.564 110.77 110.77
35 -20.2006 110.77 111.27
36 -12.564 110.77 110.77
37 -20.2006 110.77 111.27
38 -10.4258 110.62 110.954
39 -15.7572 110.77 111.91
40 -20.2006 110.77 111.27
41 -10.5093 108.728 105.8
42 -20.2006 110.77 111.27
43 -20.2006 110.77 111.27
44 0.3598 117.94 117.94
45 4.2296 117.94 123.42
46 0 111.91 111.27
47 -14.0484 111.27 111.27
48 -14.0484 111.27 111.27

EndBondTorsion Coeffs

1 0 0 0 0 0 0 1.53 1.417
2 0.2486 0.2422 -0.0925 0.0814 0.0591 0.2219 1.53 1.101
3 0.1032 0.5896 -0.4836 0.0579 -0.0043 -0.1906 1.53 1.457
4 -0.319 0.4411 -0.7174 1.1538 0.8409 -0.9138 1.53 1.42
5 -0.58 0.9004 0 0 0.5343 0.9025 1.53 0.965
6 0.2486 0.2422 -0.0925 0.0814 0.0591 0.2219 1.53 1.101
7 -0.319 0.4411 -0.7174 1.1538 0.8409 -0.9138 1.53 1.42
8 -0.319 0.4411 -0.7174 1.1538 0.8409 -0.9138 1.53 1.42
9 -0.2456 1.0517 -0.7795 0.4741 1.2635 0.5576 1.53 1.42
10 0 0.2421 0 0 -0.6918 0 1.501 1.417
11 0 -1.797 0 0 -0.4879 0 1.501 1.0982
12 0 0 0 0 0 0 1.501 1.412
13 -0.0128 -0.0495 -0.1079 0.0997 -0.0046 -0.2657 1.457 1.53
14 0.0628 0.0873 -0.0882 -0.5892 0.714 0.3505 1.457 1.101
15 0 0 0 0 0 0 1.457 1.417
16 -0.162 0.1564 -1.1408 -0.6054 1.3339 0.9648 1.42 1.101
17 0 0 0 0 0 0 1.42 1.417
18 0 0 0 0 0 0 1.53 1.412
19 -0.9466 0.9356 -0.5542 0.057 0.0625 0.4112 1.53 1.006
20 0 0 0 0 0 0 1.53 1.3768
21 0 0 0 0 0 0 1.53 1.3768
22 -0.162 0.1564 -1.1408 -0.6054 1.3339 0.9648 1.42 1.101
23 0 0 0 0 0 0 1.501 1.101
24 0 0 0 0 0 0 1.501 1.417
25 -0.5835 1.122 0.3978 1.3997 0.7756 0 1.417 1.101
26 -0.1185 6.3204 0 -0.1185 6.3204 0 1.417 1.417
27 0 -6.8958 0 0 -0.4669 0 1.417 1.0982
28 0 0 0 0 0 0 1.417 1.412
29 0 0.2655 0 0 4.8905 0 1.417 1.3768
30 0 0 0 0 0 0 1.417 1.006
31 0 0 0 0 0 0 1.412 1.101
32 0 0 0 0 0 0 1.3768 1.101
33 0.213 0.312 0.0777 0.213 0.312 0.0777 1.101 1.101
34 0.213 0.312 0.0777 0.213 0.312 0.0777 1.101 1.101
35 0.9681 0.9551 0.0436 0.5903 0.6669 0.8584 1.101 1.42
36 0.213 0.312 0.0777 0.213 0.312 0.0777 1.101 1.101
37 0.9681 0.9551 0.0436 0.5903 0.6669 0.8584 1.101 1.42
38 -1.1685 0.9266 -0.0993 0.085 0.3061 0.2104 1.101 1.006
39 0.196 0.7056 0.112 0.1022 0.209 0.6433 1.101 1.457
40 0.9681 0.9551 0.0436 0.5903 0.6669 0.8584 1.101 1.42
41 -1.7554 1.3145 0.2263 0.2493 0.6803 0 1.101 0.965
42 0.9681 0.9551 0.0436 0.5903 0.6669 0.8584 1.101 1.42
43 0.9681 0.9551 0.0436 0.5903 0.6669 0.8584 1.101 1.42
44 0 -0.689 0 0 -0.689 0 1.0982 1.0982
45 0 -1.5867 0 0 4.2641 0 1.0982 1.3768
46 0 0 0 0 0 0 1.457 1.42
47 1.0165 0.7553 -0.4609 1.0165 0.7553 -0.4609 1.42 1.42
48 1.0165 0.7553 -0.4609 1.0165 0.7553 -0.4609 1.42 1.42

MiddleBondTorsion Coeffs

1 0 0 0 1.501
2 -14.879 -3.6581 -0.3138 1.53
3 -15.4174 -7.3055 -1.0749 1.53
4 -21.8842 -7.6764 -0.6868 1.53
5 1.2472 0 0.7485 1.42
6 -14.879 -3.6581 -0.3138 1.53
7 -21.8842 -7.6764 -0.6868 1.53
8 -21.8842 -7.6764 -0.6868 1.53
9 -5.9288 -2.7007 -0.3175 1.42
10 0 9.1792 0 1.417
11 0 3.9421 0 1.417
12 0 0 0 1.417
13 -8.0036 -7.7321 -3.064 1.457
14 -6.4529 -6.8122 -1.1632 1.457
15 0 0 0 1.412
16 -6.8007 -4.6546 -1.4101 1.42
17 0 0 0 1.3768
18 0 0 0 1.457
19 -2.2208 0.5479 -0.3527 1.457
20 0 0 0 1.42
21 0 0 0 1.42
22 -6.8007 -4.6546 -1.4101 1.42
23 0 0 0 1.53
24 0 0 0 1.501
25 -5.5679 1.4083 0.301 1.501
26 27.5989 -2.312 0 1.417
27 0 -1.1521 0 1.417
28 0 0 0 1.417
29 0 4.8255 0 1.417
30 0 0 0 1.412
31 0 0 0 1.457
32 0 0 0 1.42
33 -14.261 -0.5322 -0.4864 1.53
34 -14.261 -0.5322 -0.4864 1.53
35 -16.7975 -1.2296 -0.275 1.53
36 -14.261 -0.5322 -0.4864 1.53
37 -16.7975 -1.2296 -0.275 1.53
38 -3.4611 1.6996 -0.6007 1.457
39 -10.4959 -0.7647 -0.0545 1.53
40 -16.7975 -1.2296 -0.275 1.53
41 0 0.9241 -0.5889 1.42
42 -16.7975 -1.2296 -0.275 1.53
43 -16.7975 -1.2296 -0.275 1.53
44 0 4.8228 0 1.417
45 0 5.5432 0 1.417
46 0 0 0 1.53
47 -17.2585 -3.6157 -0.8364 1.53
48 -17.2585 -3.6157 -0.8364 1.53

BondBond13 Coeffs

1 0 1.53 1.417
2 0 1.53 1.101
3 0 1.53 1.457
4 0 1.53 1.42
5 0 1.53 0.965
6 0 1.53 1.101
7 0 1.53 1.42
8 0 1.53 1.42
9 0 1.53 1.42
10 2.5085 1.501 1.417
11 0.8743 1.501 1.0982
12 0 1.501 1.412
13 0 1.457 1.53
14 0 1.457 1.101
15 0 1.457 1.417
16 0 1.42 1.101
17 0 1.42 1.417
18 0 1.53 1.412
19 0 1.53 1.006
20 0 1.53 1.3768
21 0 1.53 1.3768
22 0 1.42 1.101
23 0 1.501 1.101
24 0 1.501 1.417
25 -3.4826 1.417 1.101
26 53 1.417 1.417
27 -6.2741 1.417 1.0982
28 0 1.417 1.412
29 -2.2436 1.417 1.3768
30 0 1.417 1.006
31 0 1.412 1.101
32 0 1.3768 1.101
33 0 1.101 1.101
34 0 1.101 1.101
35 0 1.101 1.42
36 0 1.101 1.101
37 0 1.101 1.42
38 0 1.101 1.006
39 0 1.101 1.457
40 0 1.101 1.42
41 0 1.101 0.965
42 0 1.101 1.42
43 0 1.101 1.42
44 -1.7077 1.0982 1.0982
45 2.0517 1.0982 1.3768
46 0 1.457 1.42
47 0 1.42 1.42
48 0 1.42 1.42

AngleTorsion Coeffs

1 0 0 0 0 0 0 108.4 120.05
2 -0.2454 0 -0.1136 0.3113 0.4516 -0.1988 112.67 110.77
3 -1.9225 -1.345 0.221 2.0125 0.944 -2.7612 112.67 111.91
4 0.5623 -0.3041 -0.4015 0.9672 -0.7566 -1.2331 112.67 111.27
5 -3.5903 2.5225 0.4888 0.8726 -0.3577 0.3888 111.27 105.8
6 -0.2454 0 -0.1136 0.3113 0.4516 -0.1988 112.67 110.77
7 0.5623 -0.3041 -0.4015 0.9672 -0.7566 -1.2331 112.67 111.27
8 0.5623 -0.3041 -0.4015 0.9672 -0.7566 -1.2331 112.67 111.27
9 -2.7466 1.4877 -0.8955 0.5676 0.945 0.0703 111.27 104.5
10 0 -4.4683 0 0 3.8987 0 120.05 118.9
11 0 -0.1242 0 0 3.4601 0 120.05 117.94
12 0 0 0 0 0 0 120.05 120
13 1.2031 1.3645 -0.7071 -2.7883 1.5193 1.4796 112.444 111.91
14 -1.3582 0.1465 -0.5729 -2.6321 0.9353 -0.8398 112.444 110.62
15 0 0 0 0 0 0 109 120
16 -0.7777 0.434 -0.6653 -1.8234 1.6393 0.5144 104.5 108.728
17 0 0 0 0 0 0 102.969 123.42
18 0 0 0 0 0 0 111.91 109
19 -3.343 4.4558 -0.0346 0.2873 -0.8072 -0.096 111.91 110.954
20 0 0 0 0 0 0 111.27 102.969
21 0 0 0 0 0 0 111.27 102.969
22 -0.7777 0.434 -0.6653 -1.8234 1.6393 0.5144 104.5 108.728
23 0 0 0 0 0 0 108.4 110.77
24 0 0 0 0 0 0 111 120.05
25 0.2251 0.6548 0.1237 4.6266 0.1632 0.0461 120.05 111
26 1.9767 1.0239 0 1.9767 1.0239 0 118.9 118.9
27 0 2.5014 0 0 2.7147 0 118.9 117.94
28 0 0 0 0 0 0 118.9 120
29 0 10.0155 0 0 1.7404 0 118.9 123.42
30 0 0 0 0 0 0 120 110
31 0 0 0 0 0 0 109 110.62
32 0 0 0 0 0 0 102.969 108.728
33 -0.8085 0.5569 -0.2466 -0.8085 0.5569 -0.2466 110.77 110.77
34 -0.8085 0.5569 -0.2466 -0.8085 0.5569 -0.2466 110.77 110.77
35 2.3668 2.492 -1.0122 -0.1892 0.4918 0.7273 110.77 111.27
36 -0.8085 0.5569 -0.2466 -0.8085 0.5569 -0.2466 110.77 110.77
37 2.3668 2.492 -1.0122 -0.1892 0.4918 0.7273 110.77 111.27
38 -3.9582 2.0063 0.3213 -0.4294 -0.4442 -0.6141 110.62 110.954
39 0.5111 1.6328 -1.0155 -1.1075 0.282 0.8318 110.77 111.91
40 2.3668 2.492 -1.0122 -0.1892 0.4918 0.7273 110.77 111.27
41 -3.406 1.6396 0.0737 0 -0.281 -0.5944 108.728 105.8
42 2.3668 2.492 -1.0122 -0.1892 0.4918 0.7273 110.77 111.27
43 2.3668 2.492 -1.0122 -0.1892 0.4918 0.7273 110.77 111.27
44 0 2.4501 0 0 2.4501 0 117.94 117.94
45 0 1.8729 0 0 2.5706 0 117.94 123.42
46 0 0 0 0 0 0 111.91 111.27
47 0.5511 0.9737 -0.6673 0.5511 0.9737 -0.6673 111.27 111.27
48 0.5511 0.9737 -0.6673 0.5511 0.9737 -0.6673 111.27 111.27

Improper Coeffs # class2

1 0 0
2 0 0
3 0 0
4 0 0
5 0 0
6 0 0
7 0 0
8 0 0
9 0 0
10 0 0
11 0 0
12 0 0
13 0 0
14 0 0
15 0 0
16 0 0
17 0 0
18 0 0
19 0 0
20 0 0
21 0 0
22 0 0
23 0 0
24 7.8153 0
25 4.8912 0
26 0 0
27 13.0421 0
28 0 0
29 0 0
30 0 0

AngleAngle Coeffs

1 2.0403 -1.8202 1.0827 108.4 110.77 111
2 1.0827 -1.8202 2.0403 110.77 108.4 111
3 0.2738 -0.4825 0.2738 110.77 110.77 107.66
4 0.2738 -0.4825 0.2738 110.77 110.77 107.66
5 2.4286 0.5381 -2.5301 110.77 111.91 110.62
6 0.1689 2.5926 3.9177 111.27 110.77 108.728
7 0.2738 -0.4825 0.2738 110.77 110.77 107.66
8 3.9177 2.5926 0.1689 110.77 111.27 108.728
9 3.9177 2.5926 0.1689 110.77 111.27 108.728
10 0.1689 2.5926 3.9177 111.27 110.77 108.728
11 0.1689 2.5926 3.9177 111.27 110.77 108.728
12 0 0 0 111 111 111
13 2.3794 3.0118 2.3794 111 111 107.66
14 -0.3157 -0.3157 -0.3157 107.66 107.66 107.66
15 2.4321 2.4321 -3.5496 107.66 110.62 110.62
16 2.4259 2.4259 2.1283 107.66 108.728 108.728
17 2.4259 2.4259 2.1283 107.66 108.728 108.728
18 -1.3199 -1.3199 0.1184 112.67 110.77 110.77
19 -0.833 -0.833 -3.5744 112.67 111.27 111.27
20 0.1689 2.5926 3.9177 111.27 110.77 108.728
21 -1.3199 -1.3199 0.1184 112.67 110.77 110.77
22 -0.833 -0.833 -3.5744 112.67 111.27 111.27
23 0.1689 2.5926 3.9177 111.27 110.77 108.728
24 0 0 0 120.05 120.05 118.9
25 0 0 0 118.9 117.94 117.94
26 0 0 0 118.9 120 120
27 0 0 0 118.9 123.42 123.42
28 0 0 0 112.444 109 109
29 0 0 0 110.954 109 110
30 0 0 0 110 110 107.067

Atoms # full

447 1 1 -0.159 3.337812491739438 5.139283157602132 3.6889365435329213 0 0 0
351 1 4 0 7.97625812712723 4.469640891299295 8.805014119519491 0 1 0
448 1 5 0.053 3.1160174468663913 4.036437141702246 3.76377776305766 0 0 0
446 1 5 0.053 3.9151207938376644 5.40704388721483 4.595585563692728 0 0 0
450 1 5 0.053 3.8206901671523963 5.386146867618398 2.7866574039297216 0 0 0
285 1 8 -0.3314 3.366928721351007 7.983860781597396 3.769479374738264 0 0 0
286 1 6 0.2487 4.1101966169451565 7.321740984704431 3.8495705769600437 0 0 0
349 1 4 0 7.511070541401971 7.073857853072836 7.908490193098758 0 1 0
345 1 1 -0.106 7.124613490657955 8.55596224777492 7.795348383309413 0 1 0
47 1 4 -0.1268 7.343400702996466 5.524826469184246 4.59412572636548 0 0 0
45 1 5 0.1268 7.208832822625615 6.260089771820987 5.447646454186542 0 0 0
49 1 4 -0.1268 7.9298000084519025 4.310282010432138 4.941209191123712 0 0 0
50 1 5 0.1268 8.37506837862442 4.267943456108767 5.915134228809887 0 0 0
344 1 4 -0.1268 6.529876100670861 6.148455039740495 8.134868865547237 0 1 0
347 1 4 0 6.6515371996034816 4.8188046900112385 8.469951450132626 0 1 0
403 1 1 -0.159 6.581548587574213 8.802586479971438 6.400893159337131 0 1 0
407 1 5 0.053 5.574849411364088 8.437903686767875 6.333755348830548 0 1 0
401 1 5 0.053 7.173487733739899 8.379707504653744 5.63228945843244 0 1 0
177 1 4 0 7.713043339574535 3.2036160183456706 4.122203615101563 0 0 0
340 1 5 0.053 6.317818789084126 8.806548333095549 8.49069114114654 0 1 0
341 1 5 0.1268 5.4557459066736245 6.621622234539508 8.105241240115141 0 1 0
173 1 8 -0.3314 8.223021313336647 3.15359931024123 9.378524525918602 0 1 0
162 1 1 -0.159 5.554609374944673 2.7275684016747492 7.716227181073589 0 1 0
165 1 1 -0.106 5.50115396487214 3.8817160124855037 8.698670919999323 0 1 0
171 1 6 0.2487 9.174691915367308 2.9354420771405025 9.191084044109278 0 1 0
169 1 10 -0.1595 5.979999674330771 6.858563139398379 3.1040070027071316 0 0 0
41 1 1 -0.0233 3.41186947956438 8.389735236013632 2.3513506963144435 0 0 0
174 1 4 0.0265 6.711755713994916 5.7128343070581415 3.3876694042338 0 0 0
40 1 5 0.053 2.9090044474337886 7.692419114922613 1.673300279637278 0 0 0
160 1 5 0.053 6.562514862707157 2.2924662178530264 7.821128968951813 0 1 0
42 1 5 0.053 2.8451789802653185 9.329573124815552 2.2665296353127267 0 0 0
124 1 4 -0.1268 7.013427853422514 3.3368553538003405 2.884783632727146 0 0 0
176 1 4 -0.1268 6.514818816239619 4.579385429997137 2.54435588955847 0 0 0
168 1 1 0.027 5.5944823405981845 7.271529384832934 1.8055341241439558 0 0 0
161 1 5 0.053 4.720425917372258 1.9944251986098949 7.8536732837946515 0 1 0
159 1 5 0.053 5.671724735582169 3.1034995508836554 6.693093204674322 0 1 0
356 1 4 0 9.036790710630083 5.313269055609437 8.537553742777508 0 1 0
354 1 4 0 8.836645784370964 6.594122832189478 8.066230281512507 0 1 0
346 1 5 0.053 7.961111758105972 9.250606300956658 8.052902417767106 0 1 0
359 1 6 0.2487 9.834327903774861 8.426754710353386 7.4540456572335625 0 1 0
39 1 11 -0.5571 5.411680844944631 9.665401735071807 2.6820272290135825 0 0 0
357 1 8 -0.3314 9.990372798860061 7.474629039176252 7.723406529650049 0 1 0
43 1 2 0.08 4.845328683885492 8.617754054644063 1.875933686727096 0 0 0
572 1 5 0.053 4.082684932434061 2.0174574282137927 3.460922254862637 0 1 0
127 1 5 0.1268 6.7657771967769476 2.4382828617183137 2.259105894885627 0 0 0
15 1 4 0 9.768219966266745 1.8885763648279206 4.461615153269137 0 0 0
361 1 1 -0.159 10.430378756779122 4.990780909358755 9.152712140096849 0 1 0
120 1 5 0.1268 5.928815097462262 4.64761987040205 1.6612452390513843 0 0 0
283 1 4 0 2.1110757496150905 7.3128381831090365 3.9732717377319005 0 0 0
533 1 5 0.053 2.53425123836485 3.251472399037321 5.886400544487362 1 0 1
114 1 7 0.4241 2.0533050699186672 1.9577916536161202 2.711665375706133 0 0 0
508 1 5 0.053 1.9584534982329291 2.848307798940378 8.375866322960473 1 0 1
449 1 7 0.4241 5.179239603634333 9.358100498043239 3.587489917803829 0 0 0
164 1 5 0.053 5.435417312261156 3.5524452692279906 9.758421498735286 0 1 0
281 1 4 0 1.9960663449700664 5.925891602213405 3.9140263783888285 0 0 0
483 1 5 0.053 1.9244986386136052 9.876698570250321 5.149704884184654 0 0 0
230 4 5 0.1268 2.8602289284769253 4.550578720397073 10.468534769384185 0 0 0
166 1 5 0.053 4.593889947853164 4.472213183938527 8.61967711288942 0 1 0
53 1 5 0.1268 9.789991417337179 1.4321586468761427 2.288025290387179 0 0 0
452 3 5 0.1268 9.37287604887867 10.351775385756817 9.060072176228214 0 0 0
56 1 1 -0.106 8.284808841467818 1.8704672685845984 4.5679638933809965 0 0 0
222 1 5 0.053 10.390846450136182 7.100647483386294 5.694425754700168 -1 0 0
141 1 5 0.053 3.688252786090026 10.38984311943219 9.49258188819564 1 -1 1
57 1 5 0.053 7.941703149246776 1.6811605957518423 5.56738764291037 0 0 0
546 1 5 0.053 5.043777379235378 19.761386189347213 4.904837897113685 0 0 0
180 2 4 -0.1268 10.02217253282087 10.08046129165076 1.7157747669453098 0 0 0
17 1 4 -0.1268 10.557212968781275 2.170131367816774 5.53957559643057 0 0 0
203 1 5 0.053 18.98695827871739 14.665560369858545 5.620058197425688 -1 0 0
532 1 1 0.027 1.4847506723508896 2.311096847476823 7.521026148833711 1 0 1
531 1 2 0.08 1.5533215957469735 3.3564149264514174 6.339373778618208 1 0 1
527 1 11 -0.5571 19.76853469191622 4.614972578880329 6.920777448289857 0 0 1
13 1 4 -0.1268 10.413628211634483 1.6570186913562661 3.2577637190213746 0 0 0
399 1 5 0.053 6.493358544767631 9.86224683993182 6.153434994971538 0 1 0
576 1 5 0.053 3.2301424718798324 1.6321796464545237 4.902518187236751 0 1 0
545 1 1 -0.159 4.119085367015367 19.75131162679791 4.289694733878346 0 0 0
18 1 5 0.1268 9.948252804221765 2.363785306361346 6.455535046312319 0 0 0
360 1 5 0.053 10.718133064169715 3.8729293660136968 9.116047423243124 0 1 0
466 1 11 -0.5571 19.681567615220885 1.5232646060364055 2.2265086639160288 0 1 1
123 4 3 0.08 15.255893384168303 4.4576452673289655 9.752159881093288 -1 0 0
282 1 1 -0.106 19.401281355290635 9.571436554543958 4.725864534617607 -1 0 0
280 1 4 0 19.411064146767963 8.061297753999835 4.3828208656248275 -1 0 0
279 1 5 0.053 18.846119574205936 9.748951538271431 5.678791724437188 -1 0 0
227 1 7 0.4241 19.355370262552384 5.065755542752952 6.170514169751455 -1 0 0
288 1 5 0.053 19.389966988516456 10.435075504688978 2.737740342974796 -1 0 0
472 1 2 0.08 18.84379757024419 2.4967443119884565 1.7399981333982746 0 1 1
224 1 5 0.053 11.16672401085551 5.925817812569113 6.7818694930294585 -1 0 0
329 3 7 0.4241 10.828784238140994 9.98308806254499 6.189793292001043 0 -1 1
223 1 1 -0.0233 10.923398158178246 6.980980548634118 6.654154274737345 -1 0 0
363 1 5 0.053 11.181703142501108 5.619863574904646 8.716513274206626 0 1 0
128 2 4 -0.1268 11.33560204950817 9.777057349071608 2.116991630931627 0 0 0
126 2 5 0.1268 11.748870910457285 10.038049329118856 3.064278361033764 0 0 0
362 1 5 0.053 10.442581330501776 5.110572374660342 10.251845984075782 0 1 0
278 1 4 0 19.181131106913178 5.268486017454872 4.093834093429523 -1 0 0
507 1 5 0.053 17.95992749931856 3.190296904859868 5.689735450477635 0 0 1
277 1 4 -0.1268 18.22657328632674 7.3712123292814224 4.656996980558698 -1 0 0
116 1 8 -0.1654 19.0973622602668 3.757655612239073 3.9626804083117273 -1 0 0
528 1 1 -0.0233 18.919271199649607 3.0329721425482634 5.2131515009338525 0 0 1
529 1 5 0.053 18.997863805650304 1.9497259561088411 4.936485316757503 0 0 1
270 1 5 0.053 17.732527574927488 4.140899213781926 2.3334008170396587 0 1 1
269 1 1 -0.0233 18.18035054563478 3.2649811151300336 2.872762758273658 0 1 1
115 1 5 0.053 15.367105074018246 4.846198966607977 6.449768590282639 -1 0 0
157 1 5 0.053 17.146797764014067 5.000005217308905 6.6984509220654695 -1 0 0
276 1 4 0 18.062900895483658 6.0668762867379336 4.461704953418694 -1 0 0
271 1 5 0.053 17.353368474507008 2.692278410450803 3.2701510807451175 0 1 1
355 1 7 0.4241 13.119243239037337 8.955272268881728 5.201419004987724 0 1 0
432 1 5 0.053 12.50455992687678 8.634889116621785 8.33080508682922 -1 0 0
113 1 1 -0.159 16.25026230641329 5.483997689636084 6.194550889090002 -1 0 0
117 1 5 0.053 16.33401095547302 4.622203299829248 4.179315846853255 -1 0 0
274 1 1 -0.106 16.640953184489916 5.52458072335822 4.70348567014792 -1 0 0
158 1 5 0.053 16.180802830017257 6.448840207653194 6.600669853754886 -1 0 0
193 1 11 -0.5571 12.225292442180244 8.88094485951316 5.674912329457032 -1 0 0
275 1 5 0.1268 17.43334380997387 7.977087687721735 4.944678895019237 -1 0 0
379 1 2 0.08 12.293948443746523 7.690908011860987 6.439912130789196 -1 0 0
273 1 5 0.053 15.98731162745283 6.151765890089014 4.125425241513325 -1 0 0
428 1 5 0.053 13.025956512551684 6.866489599954818 8.360168775515852 -1 0 0
430 1 1 0.027 13.058746055868353 7.854138862883315 7.7865500204571125 -1 0 0
378 1 5 0.053 12.935974280327189 7.00342980206013 5.898488100785063 -1 0 0
11 1 4 -0.1268 11.820193214652548 1.6402131140800438 3.216187784262379 0 0 0
380 1 10 -0.1595 14.46095518692459 8.192789765684779 7.543377488707562 -1 0 0
384 1 4 0.0265 15.199751961506518 8.624841096087572 8.633081669313956 -1 0 0
388 1 4 -0.1268 16.534737279570884 8.93770183181995 8.41457493809824 -1 0 0
392 1 4 -0.1268 17.356773054734674 9.451882725634709 9.42186276218523 -1 0 0
386 1 4 -0.1268 14.682564162989168 8.749534476666968 9.956118127006937 -1 0 0
335 1 5 0.1268 18.34122268601906 9.825812190444841 9.091060082586282 -1 0 0
37 1 7 0.4241 15.054162161553984 9.359476801843979 3.4594101657908647 0 0 0
387 1 5 0.1268 17.016620985900456 8.736876354530121 7.368753770823246 -1 0 0
370 1 11 -0.5571 14.670989037192639 9.604026348793653 4.38261799094219 0 0 0
9 1 10 -0.1595 13.985872074953285 1.915707141799939 4.320033584538317 0 0 0
12 1 4 0.0265 12.612443729580656 1.9802810617938897 4.332506428547986 0 0 0
118 4 5 0.1268 18.996698441762796 5.3410217119029895 9.949576972218878 -1 0 0
534 1 10 -0.1595 18.569899269413774 1.9392818267862446 7.88841416183449 0 0 1
489 1 5 0.053 17.74655038401606 10.446798750105726 3.6090256607765325 -1 0 0
487 1 1 0.027 11.92198056136377 5.065686594824109 2.0037102990151743 1 1 1
287 1 1 -0.159 18.797148817628575 10.56975258533449 3.7104766858493483 -1 0 0
10 1 5 0.1268 12.379845999539882 1.5111493753102068 2.264007141589117 0 0 0
291 4 9 -0.266 14.52794518111736 3.3758941797238737 10.34624855800969 -1 0 0
382 1 5 0.1268 13.62015138975565 8.654784194898502 10.194532699796556 -1 0 0
122 4 5 0.053 16.882922204622602 5.782603172643637 9.450267249821685 -1 0 0
488 1 5 0.053 13.796472338111762 5.259652146605353 3.1254653274788042 1 1 1
125 2 9 -0.266 16.4256873468551 8.14171826410966 2.33173842685686 0 0 0
129 2 10 -0.1595 13.538170569454563 9.068527148886279 1.6248465431239012 0 0 0
494 1 5 0.053 15.235230917015391 3.4082618536859353 2.2923470597330047 1 1 1
491 1 5 0.053 11.593417303553565 5.156513906837652 3.0970474023694097 1 1 1
492 1 1 0.027 14.310322826634799 3.718935625056252 1.7313821400591916 1 1 1
490 1 3 0.08 13.484262853770417 4.8378328268557595 2.1415891288722726 1 1 1
292 4 5 0.053 15.005610526072559 4.637008877431477 8.711238419450321 -1 0 0
119 4 5 0.053 17.357101858006217 4.133463417066924 9.70017074680454 -1 0 0
121 4 1 0.027 16.677175631751034 4.891738667447566 10.125494323622963 -1 0 0
14 1 4 -0.1268 11.951577685823391 2.213880317376833 5.548600950273719 0 0 0
6 1 5 0.053 15.06248327439936 1.577085750104203 5.856681717270212 0 0 0
16 1 5 0.1268 12.515354534990239 2.3377837834327435 6.467125560038542 0 0 0
297 4 5 0.053 13.124453477687176 4.897796291034041 10.119419183017959 -1 0 0
179 2 5 0.1268 9.277964647989645 10.64011372578227 2.340220054482022 0 0 0
453 3 4 -0.1268 9.881090696188354 10.651607729450015 9.989918635968493 0 0 0
132 1 5 0.053 7.918849323174302 19.451540416572186 4.048889841896607 0 -1 0
88 3 5 0.053 3.613320945713812 12.0530478781352 2.2354116622457045 0 0 1
84 3 1 -0.0233 4.689179288055033 13.755203938988748 1.6035312558925578 0 0 1
138 1 5 0.053 4.0565398845169085 10.878108993990583 7.4047986515808155 1 -1 1
559 3 11 -0.5571 2.4615160916542242 13.581654396948034 2.726656347819044 0 0 1
142 1 1 0.027 3.4413769969710213 11.46711678057835 9.429692888747518 1 -1 1
139 1 11 -0.5571 5.450135574527406 12.187466554681706 8.22843335265971 1 -1 1
20 1 5 0.1268 2.2437383064641567 19.10030954358809 9.341866411743787 1 -1 1
73 1 7 0.4241 5.3402710879601845 13.017176809832732 8.675048680869999 0 0 0
140 1 2 0.08 4.093150680333727 11.840504415752989 8.044533882740694 1 -1 1
539 1 5 0.053 4.807574794729144 17.983237269010075 3.0522785254305767 0 0 0
151 3 5 0.053 6.978211272018734 11.342356508991564 4.35439566286551 0 -1 1
98 1 5 0.053 3.0095545814439966 18.26741417905344 3.162557327141959 0 0 0
154 3 5 0.053 6.810874126348054 12.5908017626088 5.6550703845769785 0 -1 1
156 3 6 0.2487 8.858257058501387 11.878199134486882 4.8523088055865955 0 -1 1
150 3 5 0.053 5.498774972055741 12.445352742566216 4.560367772312679 0 -1 1
451 3 5 0.053 8.80426944447122 12.89688555611949 6.722651225033628 0 0 0
63 1 1 -0.106 3.9215258800335384 18.324825622812014 3.7769460285952614 0 0 0
152 3 1 -0.159 6.585603119199146 12.4429223442241 4.554178539233475 0 -1 1
540 1 6 0.2487 6.276322830284993 18.331779157034333 4.771901900863157 0 0 0
464 3 6 0.2487 5.000813115096914 13.708919307020963 3.6741151444366302 0 -1 1
254 1 5 0.053 4.294305417908719 12.98051395546425 6.3165531143082605 1 -1 1
258 1 5 0.053 2.532345975046333 12.76416328405043 6.724315991553989 1 -1 1
547 1 6 0.2487 6.939250666934867 17.028087858117743 5.766957511877952 0 0 0
65 1 4 0 5.0038997645502015 16.904300769670474 5.544901297520744 0 0 0
542 1 8 -0.4974 6.215607206377688 17.412770025519237 5.18279223776705 0 0 0
46 1 5 0.053 6.740210578103563 16.061818553526543 7.25098630579592 0 0 0
64 1 4 0 3.8294883967870588 17.446333736661956 5.015522574554492 0 0 0
48 1 5 0.053 6.6395566128167856 14.816889332527166 6.008918365666524 0 0 0
67 1 4 0 4.890271229851635 15.822581026313022 6.428162113120766 0 0 0
69 1 1 -0.159 6.189327791728446 15.204229479696236 6.890231097508537 0 0 0
44 1 5 0.053 6.203541143336554 14.420088557299218 7.652931289993203 0 0 0
70 1 4 0 3.72899977759693 15.393211347745362 6.852395443737678 0 0 0
66 1 4 -0.1268 2.635184881137243 17.1482154743319 5.609269462329819 0 0 0
72 1 8 -0.3314 3.571837114858559 14.32480998030069 7.8435161291155975 0 0 0
68 1 4 0 2.5689076911404873 16.121361798726944 6.573125069933245 0 0 0
74 1 6 0.2487 2.653045626387713 14.500650155821631 8.226301514023621 0 0 0
257 1 1 -0.0233 3.5852505671546027 12.970678251403157 7.1519197653411 1 -1 1
100 1 5 0.1268 1.6556187447302315 17.52286468661223 5.210712318119998 0 0 0
327 3 8 -0.3314 9.423874339505135 12.678896499684642 4.784257883036057 0 -1 1
322 3 4 0 7.32667014086739 13.583736850623001 3.807995765012976 0 -1 1
320 3 4 0 6.685014219083477 14.367607462710621 2.8855667340827567 0 -1 1
325 3 4 0 8.730661506186065 13.713702358330227 4.043997411158471 0 -1 1
317 3 8 -0.3314 5.238762410940247 14.269180922515746 2.8868689562869068 0 -1 1
326 3 4 0 9.37406386006775 14.776152279951242 3.416560896472966 0 -1 1
321 3 4 0 7.34484622730706 15.446919248682715 2.250338246928484 0 -1 1
323 3 4 -0.1268 8.683867689878305 15.541845524899303 2.5228223388356357 0 -1 1
324 3 5 0.1268 9.218399577739735 16.355287753615784 2.0604634731198277 0 -1 1
569 3 1 -0.0233 9.773677123366245 12.987798933330742 6.139037309074759 0 0 0
253 1 5 0.053 8.504986381198847 19.040352730901688 9.68720026499729 0 0 0
143 1 10 -0.1595 2.017097002593137 11.617443660187098 9.693102410514923 1 -1 1
318 3 7 0.4241 2.567244152309515 14.548052478791073 2.5095467034108987 0 -1 1
144 1 5 0.053 4.013969337151234 11.909026069401596 10.220300566754293 1 -1 1
86 3 2 0.08 3.3484346202988595 12.965895936719098 1.7637319789288357 0 0 1
256 1 5 0.1268 9.90492428673714 16.97327965267652 9.824996137663085 0 0 0
146 1 4 0.0265 1.466942487276047 12.74977181561736 10.292144864685357 1 -1 1
389 3 5 0.053 10.575020599036216 17.361778890869342 4.098056818796424 0 -1 1
381 3 5 0.053 10.35094747919673 16.286405033305257 5.426851811526828 0 -1 1
564 3 11 -0.5571 10.205896041046262 10.569129733254984 6.596962764249202 0 0 0
530 1 5 0.053 1.9909712333953808 19.77233224039118 7.299057405062837 1 -1 1
316 3 5 0.053 5.581863267569316 16.54568208470132 1.3819173928612967 0 -1 1
567 3 5 0.053 10.154825996664245 13.960784032010512 6.147995100304171 0 0 0
184 1 5 0.1268 15.018541846249859 11.439051397914785 8.683827898762699 0 0 0
512 3 5 0.053 11.965301173103587 16.66870779154344 5.03255354771677 0 -1 1
155 1 8 -0.3314 14.248107656676234 12.127924505077335 2.3578295238093894 0 0 0
22 1 4 -0.1268 19.578589629556213 18.83949933117139 9.605732204298379 0 -1 1
369 1 10 -0.1595 15.240091887997103 12.805339976311497 6.195623940998529 0 0 0
506 1 5 0.053 18.681110675721406 15.343223086399844 2.486758159181521 0 -1 1
328 3 1 -0.106 10.87254966058851 15.194554845171485 3.6432400616171265 0 -1 1
220 1 5 0.1268 11.715469333842307 15.185794608086987 9.95234478130421 0 0 0
205 1 5 0.053 19.09697123212053 13.905264609376076 7.139613364108129 -1 0 0
101 1 5 0.053 19.08830891037686 16.946759694641138 6.992622069778837 -1 0 0
105 1 1 -0.0233 16.402720363715332 17.458995567398325 1.523155061519138 0 -1 1
109 1 4 0 14.082502196050951 13.409605067784446 1.8221426536379 0 0 0
92 1 1 -0.159 15.984922982598935 14.202653574088071 3.3979348277798977 0 0 0
217 1 4 -0.1268 11.822658176734631 16.116322570132994 10.469829844075653 0 0 0
71 1 1 -0.106 19.60933200446854 15.97537847146303 7.156985322337588 -1 0 0
573 3 10 -0.1595 10.54827754340928 12.796887481534657 9.02356011586676 0 0 0
75 1 5 0.053 19.728277636977282 16.02765825712482 8.243721036832913 -1 0 0
575 3 4 0.0265 10.560233603877185 11.939658534985615 10.096369597894048 0 0 0
28 1 5 0.1268 16.92609712123457 14.565462225208128 10.173962964191048 0 -1 1
365 1 5 0.053 13.86117550481613 11.208080461143473 6.514093379407419 0 0 0
255 1 4 -0.1268 10.842871596759846 17.096442975569396 10.354847749745767 0 0 0
24 1 4 -0.1268 17.968763257633732 14.273822201333573 10.450974290179776 0 -1 1
504 1 1 0.027 18.62940333454288 15.910294722488823 1.5947744108112731 0 -1 1
367 1 1 0.027 14.892332294218964 11.428524109209583 6.014178502707357 0 0 0
96 1 7 0.4241 18.561384991915375 18.68725941363587 3.142322106772358 0 0 0
364 1 5 0.053 15.566805604319443 10.7444944787727 6.475266001219562 0 0 0
1 1 11 -0.5571 16.32603751579235 17.754724805858807 5.372056881268929 0 -1 0
107 1 11 -0.5571 18.17119888039867 17.785807413273368 3.189362982562839 0 -1 1
32 1 4 -0.1268 17.222613388415873 18.828723365982462 9.261880049593294 0 -1 1
289 1 5 0.053 19.04060785018131 11.589982868783446 4.0060637829658 -1 0 0
373 1 5 0.053 13.751438216524729 13.020823395031229 4.321347059841351 0 0 0
566 3 5 0.053 11.974885097619572 11.38756212504878 8.375019704852644 0 0 0
570 3 5 0.053 12.250668124467767 13.06185280238987 7.869802983559595 0 0 0
568 3 2 0.08 10.85031807443794 11.962104186409329 6.624381650184769 0 0 0
375 1 5 0.053 12.904338073344343 11.533012150546924 3.861533877485052 0 0 0
4 1 2 0.08 15.550807688335377 18.503938853819562 4.419397916903096 0 -1 0
99 1 5 0.053 14.076578454503052 18.282140164051604 2.8638481629434263 0 -1 0
38 1 5 0.053 16.670572061688397 14.987367452379292 3.356664927035765 0 0 0
571 3 1 0.027 11.480239051285103 12.299960909407922 7.980288375077302 0 0 0
153 1 6 0.2487 13.776978085694262 11.465044258047614 1.7514546934235302 0 0 0
202 1 5 0.053 17.638108989169538 14.98216797582782 6.7212596101379 -1 0 0
93 1 5 0.053 16.478561942262736 13.269621662461601 3.501191419926494 0 0 0
97 1 7 0.4241 16.938863575179063 17.251959523062055 4.722347774866058 0 0 0
535 1 5 0.1268 16.32624147217321 19.2835646964158 8.838014178541192 0 -1 1
383 3 1 -0.159 10.943864774496117 16.436829034886742 4.543002649331206 0 -1 1
108 1 2 0.08 17.918321051985053 17.300764178111336 1.862589071332869 0 -1 1
188 1 4 -0.1268 14.876905205054943 12.516541612981754 8.640969639708526 0 0 0
385 3 5 0.053 11.428360091201158 15.291152570662536 2.6822292144697983 0 -1 1
565 3 5 0.053 11.763668190118597 11.776450963234602 5.949903550550052 0 0 0
332 3 5 0.053 11.391905430898186 14.337768768626798 4.02018169133564 0 -1 1
33 1 4 -0.1268 17.03790265088537 17.872030718460913 10.216027173019992 0 -1 1
376 1 5 0.1268 15.201291376392271 15.427212767587664 6.788507664656702 0 0 0
148 1 4 -0.1268 18.59154820175481 13.141897164777648 9.82892853938666 0 -1 1
426 1 5 0.1268 14.69853132636878 16.416234410996527 8.659057473432501 0 0 0
204 1 1 -0.159 18.742923215571402 14.791974669810404 6.638423952267465 -1 0 0
368 1 2 0.08 14.88109290117197 11.065698651959984 4.539538357399781 0 0 0
371 1 4 0.0265 15.008068114596028 13.272205179722315 7.47983042474874 0 0 0
374 1 4 -0.1268 14.984610863213923 14.6627723334878 7.579272492649198 0 0 0
366 1 5 0.053 15.83722853869649 11.265930392535564 4.055648731818628 0 0 0
2 1 5 0.053 13.975911031809003 16.99972336514469 4.002310324750563 0 -1 0
5 1 5 0.053 16.328456258475768 19.022764888904163 3.852123754057634 0 -1 0
145 1 5 0.1268 18.130571463979855 12.612183199580592 8.98967836018316 0 -1 1
91 1 4 0 14.723703108790982 15.79282045907444 1.94708770235298 0 0 0
3 1 1 -0.0233 14.775787393642545 17.6354008006899 3.4035703159529542 0 -1 0
94 1 5 0.053 15.40591705039799 14.41188573082426 4.330632103055104 0 0 0
372 1 1 -0.0233 13.907213319868186 12.004984975521008 3.8359580057810594 0 0 0
7 1 5 0.053 13.721657338395156 18.76526108517971 5.647059783312892 0 -1 0
95 1 8 -0.1654 15.494950964668956 16.831871781011078 2.498630639567871 0 0 0
216 1 4 -0.1268 14.62751625492227 13.110328729336237 9.86569257242391 0 0 0
8 1 1 0.027 14.524956500672872 19.37473039713722 5.142350745242771 0 -1 0
26 1 4 0.0265 18.499778599152812 19.33332639167788 8.87181770445109 0 -1 1
425 1 4 -0.1268 14.692118755738308 15.27500663415255 8.784327566461439 0 0 0
218 1 4 0 14.436619830444831 14.528898423355498 9.93646686753975 0 0 0
112 1 4 0 14.899569801270514 14.450501357646914 2.3506252101660423 0 0 0
485 1 5 0.053 11.74461359652323 6.0093733828257605 1.5252629535020716 1 1 1
83 1 5 0.053 11.815636458423555 17.914184344000795 1.4169326728946672 0 0 0
106 1 5 0.053 16.12031377429804 18.52310792455316 1.4212933953866553 0 -1 1
284 1 5 0.1268 18.85935369034874 8.004359905390974 10.563860836589674 -1 0 0
77 2 9 -0.266 6.639090608753486 13.96638846257514 10.427244160594398 0 0 -1
584 1 5 0.1268 4.74634030074928 6.205496497555748 16.140944915741294 1 1 0
470 1 4 -0.1268 3.3041535502807866 5.34059589618303 17.610002184224072 1 1 0
585 1 4 -0.1268 4.508606612959531 5.434070473365586 16.9193369004022 1 1 0
516 1 4 0 5.4834074280558545 4.421497528384606 17.03735771732491 1 1 0
468 1 5 0.1268 2.636966005349014 6.146628545100368 17.537694535980158 1 1 0
562 1 5 0.1268 7.916019061584983 6.465449588373228 17.730722509281875 1 1 0
477 1 4 -0.1268 8.467583845271847 5.559042275115559 17.841131671135173 1 1 0
475 1 4 0 7.99009416339367 4.499504475853055 17.109415978013597 1 1 0
513 1 5 0.053 6.7457258082442095 5.496672965032414 15.703350875264663 1 1 0
519 1 9 -0.266 7.7200839592487185 7.526808121558567 13.629424852717044 0 0 0
521 1 3 0.08 7.113341150287232 8.264209196075797 12.561111017661888 0 0 0
520 1 1 0.027 5.700983474266899 8.88481804816248 12.653655195704294 0 0 0
358 1 10 -0.1595 4.668050257763015 8.124478107631147 12.122763991220168 0 0 0
523 1 1 0.027 7.4637305814701955 6.803302471810754 12.471673616773424 0 0 0
526 1 5 0.053 8.401442547292959 6.5529793125407405 11.870570408970636 0 0 0
522 1 5 0.053 6.711529761093477 6.004905082752223 12.46751269485685 0 0 0
515 1 1 -0.106 6.7365219127973175 4.5485823642277925 16.21199773999142 1 1 0
192 2 5 0.1268 7.621815126023786 9.375698734574444 15.74446791357957 0 0 -1
333 1 4 -0.1268 5.195645924188062 3.3422784755475945 17.882682643922777 1 1 0
228 4 5 0.053 4.295237065901093 4.428653802845083 13.812617805219809 0 0 0
233 4 4 0 2.511334287314073 4.071463332820546 12.50841080476638 0 0 0
478 1 4 -0.1268 8.607294887936089 3.222343369410046 17.326075215561268 1 1 0
514 1 5 0.053 6.766860051761669 3.693585665114351 15.445832605342556 1 1 0
353 1 4 0.0265 3.3945544425361422 8.641308853724212 12.071224558383062 0 0 0
185 2 4 0 9.580108268161375 9.705875679366239 18.8484334106993 0 0 -1
272 1 5 0.1268 6.037751653657039 2.589568415559991 18.074464142946304 1 1 0
476 1 5 0.1268 8.193454650441126 2.301158537197891 16.84908843492172 1 1 0
469 1 4 0.0265 3.0921835795634 4.25345396716754 18.53630518731955 1 1 0
331 1 4 -0.1268 4.0023939733128655 3.226418900653245 18.589531952939673 1 1 0
229 4 1 -0.106 3.964781255390352 3.887720806379894 12.879514346721383 0 0 0
231 4 4 0 4.240253980925733 2.3820125843965942 13.116697946676846 0 0 0
237 4 5 0.1268 4.648521885579064 2.6301278195146356 15.18149081679027 0 0 0
242 1 5 0.053 8.92150651482984 3.5530614632397364 11.367253247630913 0 1 0
480 1 4 -0.1268 9.698613562663446 3.143490599046985 18.17524946099322 1 1 0
479 1 4 -0.1268 9.541189700827621 5.459557199887737 18.7608912240201 1 1 0
226 4 5 0.053 4.703000890608199 4.279634314934617 12.151152093298975 0 0 0
187 2 1 -0.106 8.184957739633898 9.990308939351007 18.33017554751985 0 0 -1
247 1 2 0.08 7.781209171618949 1.6069748409437161 11.285484088939825 0 1 0
183 2 5 0.053 7.6761829848285785 9.014852600299697 18.240176556060646 0 0 -1
212 3 5 0.053 1.714593696305217 8.654666355651617 16.422687914008705 1 0 0
563 1 5 0.1268 9.761885280188872 6.3690845800476295 19.33932474862103 1 1 0
525 1 5 0.053 7.854392974870646 8.946583759648359 12.061825163071223 0 0 0
245 1 5 0.053 7.196643375697534 3.7359766707373674 11.172557851613808 0 1 0
524 1 5 0.053 5.4170190210174916 9.14415602058088 13.723696911450336 0 0 0
350 1 4 -0.1268 2.9729629531671193 9.774646503070649 12.800809445036125 0 0 0
201 4 4 -0.1268 4.6279930014452955 1.917229449731173 14.381402151022387 0 0 0
482 1 4 0.0265 10.161210845995726 4.238567346192404 18.892152739735373 1 1 0
481 1 5 0.1268 10.112222945600388 2.1141641907463677 18.249466680776827 1 1 0
444 4 5 0.1268 3.7904480341277966 1.7816964966469069 11.070191356424193 0 0 0
191 2 5 0.1268 10.161637179077701 8.57462304894431 17.089852833877785 0 0 -1
136 2 4 -0.1268 10.408680746817279 8.965950095431808 18.05790427325885 0 0 -1
330 1 5 0.1268 3.8971085221107713 2.37335604774237 19.364557068391697 1 1 0
467 1 10 -0.1595 1.927730211388837 4.247356374805186 19.289620848100434 1 1 0
352 1 4 -0.1268 2.448724092431198 7.983198253568077 11.352781066164983 0 0 0
243 1 11 -0.5571 7.5185272812931805 1.587678025452011 12.746509748647556 0 1 0
170 1 5 0.053 4.754576872614266 9.045584491483691 19.274389189004566 0 0 -1
290 1 5 0.1268 2.5998163930819 7.057217005577365 10.808668874295554 0 0 0
460 3 5 0.053 10.233901290991863 9.172978916871504 14.123401025210269 0 0 0
236 4 5 0.1268 1.680359881905415 3.9138814963811352 14.599256502145288 0 0 0
518 1 5 0.053 5.802688029896228 9.811529619194326 12.102169163007336 0 0 0
343 1 4 -0.1268 1.6920786483459151 10.269595802875074 12.704314294581794 0 0 0
175 1 7 0.4241 6.655301114099243 19.512618730867462 12.870748800123064 0 0 0
190 2 4 -0.1268 7.877432870852634 10.427578813385772 15.871916444196312 0 0 -1
232 4 4 -0.1268 2.1291366622171255 4.530606094746531 11.25638533077829 0 0 0
235 4 4 -0.1268 1.5103366543674743 4.16276127063354 13.504718551198676 0 0 0
244 1 1 -0.0233 8.016059613712848 3.0869266226808123 10.82605564697554 0 1 0
458 1 5 0.053 1.5813225341789807 1.5635305850112953 14.723451016945667 1 0 0
517 1 5 0.1268 3.760787394211622 10.222195732570784 13.420349908822898 0 0 0
456 3 4 -0.1268 10.019638983109509 9.790433993953554 11.019907337620852 0 0 0
445 4 4 -0.1268 4.148858235679235 1.472101689948129 12.030198715470886 0 0 0
457 3 5 0.1268 9.678780100192135 8.72356372560241 10.992035104474494 0 0 0
172 1 5 0.053 4.939470238758693 6.457750344897894 19.751680544250533 0 0 -1
549 3 5 0.053 10.52516524690597 8.077765515152372 12.877517981523358 0 0 0
580 3 4 0 10.644031058876275 10.127923896504502 12.21454292705383 0 0 0
443 1 5 0.053 19.61816627370262 2.6139640127373696 18.205611088347027 0 1 0
581 3 1 -0.106 10.875298518259383 9.072200849327185 13.251598197167782 0 0 0
214 3 5 0.053 19.40916841110613 7.154320920920417 14.578756630808048 0 0 0
210 3 1 0.027 19.05181431964496 8.4996258109509 16.182510156836933 0 0 0
473 1 1 0.027 19.32418341085092 3.3212882837946145 18.976974368707424 0 1 0
133 2 5 0.053 14.258416231446711 9.035604675506121 18.138405814884756 0 0 -1
314 1 5 0.053 14.143850369026122 6.221962520748726 16.661384308730113 0 0 0
311 1 1 0.027 13.949323260482688 5.359337224340125 15.996638254087062 0 0 0
315 1 5 0.053 12.551820387263223 4.2162651610746416 17.482917743068647 0 0 0
312 1 3 0.08 13.087150386601015 4.250232112806318 16.461959881215982 0 0 0
313 1 9 -0.266 12.532071920458947 5.239669316463563 15.55180223833859 0 0 0
135 2 4 -0.1268 11.697732845664968 8.64706855453918 18.3851259869071 0 0 -1
213 3 9 -0.266 18.511131309960135 7.170347021028039 16.49698110417888 0 0 0
239 4 4 -0.1268 18.590199443547725 4.471023689766559 13.208986186387879 -1 0 0
308 1 5 0.053 14.619326678653152 5.31314381200576 15.172768816278557 0 0 0
240 4 5 0.1268 17.86276980521948 4.340620493916632 14.00143767299236 -1 0 0
238 4 4 0.0265 18.196402749647255 4.822405546207449 11.913197270570633 -1 0 0
137 2 5 0.1268 12.348029976890178 8.063372505085333 17.672590857825902 0 0 -1
241 4 10 -0.1595 16.957535627214888 5.169894398232716 11.53503126687839 -1 0 0
310 1 1 0.027 13.12077054272417 2.7733893327668935 16.01494424058744 0 0 0
211 3 3 0.08 18.56968007134101 7.548432166251431 15.10301017066582 0 0 0
208 3 1 0.027 17.20271343641528 7.400013358556615 14.405661348109197 0 0 0
419 3 5 0.1268 12.712831772556633 7.052527443547638 12.323076699041053 0 0 0
418 3 4 -0.1268 13.152315585297806 7.831107233593482 13.01840787081644 0 0 0
414 3 4 0.0265 14.90235626518611 8.354025612426629 14.633530423263085 0 0 0
417 3 4 0 12.38000375081994 8.869223234948462 13.5874387693 0 0 0
416 3 5 0.1268 14.898793411570812 6.714493043434933 13.201444019127822 0 0 0
415 3 4 -0.1268 14.358153677519304 7.563403622099751 13.616219312977265 0 0 0
413 3 10 -0.1595 16.233117133036433 8.220243242756082 15.113866470655509 0 0 0
412 3 4 -0.1268 14.104305067991584 9.366031633646696 15.159924333651043 0 0 0
206 3 5 0.053 16.831717663228105 6.3360947680482935 14.548669089329739 0 0 0
209 3 5 0.053 17.166896639439237 7.752580755583548 13.352145315035349 0 0 0
342 1 4 0 19.13105101957909 9.674455099860943 11.88394042830053 -1 0 0
391 1 5 0.1268 15.066253176868125 9.552333258987336 11.882502748081887 -1 0 0
207 3 5 0.053 18.449258681121975 9.338634049630496 16.511444863769622 0 0 0
134 2 5 0.053 14.213145135504258 7.406147837494496 18.97949540510288 0 0 -1
336 1 5 0.053 17.56923519493101 11.30200428832035 12.013130854001757 -1 0 0
486 1 9 -0.266 14.378393429555118 5.044663545543594 19.47389157909931 1 1 0
471 1 5 0.053 18.48854203822465 3.926875390548822 18.565247141476874 0 1 0
131 2 1 0.027 14.453419683279474 8.460203810857985 19.074080565791682 0 0 -1
455 3 4 -0.1268 12.84590524085123 9.621271903017501 14.665622152400054 0 0 0
337 1 1 -0.106 17.625242522798757 10.170830842777713 11.919598628768583 -1 0 0
103 2 5 0.053 17.07162812204503 7.099615909719045 18.94827430160354 0 0 -1
300 1 5 0.1268 15.413559175291043 1.8970886688733368 16.98650245704077 0 0 0
234 4 4 -0.1268 19.235120213546878 4.838347620980741 10.944258859416605 -1 0 0
130 2 4 0.0265 12.197564103439124 9.132190692804837 19.604443658938308 0 0 -1
338 1 5 0.053 17.20929712993939 9.686904628021905 12.795094991040159 -1 0 0
348 1 4 -0.1268 19.58321646197726 8.547252880372522 11.173595020160159 -1 0 0
390 1 4 -0.1268 15.510198790838938 9.290287912063445 10.960191117442456 -1 0 0
334 1 4 0 16.828502548757175 9.570921845511332 10.75762074625545 -1 0 0
306 1 10 -0.1595 13.816457522548125 2.465128645309921 14.789692581037677 0 0 0
304 1 4 0.0265 15.144945550620468 2.042493515377881 14.780206235333495 0 0 0
439 3 4 -0.1268 13.874972911627868 13.813163429565867 14.777351799361242 -1 0 0
309 1 5 0.053 12.013105962074691 2.4953927873908768 15.894443926820225 0 0 0
307 1 5 0.1268 15.295770514628131 1.8933004201917396 12.565524424727311 0 0 0
411 3 5 0.1268 14.51408950237009 9.83729751567764 16.040772408641423 0 0 0
454 3 5 0.1268 12.085037489714601 10.273130606846662 15.077068797499603 0 0 0
305 1 4 -0.1268 15.758854710302852 1.7315976205424253 13.56743980884451 0 0 0
249 4 5 0.053 14.120874228201586 4.980936242668223 11.66826142207392 -1 0 0
301 1 4 -0.1268 15.799766574579522 1.8106311427241748 15.995261002127714 0 0 0
474 1 5 0.053 18.003231274610158 1.9852586881928302 19.61625555772033 0 1 0
294 4 1 0.027 14.04372178544582 4.678426830268817 10.6077709871676 -1 0 0
251 2 3 0.08 15.859145461355254 8.831453562138906 19.547316920190283 0 0 -1
493 1 5 0.053 14.009419293509636 2.9766868894260234 19.38390916799714 1 1 0
102 2 5 0.053 17.978956762329744 8.653781176665191 19.289508418866212 0 0 -1
250 2 1 0.027 17.062850810027616 8.103046265145304 19.51891491002587 0 0 -1
377 1 5 0.053 13.42540572422638 2.0547589714725003 16.830803547163576 0 0 0
248 2 5 0.053 15.927254192582767 9.931591996556826 19.5874778652801 0 0 -1
484 1 10 -0.1595 11.264620847508406 4.0189723783653175 19.722500843129794 1 1 0
61 2 5 0.1268 7.691810795567495 10.960756339031297 13.818839961385171 0 0 -1
82 3 5 0.053 5.423992588289012 13.137506352634105 19.49617597325465 0 0 0
81 2 5 0.053 8.229373205255985 14.966995677058172 11.53470729297134 0 0 -1
495 1 5 0.1268 2.4757293879086575 19.731526159827908 16.991832325811018 1 -1 0
189 2 5 0.053 7.55129181692 10.473645234787696 19.08905451939581 0 0 -1
501 1 10 -0.1595 1.5770047784396424 16.118227708014864 19.49170989416455 1 -1 0
404 4 4 -0.1268 4.808331278356589 18.943699956125663 14.572032436896812 0 -1 0
409 4 5 0.1268 5.156598818396448 18.63599829495378 15.563456241069265 0 -1 0
60 2 4 -0.1268 7.878894073580321 11.325704498196286 14.79293870810477 0 0 -1
186 2 4 0 8.13692963620907 10.952411726336239 17.085523859296362 0 0 -1
54 2 5 0.053 8.370758197056748 12.36129841920679 12.143974313008808 0 0 -1
198 3 5 0.053 8.106048853779907 18.95813022323329 14.891769921557437 -1 0 0
509 3 5 0.053 6.034459445908888 16.520299923218648 17.4948070228914 0 -1 0
510 3 1 -0.159 6.748311311477768 15.959230106578259 18.140382105439627 0 -1 0
511 3 5 0.053 6.470324711772992 14.894624363391316 18.037934279843554 0 -1 0
90 3 5 0.053 2.594296139758055 13.530661302739702 18.17082566254946 0 0 0
76 2 5 0.053 5.141799352193914 14.40501922951837 11.880976544321946 0 0 -1
541 4 5 0.053 5.306069983376544 12.889676671497973 16.104523573920964 0 -1 0
52 2 5 0.053 6.695014693886986 12.57454764953123 12.861498574613524 0 0 -1
543 4 9 -0.266 3.875304411162569 13.943379872669512 14.815145665224618 0 -1 0
544 4 1 0.027 4.624505201167375 13.74485460803099 15.971090300388031 0 -1 0
538 4 5 0.053 5.91973240521256 14.482278683591138 14.345464831138969 0 -1 0
548 4 5 0.053 4.149584379597728 14.06481627648897 16.892234828933297 0 -1 0
55 2 1 0.027 7.683078942288851 13.05622980194322 12.536129487629504 0 0 -1
405 4 3 0.08 5.074740859641546 14.695845580978748 15.025475445826954 0 -1 0
58 2 4 0.0265 8.174887493360902 12.673762745294532 14.881572989240684 0 0 -1
59 2 10 -0.1595 8.417834733663913 13.427136754389677 13.722068863242352 0 0 -1
182 2 4 -0.1268 8.505595800498348 12.272277257755228 17.208074298793736 0 0 -1
181 2 4 -0.1268 8.511238910530448 13.167812826082333 16.112728816072163 0 0 -1
406 4 1 0.027 4.798190210299245 16.171189781062388 15.148188879774358 0 -1 0
402 4 10 -0.1595 4.488194872245736 16.67549650068358 13.811387776441512 0 -1 0
408 4 5 0.053 4.007538660888907 16.481356865779013 15.891461947134045 0 -1 0
400 4 4 0.0265 4.553760222889169 18.00582195918424 13.594139008966359 0 -1 0
410 4 5 0.053 5.671114748291445 16.687289900593896 15.547070174752866 0 -1 0
397 4 4 -0.1268 4.275429356499395 18.50487117005435 12.27020567078021 0 -1 0
51 2 5 0.1268 8.700227105306135 14.182523491973384 16.25600289602845 0 0 -1
196 3 1 0.027 8.68510540606984 18.10600538423469 15.225059134588719 -1 0 0
178 2 5 0.1268 8.921545523497056 12.57731182432035 18.18261981374767 0 0 -1
536 3 5 0.1268 2.0935430385780616 12.415387255248039 16.13838963039769 0 0 0
199 3 9 -0.266 9.40533553533839 18.354014664586877 16.392808608987508 -1 0 0
583 3 5 0.053 7.711467192408466 16.134100908376706 17.697633851543294 0 -1 0
496 1 5 0.1268 3.040494867964032 18.220822560510598 18.804673846968363 1 -1 0
79 2 3 0.08 7.435618741272337 14.28833551665059 11.634964285405268 0 0 -1
194 3 5 0.053 8.068772430500054 17.200592189047608 15.215839909292262 -1 0 0
78 2 1 0.027 6.051390167470324 14.81415471622215 11.42521128049968 0 0 -1
561 3 1 0.027 2.7660051631648366 12.647750123894589 18.754876515736207 0 0 0
498 1 4 -0.1268 2.243609033405299 17.9036485112398 18.075886200101202 1 -1 0
537 3 5 0.053 3.5413645632311077 12.107189090767912 18.227183694126637 0 0 0
497 1 4 -0.1268 2.036702965054565 18.698406901392055 16.96618661435933 1 -1 0
197 3 3 0.08 10.166630182187708 18.05645579559196 15.222178630337385 -1 0 0
27 1 5 0.1268 1.9415201768274326 15.14666728621818 12.598576432387969 1 -1 1
396 4 5 0.1268 4.021317502714662 17.841488354354794 11.457869751969607 0 -1 0
500 1 4 0.0265 1.5606432923651286 16.69711489040759 18.29921618242266 1 -1 0
31 1 1 -0.106 18.036935805468076 16.290657729987856 11.994343500470203 0 -1 1
149 1 4 -0.1268 2.1586524736844286 13.525308360979759 11.265336384891055 1 -1 1
147 1 5 0.1268 3.0585187624283705 13.093640428907204 11.733379952387986 1 -1 1
200 3 5 0.053 10.67308656789656 18.82101962530816 14.670116011820939 -1 0 0
25 1 4 -0.1268 1.4503966135504518 14.623117970201765 11.817901514017676 1 -1 1
163 3 5 0.053 10.670808376848123 16.14698800225413 16.019703195000222 -1 0 0
552 3 5 0.053 4.464106017973766 14.65467273565276 19.35542563965104 0 0 0
459 1 5 0.053 8.630515100642846 17.929075542095248 11.189525480456323 0 0 0
558 3 10 -0.1595 1.578326365348262 11.919237138708132 18.800337500287064 0 0 0
339 1 5 0.1268 1.4370328464923374 11.197080496280975 13.238982924443395 0 0 0
21 1 5 0.1268 1.9222113518494193 17.45080720877509 11.089453698866858 1 -1 1
252 1 1 0.027 8.78129396584201 18.963831976772013 10.764163983125558 0 0 0
319 3 1 -0.106 6.669182200768842 16.38285497452565 19.633585557229544 0 -1 0
246 1 5 0.053 6.842213783184921 19.76357824067385 10.759765934474313 0 0 0
461 1 10 -0.1595 10.145911759794695 19.362098730240128 10.901688277671076 0 0 0
80 2 5 0.053 5.943518208633916 15.780997651230958 10.974256544693478 0 0 -1
465 3 5 0.053 7.13563641486989 17.398636144842925 19.777925571939058 0 -1 0
215 1 5 0.1268 14.504377401592977 12.522737967266426 10.789134333523421 0 0 0
260 1 5 0.053 11.780064897515103 12.043359195422935 19.741947751205863 0 0 -1
394 3 10 -0.1595 12.41473239496364 17.13747118514052 15.381375307042976 -1 0 0
265 1 5 0.053 11.89262438264442 11.329271356011684 17.242337222964558 0 0 -1
293 1 5 0.053 19.613537650820646 18.563313766321826 13.766623911446116 0 -1 0
398 3 5 0.053 10.91428925951254 16.210379295221728 14.198295656155251 -1 0 0
221 1 5 0.053 15.102087910714218 15.613160773685756 11.598971261232792 0 0 0
462 1 4 0.0265 11.123876733505336 18.356777739089253 10.918025973572458 0 0 0
429 3 5 0.053 15.654441877403377 11.97937162553459 14.454142433461945 -1 0 0
35 1 5 0.053 17.013105978568973 16.1467400372464 12.370065676546345 0 -1 1
62 1 5 0.053 13.979906775183837 17.307506806324895 17.637429181349837 0 0 -1
438 3 4 -0.1268 14.649279508511137 16.392068263008746 15.199610004589701 -1 0 0
30 1 4 0 18.1707662118554 17.320434122926592 10.904988303783426 0 -1 1
421 1 4 -0.1268 12.324470539366025 18.582390372911654 11.635104793423162 0 0 0
503 1 4 -0.1268 19.259862082580383 16.125777798976074 17.184357616795772 0 -1 0
422 1 5 0.1268 14.041705342155112 17.706509052541158 12.482858423409429 0 0 0
499 1 4 0 19.68756186198202 18.157923654892294 15.90070916937375 0 -1 0
505 1 5 0.1268 18.758157772707264 15.192033708911904 17.209973020531777 0 -1 0
434 3 1 -0.106 16.19457639021558 12.953196349466811 14.58989106120275 -1 0 0
582 1 5 0.053 18.083654258147583 15.371617749467005 19.271034851216 0 -1 0
557 3 4 -0.1268 18.57965186560537 12.641104032380966 15.40505630766354 -1 0 0
225 1 5 0.053 13.990053862034221 18.290143295243297 19.092264662764194 0 0 -1
393 3 4 -0.1268 12.908092803613558 14.758742510569027 15.036076492457212 -1 0 0
560 3 4 -0.1268 19.45483724527076 12.516746815717548 16.441507914128305 -1 0 0
435 3 4 -0.1268 15.619752141485582 15.441665350896693 14.984743273272542 -1 0 0
295 1 1 -0.106 19.330502879780482 19.088559844680887 14.708987283693988 0 -1 0
87 1 5 0.053 11.276816798875055 17.137501825773057 18.38905376367643 0 0 -1
502 1 4 -0.1268 19.136432432491823 16.916242412734995 16.00430673548322 0 -1 0
431 3 5 0.053 16.735836890119675 13.18878116278054 13.67701739280496 -1 0 0
424 1 4 0 13.02419068765595 16.303302427294472 11.18291324017631 0 0 0
85 1 1 -0.159 12.029680482777492 17.792817346974296 18.77868854031901 0 0 -1
111 1 4 0 13.739730715632271 16.03941163577162 19.320533526598602 0 0 -1
463 1 5 0.1268 18.53467419175015 16.554408376704192 15.180550473497073 0 -1 0
19 1 5 0.053 18.291521248904573 17.995668385035465 19.524881127788383 0 -1 0
577 3 4 -0.1268 11.245483976990297 12.306146339528974 11.252903521611566 0 0 0
578 3 4 -0.1268 11.257990244701741 11.406271937872884 12.313817783710629 0 0 0
574 3 5 0.1268 11.721192051120632 13.269763164761104 11.276192461937777 0 0 0
296 1 5 0.1268 17.560643642653993 19.664687284675423 16.983767548945565 0 -1 0
29 1 4 0 18.63922597999946 15.041324128202946 11.40436889952683 0 -1 1
298 1 4 -0.1268 17.138615278264748 1.4163703845812705 15.951547510242479 0 0 0
219 1 1 -0.106 14.132372175055245 15.23134590732387 11.261311568644052 0 0 0
551 3 5 0.1268 17.324052981342657 12.068677735254473 19.039495543829553 -1 0 0
267 1 4 0 13.05049630057646 13.737872302790544 19.365343323745947 0 0 -1
395 3 5 0.1268 11.854948947074663 14.429985320528074 15.073168476991542 -1 0 0
550 3 5 0.1268 15.706075884081006 12.318496393407965 17.275999088721214 -1 0 0
441 3 5 0.1268 13.673440839587014 12.72490715598278 14.710384980071913 -1 0 0
442 3 4 0.0265 13.297756622645583 16.096008273608625 15.225371684352776 -1 0 0
579 3 5 0.1268 11.630660543344364 11.716463567718698 13.250746148289045 0 0 0
261 1 5 0.053 11.287969392634778 13.163574717013415 18.42099057396566 0 0 -1
266 1 5 0.1268 12.197132986758229 15.251634762309106 18.184966913415245 0 0 -1
110 1 5 0.053 11.864233704160034 18.742321185557884 18.311887526918873 0 0 -1
303 1 5 0.1268 17.578377454473483 19.412932460961706 12.652122168896973 0 -1 0
440 3 5 0.1268 18.739839456413293 12.84792375651879 14.394057556750335 -1 0 0
436 3 4 0 15.253652032058435 14.090717969853795 14.784741595327748 -1 0 0
264 1 5 0.053 13.258674427529666 12.475064786103195 17.058765286825135 0 0 -1
302 1 4 -0.1268 17.129276346746675 19.731874154818804 13.603751764334914 0 -1 0
553 3 4 -0.1268 16.778934784727284 12.367678092501096 16.993640111397056 -1 0 0
262 1 1 -0.106 12.157823546993901 12.66735780341017 18.85262494684968 0 0 -1
299 1 4 0 17.853287292373324 19.541390496467052 14.799958124037232 0 -1 0
556 3 4 0.0265 19.102920217396587 12.206469924335488 17.793997869335783 -1 0 0
89 1 1 -0.106 13.488864161352344 17.356395299615713 18.66024579109977 0 0 -1
34 1 5 0.053 18.408544784871232 16.76786812270683 12.903134356152762 0 -1 1
263 1 1 -0.159 12.751244197550092 11.803516806100333 17.754142740596706 0 0 -1
259 1 5 0.053 13.481283824065148 11.09622997053962 18.18788931868459 0 0 -1
423 1 4 -0.1268 13.218768958159458 17.537188005839205 11.819239501186363 0 0 0
268 1 4 -0.1268 12.933620861389919 14.983016501230429 18.920534139344234 0 0 -1
195 3 1 0.027 10.98603519536481 16.75056897196628 15.199054101637607 -1 0 0
420 1 5 0.1268 12.456067489178402 19.581217172725296 12.047021506334353 0 0 0
554 3 4 -0.1268 17.720198723752652 12.124082853214295 18.037423298554096 -1 0 0
555 3 4 0 17.23389376919814 12.666892311784725 15.683501529580807 -1 0 0
433 3 5 0.1268 16.634993270518905 15.720973232197062 14.929225441471917 -1 0 0
104 1 5 0.053 16.24463082828974 17.008021815008725 18.920081167863017 0 -1 0
437 3 5 0.1268 14.92198128347778 17.446614899044555 15.289311624587869 -1 0 0
427 1 5 0.053 13.94315372563346 14.52711000630678 12.044223738216 0 0 0
167 1 5 0.053 6.538765383652644 7.377105780242824 19.63066353819298 0 0 -1
36 1 5 0.1268 16.07058955296028 17.721836687897422 10.71919367531934 0 -1 1
23 1 4 -0.1268 19.433933379797416 17.865769436504586 10.60944407757272 0 -1 1

Velocities

447 -0.0025693814256823426 0.0051237467147980525 0.0024326417535355206
351 -0.0034964288418083502 -0.011821688367943608 0.0038702696394888815
448 0.004023001334796791 -0.019698285824829024 0.010619578649647965
446 0.038205034650521844 0.02066253987838171 -0.026582884685565283
450 -0.02428120687237601 -0.00012397719821914972 0.02186209810088821
285 -0.004940699014432567 -0.007076280975366485 0.004961786417468074
286 -0.010442459251927426 -0.0037999558667868418 -0.008372636409222475
349 -0.004353439176505562 0.0012244139237994564 -0.003026838501573977
345 -0.0033679701727549107 -9.023232108096097e-05 0.0007523738758005378
47 0.0011370937437969752 -0.0020028076294934206 0.0034770241524880565
45 -0.02047955466966347 0.005784399268786015 -0.011428019684098963
49 0.002379700325737659 0.004299946759677002 -0.003848790212660727
50 -0.03121886951854071 -0.008550394155056377 -0.0212643445242577
344 0.0020727418975598584 -0.003721617145798081 -0.006863668747903519
347 -0.0020732743072901945 -0.0004347015681046617 0.002561250119514429
403 0.00016193427032580102 -0.009797883479363268 -0.005780724187481984
407 -0.005243514065999947 0.01909156546787535 -0.010652528626965871
401 0.008226495360807043 -0.0006046630477280007 0.005014356567526633
177 0.0017177469658623582 -0.0008442944775396539 0.003573836069243982
340 0.019582939392986578 -0.0050200249125739015 0.0023970636838800655
341 -0.007412306136948577 0.0014470289874883326 0.00959167665090103
173 -0.00502677052896647 0.005201592431297344 -0.003927129955358041
162 0.007300755828772345 -0.0047371108469604 0.005418729476795923
165 0.0016859956178456614 -0.0013643869307028108 -0.00042089571755974574
171 0.0064738099984109985 -0.025934613721528894 0.012550761260928684
169 0.0018379440742601798 0.003313389561133916 0.0014566171195721082
41 -0.0057939584026790855 0.0014935976854593394 0.014077262369312595
174 -0.0015412640331540666 -0.007097430816620191 -0.0005212922947185548
40 0.022423926499147654 -0.02403270644583849 0.0035182109763406207
160 -0.020312423566793324 -0.007766591984365578 0.016094924894110935
42 0.022541964701942478 0.01708053837397901 0.012227504060431126
124 0.0028162616438292673 -0.008372086099884917 -0.0043767667826788426
176 0.0029404517597580826 0.0005835312697916471 -0.0054215046251620755
168 0.0014664880042805385 -0.005635195325862747 -0.0028941826446144247
161 0.0039313495190041355 0.001323543851554968 0.0023959221156427497
159 -0.00285696901209221 -0.013220584632075996 0.0013000456114018
356 -0.002376454252831304 -0.0023600158804296164 -0.0003906333772246778
354 -0.0035978132074517815 -0.0013628023342902838 -0.004800483483564158
346 0.01671180910968935 -0.01630028579503545 0.00700246346097532
359 -0.004285574265428103 0.02122771578234082 0.0003539183193046812
39 -0.0005248305020425517 0.0031235962970125493 -0.0032706599574566517
357 -0.0015108589464914808 -0.0041851583384898755 -0.0036232606111395523
43 -0.003447773769226423 -0.0013109091944407255 -0.002164444777481858
572 -0.0006468228115039733 -0.0031812737665680765 0.0223164530821628
127 0.0011675685796753775 0.01483502091761761 0.029426784625142807
15 -2.6297194892156533e-05 -0.0055997545613308925 -0.005147469132692421
361 0.001685790112919838 -0.0033775210343243906 0.004597441669743689
120 -0.0037532684754715967 0.026687338228316603 -0.009019475510680877
283 0.000698126633750393 -0.00795107375031288 -0.001272287338738075
533 0.02559349530887305 0.00581798110426461 -0.020745439704472114
114 0.023572476136819374 0.015412989585630482 -0.011718892914585204
508 -0.0035347622160305805 0.0303606290471848 -0.01045786709703674
449 0.007083734152002695 -0.013529324123096433 -0.012454454264255031
164 -0.013683345245698362 0.016455134328502 0.0005868701569668507
281 0.009641754676244368 -0.001616924051615342 -0.006395398154142727
483 0.001578656148658502 -0.0033492781457850314 0.0025570891402693996
230 0.013272251023409377 -0.021994185358430583 0.016700593651304798
166 0.012945410261064478 0.016116487234100463 -0.009374620372688535
53 0.02805196202019123 0.0047495342867632274 -0.0216051278981747
452 -0.009311186509678668 -0.009136134242443516 0.01149332401047602
56 -0.0005181617694480923 -0.004369104330067841 0.0003068979627571074
222 0.038538346722561304 0.0012030950841723322 0.003698909258628287
141 -0.01725606202166648 0.017328364501783013 0.04398932181399219
57 -0.01679546339106691 0.030119556289544745 -0.0008512570851936006
546 0.005157717156632292 0.00841778222472135 0.011518989643775632
180 -0.00406164592692305 0.0004888938725390631 0.005177169401858934
17 0.004947945634723919 0.009710487540629328 -0.0026055628182709433
203 0.0017083806870799212 -0.012251287619369194 0.010646649187136847
532 0.00035876198915907635 -0.005607939791700259 0.0026573979771171772
531 0.003138516162568704 0.004199057432504016 0.00011717409243636786
527 -0.007307857853695522 0.0014429749054054675 0.004195479387149402
13 9.489387449897866e-05 0.006990511394143957 -0.005304483448866069
399 -0.005203081758477332 -0.004677237518537616 -0.01810150982608668
576 0.02502540379512679 -0.015007915427304166 -0.005286513203608139
545 0.004550063547496617 -0.009822835139355326 0.0066262024456394284
18 0.022131000282987794 0.0043721222380290565 -0.00925778212999883
360 -0.001415963954757503 0.021485797424947474 -0.029871756633312402
466 0.0022417748367278517 0.003964980065520919 0.006133296627019958
123 0.004598851605033527 -0.0064531124374984815 0.010418555346875741
282 0.0021950279711321187 0.01391520482848867 0.002679056747656482
280 0.003237507975992389 -0.0017631059747846144 0.0026026313107919293
279 0.02062057612152023 -0.004538775364552786 -0.013413982287399985
227 -0.004330056062337033 0.035608811535695256 -0.003347702403511749
288 -0.012391177380486224 0.00834444895677015 0.011269929622223477
472 -0.00038373771085553317 -0.0028729356770175658 0.0006591754431131955
224 -0.00420432613816623 -0.01782585912017433 0.020416165507807907
329 -0.011480126491651008 -0.01228285576201288 -0.03244350300179968
223 0.0002121222147734106 0.0047250489141982795 -0.00416613984579794
363 0.00757078480275478 0.020476660556991107 0.021265008729405063
128 0.0016932273881602757 -0.0015856312609369302 0.00046794308176108826
126 0.001087790580315961 -0.02458087900979002 0.005391665572866027
362 -0.014060782417968713 -0.012352056127656955 -0.011053053133171805
278 0.0037191399885700494 -0.0039851400509071135 -0.0024191214908108848
507 0.03096680106115148 0.0017967894906712558 -0.011260788744483406
277 -0.0008870825241943423 0.004583114621954614 0.00328197792658983
116 -0.0011921424123908498 -0.0002231946054601887 0.0030393039780841776
528 0.0018005600032842822 0.002195063892379599 -0.005780622624726757
529 -0.01731255459381685 0.01240587056508551 0.0024466243627395625
270 -0.0018197716823410838 0.004448477723427642 0.0062104994709123226
269 0.0014177148415018155 -0.0006454284778640573 -0.003800739770081414
115 0.009593794242788684 0.008286953842363892 -0.01928904678788741
157 -0.0026419786736201706 -0.011323776467725298 0.001694786987832554
276 0.002174916538453248 0.0012490428355617427 -0.0027433368973359138
271 -0.018148827305650164 0.0038269659842954003 -0.00984318559463578
355 -0.00813013250567051 0.0029055060411792223 -0.03146335288228486
432 0.0024750832683393823 0.008454562345594106 -0.009144227652874867
113 0.0018267419836378899 0.0023071147877669505 0.00365531055717593
117 -0.006822206485511265 -0.01885868572393896 0.00269410977585855
274 -0.007407684011760233 0.0035120716304960623 -0.0031484889407179927
158 -0.009465732557212255 -0.00914742849965263 0.007177899550142278
193 -0.00025078716084835784 -0.004112455687124062 0.001291836166717615
275 -0.00710875736914084 -0.02563569282277248 0.014663571000680673
379 -0.0010344850533073632 0.0023440673141043996 -0.0003171280107125887
273 0.0001446091003806877 0.0051414942824036785 0.0001250054547739764
428 0.02140774754436746 -0.0056981194083091675 0.02075094967432389
430 -0.003194695658890889 -0.004489662355763207 -0.001983493431143129
378 -0.016014193155690495 -0.0033527552323559143 -0.011375161519785093
11 0.0028850130005284857 -0.0030633661852451466 -0.0041676299099609685
380 0.0026130812804590216 -0.0007852295336541798 0.004729826065120303
384 -0.00684320714195495 -0.001564278366382883 0.007147509337390836
388 0.0026929248334591235 0.007070496960608282 0.005870528365827069
392 -0.0035171391211942975 0.004513061930190478 0.00027144053154115475
386 0.007690769889722403 0.01093766877307989 -0.004782622931601493
335 -0.002394008428150983 0.02416029376587683 -0.0036941746572845395
37 -0.0031075000042147553 -0.004395250042679317 0.02183249861598775
387 -0.013953854401290043 0.015628770564800623 0.012948998635708664
370 -0.004427977819673411 0.011113991392557115 0.001078148362647431
9 -0.0006296772981055023 0.0005555363915467402 -0.007015698035975091
12 -0.00450432488761557 -0.0009949950662426926 0.001200643714504303
118 -0.008808117392907048 -0.0004029678788223989 0.009742273731053224
534 -0.004688304928796081 -0.0005091664962650071 -0.00712893315806324
489 -0.012404072354943362 -0.018266200744866092 0.0188995705437331
487 0.004244104607189759 -0.004865724776275555 0.004684492004580911
287 -0.0003471782777372363 -0.00267849404294454 -0.002501434641298662
10 -0.007176614327372078 -0.014801910383021786 0.005869472904253837
291 -0.0037782283213080568 0.0014888123730581583 0.00113895095329062
382 -0.01134644413058536 -0.0027255341120060576 0.018950571584438816
122 -0.024338675355440112 -0.024967023756099285 0.021688382011065523
488 0.017446507243820672 0.009931739813098495 0.008211403327600827
125 -6.252118461125813e-05 0.0036718342057380005 -0.007419684194202078
129 -0.006760142863477756 -0.0024262611455241165 -0.0007221253585501746
494 -0.001626875247865241 -0.018026452914546194 0.006832765213196074
491 0.007601112863332901 -0.009614961947408608 0.004114306457492294
492 -0.0020665603554335097 -0.0029229848157712192 -0.0002301213170224891
490 -0.010031498002575712 0.012709133852196193 -0.0027761052103486873
292 -0.015616954416751429 -0.01031006677107333 -0.0015734531020020661
119 0.005146971582163224 0.013636815807541372 0.026123123012828542
121 0.006543182891200588 -0.012075176440755933 -0.010994491945064442
14 -0.0020445092683116606 0.006387402820841213 -0.0007925701852475489
6 -0.019296805405259205 0.023009197690808315 0.0032686802244207046
16 0.019573830006806302 -0.03867820462120611 -0.0061941457760099775
297 -0.02484921359313479 0.002849209883431105 0.005606078822627353
179 0.008606948493376905 -0.01941038762200907 0.012951683833422326
453 -0.002156497010996419 0.0024512190796741324 -0.002610309794273226
132 0.02517679504897443 -0.013302501985024135 0.03031720129055877
88 -0.022509906111565756 -0.009140328042801658 -0.000596624769956087
84 -0.00428691135357809 -0.0015088455681871475 0.0064849564678507695
138 -0.028242372385945434 -0.016803439231717284 -0.0071857636509570656
559 -0.004680958739770262 -0.0030719198695274546 -0.007414292311513099
142 -0.004462998012214295 -0.0009059595271425786 0.0014367266141591666
139 0.0009042933644446246 -0.0028139664660294527 -0.0014036773558088295
20 -0.017456819522124842 -0.01058373066654865 -0.00932148604990859
73 -0.014954144262301267 -0.01815127054434394 -0.00988680962688957
140 0.005506525538086489 0.0009630612372062337 0.0046402219702454325
539 -0.013323351512815117 0.00797785784266806 -0.03143895804503949
151 0.009333282798437276 -0.034654616330970375 -0.019721380404850636
98 -0.009353856792761125 -0.002819124631669251 -0.029495210727621533
154 0.0050703840686453835 -0.007382004743055319 -0.007435857818887
156 -0.0008970710215835352 -0.007476198984853119 0.016466672556593866
150 0.0112793097052341 0.006965935055020408 -0.01701435550157934
451 0.013918566572881496 0.0009437379529057699 0.014908225553229357
63 0.0012055537960929887 0.0022272941233220656 0.006372564594274394
152 0.002568326544452509 -0.0017230798170352296 -0.008071266018643367
540 -0.015440877000739973 -0.026379697000957218 0.003974622170838973
464 0.007510907298439199 0.023143825505693546 -0.024616922447832135
254 -0.023550765286458983 0.008658990754062299 -0.022970932956421487
258 0.014942358877348232 0.013492482436367524 0.02875904004129278
547 0.006003364636302337 -0.0045117590642846 0.02405456483779868
65 -0.0017741703768142311 -0.002609784844523891 -0.0005988391661812179
542 -0.0007436812731287525 -0.0036817462601758176 0.0007220583690272001
46 0.017822104600829388 -0.0007939360239277311 0.03728941946237262
64 0.0015807924364875047 0.0008314444772004947 -0.008037830924251204
48 -0.008271078197074027 0.001400404070576516 0.004418020539166409
67 -0.001222576043950941 -0.0012727958597743673 -0.00060249925934401
69 0.005049206113729958 0.001519084077487079 -0.0019526815165231933
44 0.017792262829108004 0.01035828298967938 0.004011717805338264
70 -0.0012300829896801013 0.005857170888244482 0.002110293053042333
66 0.0029715635671197877 0.0018774563314761916 -0.003119891541282104
72 -0.006087660478268978 -0.004812208611751671 2.8175367093912096e-05
68 -0.00209582848095393 0.00972193450003423 0.0021157647176839123
74 0.008756422211296756 0.005154347347181986 -0.008951184599754114
257 0.007441995842131121 0.001017213745263384 0.0028978697647955597
100 0.0075916596215174145 -0.01035638271242733 -0.003948646594909447
327 -0.00017618690095598538 -0.002605726862300558 -0.005281351821463096
322 -0.002474976231929349 0.002534216183592165 -0.002965787450162051
320 0.005662962028303362 -0.00719350830231192 -0.0001412656767776212
325 -0.0013419281293539944 0.006748525022177482 -0.008696655258911041
317 -0.001630448016319193 -0.00907081232055994 0.006998913728252524
326 -0.0013923277225651857 -0.0034002509265940767 0.006113555209875809
321 0.0024659613497580606 -0.004621422148099526 0.004708338695986989
323 -0.004901581480048613 -0.0017717721297415352 -0.0019224981783785497
324 0.022208692884974634 0.007268081772186301 0.0038936100237116854
569 -0.003427613051252227 -0.002640718127111084 0.010948422698037953
253 -0.00937449978778931 0.0028957177109512175 0.0015284533326721595
143 -0.0009260220310398295 0.0014197426563755293 -0.0007390917300877205
318 -0.020577853470143022 0.009225347033100868 0.01489112504564729
144 -0.014155375424901301 -0.0005603059143821788 -0.010644682256962367
86 0.00845445218326831 0.0005427737026865029 -0.006966956249309264
256 0.014238911794618005 -0.00510988600104868 0.01270842671226539
146 0.0021679644917538864 -0.002687754490771815 -0.0036101435987766998
389 0.0013359348449622573 -0.015145346657781429 -0.014527630931008624
381 -0.010525373001988315 -0.01169327203838335 0.03223233283891956
564 -0.002819920179988243 -0.005522665745798477 -0.00035761351746227096
530 -0.01365301330759654 0.03110589922806858 -0.0025737566335755505
316 0.009565975694403954 0.03507037796043929 -0.01867879806082406
567 -0.023808340128737535 -0.011704071430132522 -0.01021399067174774
184 -0.02079300989129615 -0.011686867712825335 -0.011938862212470829
512 -0.047178850953695964 -0.004152547032586121 -0.007728485602766369
155 0.006119385551348183 -0.004644499526289864 -0.004641078940762603
22 0.0015895479162564366 -0.005471420767379941 0.005018149049295434
369 0.0028748814144356977 0.002232677193886355 -0.005367948152820485
506 0.028084113006581504 0.010028568103956635 0.008930535968769564
328 0.00501664998643345 0.0006527045225420265 -0.00023088261182035427
220 -0.00816686618259983 0.0037194960955787754 0.02105277457976248
205 -0.0053606722640039545 0.005384717302599098 -0.008460922524130702
101 -0.025768626504689293 -0.008682986661972212 0.031359325683021286
105 -0.00459378822011907 -0.00047829442895823513 -0.00725542165378378
109 3.886339084766181e-05 -0.003444946222283281 -0.006510254368346826
92 0.0014122646783536253 0.00020614262460482205 -0.005827327486096009
217 0.004439613486034597 0.007239675499224228 0.0016113374938315375
71 -0.0015649531342137946 0.010771959261484002 0.006221736308707254
573 -0.005202880250350827 -0.007699760753239437 0.0013729504515726414
75 0.007020827801195705 0.0038045804928318167 -0.002847622741018273
575 -0.001064634269047684 0.0019760354633466693 0.006205970231712409
28 0.003287035671347088 -0.012217946746498893 -0.02042406771952212
365 -0.024036869712221555 0.002978838946196395 -0.010881133768901529
255 -0.0007903292028349077 0.003201948708065811 0.004068293245536892
24 0.0011560494289976674 0.004115830709084781 -0.004277658367305813
504 -0.00310207901785836 -0.009816714870506588 0.0011934739918893758
367 0.003734843700359006 -0.0028655313095246214 -0.007460949808597379
96 -0.011743105631706517 0.017047554593603065 -0.00043697036172343106
364 -0.04171221285581444 0.008378650779184624 0.004261232875116313
1 -0.005183581998458913 0.0032390723297483852 -0.004326817951903201
107 -8.725181468427948e-05 0.0023266256458022417 -0.0003556785039557433
32 -0.000404211478907902 -0.00023928524281863252 -0.001264466461551164
289 0.006117472677155704 0.0038367941651827548 -0.005035590784851933
373 0.026100706325500336 0.00015313847047761884 0.00260710925907413
566 -0.01281276915510245 -0.021516396339747012 0.0012824662841041925
570 0.017898555776837913 -0.003062255977140323 0.026716877541760244
568 -0.004267452280015973 0.008068055936383323 -0.004236020087659998
375 -0.009749929099828039 -0.01602242016392691 -0.0137279569870974
4 0.0010298256712431787 -0.001380658103309608 0.0006124211135299656
99 0.004539152748141752 0.010637752349440482 -0.008188908296260573
38 -0.023063100465996862 -0.00665463458731929 -0.01616289550001318
571 -0.0008663910815822825 0.002261781874025642 0.0033530583906093165
153 0.003523830221270214 0.018954812383266646 0.017881522995656027
202 -0.010655057484530238 -0.0024679774434592148 -0.012430322061165079
93 0.021975608082060994 0.0013262740412746984 0.008632351560500883
97 0.02804444358698234 0.011631998124868113 -0.009389371860164508
535 0.0001794424678232274 0.012850396129779066 -0.023434214511604417
383 0.0030291409622751776 0.0021927671986478902 0.0027675014355657856
108 -0.0018149623490976935 0.0024450822609474424 -0.004754825335675103
188 0.0032736274454183536 -0.005052236218738182 -0.0017455757318388877
385 0.030720430521979657 0.012274732345882963 -0.010368512248739243
565 0.007767829516333257 -0.0008240220663557915 0.006560651190699272
332 -0.002610388809218714 -0.031043987968103544 0.04033503118897431
33 0.006440903490626554 0.0024798981982855376 4.555241826955344e-05
376 0.00458626219247617 0.013470746547815085 0.029294062902287192
148 0.0029028436131206545 0.003082244786657231 -0.0006918646036238602
426 -0.014253293224448979 -0.013692071816450805 -0.017154289689892667
204 0.008121582548019327 -0.003410622877926966 0.007206456318488974
368 -0.006268643238338287 -0.006028021163671282 -0.0045359730472010005
371 0.003387564494180186 -0.0011056220752782675 0.006677183596415223
374 -0.0015395734898077287 0.0003028157456566081 -0.004119821119449379
366 -0.0020679500041338875 -0.0001867274183727479 -0.006957001325247154
2 -0.02644275263117712 0.002579294639593374 0.00854923388722839
5 -0.025532510589801417 0.009679084846869312 0.01671374050942531
145 -0.015543574148142038 0.0019958031137151007 -0.03288048863123401
91 -7.217163805067352e-05 -0.0006027762476284058 -0.001616116977818321
3 -0.003001891819387667 -0.007841746077670764 -0.006359645179107154
94 -0.03925219766957155 -0.0007357211951501598 -0.01985344857659694
372 0.001101531928154175 0.005161289029198304 0.0037726750979793135
7 -0.009015695791787293 -0.006276468634269977 0.0037980374426309083
95 0.005348795688658481 0.0015988156122026351 0.004975969891230891
216 -0.004576692848274991 0.007597460431279207 0.001508980195139792
8 -0.004275484619099026 -0.005590529752623692 -0.002122112386752848
26 -0.0028611906075613545 0.0010157590196658377 -0.006123269440547741
425 -0.0009420177910152599 -0.0003763481201131084 0.007579760384875713
218 0.004261627161757023 -0.0017599344506100847 1.1057292086216764e-05
112 -0.0139935448146103 -0.000637812124020895 0.00020034921684391023
485 0.0019869821543324825 0.010927347204079684 0.02170514737469291
83 0.014058557283344552 0.0011866781856573558 0.02544317600817521
106 -0.01043465874429355 0.02784983679156574 0.021570181972756095
284 0.031113951228217137 -0.004754989623984531 -0.0013722994370764193
77 0.007392397925577791 0.005292502967125691 -0.004763479988872602
584 0.00397476623943662 -0.0016474254894974904 0.024399469674279906
470 -0.010746525255212433 0.003386790567552916 0.0020344806895528393
585 -0.006188348264692673 -0.0013681193287401836 0.00333991588774631
516 -0.00596904761614258 0.0024518610232296912 -0.0005142716175604732
468 0.014416053138031182 -0.003826193747293878 -0.012729406418242236
562 0.010913279354401518 0.005857583313036774 0.00026989859228850933
477 -0.002491870233217838 -0.006616458420644821 -0.000436688526979742
475 0.005570613511291021 -0.00526278790082256 0.0011951787352490317
513 -0.01388869115700018 0.039973322719098626 0.01409087921786788
519 0.0013368972389603809 -0.0055539540280385505 -0.0027837214299559097
521 -0.0008932156368998344 0.001857335821968893 0.008763614485722203
520 0.005007509381453997 -4.154268677665307e-05 -0.0013416004999044664
358 0.008554273112735034 0.0025356413882197735 0.003510140941101003
523 -0.003841519882454042 -0.000303631870684578 -0.0021486240422562137
526 0.02637541074112709 -0.011927649578574544 0.006645362363867027
522 0.02396410813347178 -0.02096802793442447 -0.03540826806108981
515 -0.0008486115905648249 -0.003072283902942095 0.0033677514983923283
192 0.019850001865746883 -0.021455818090947796 0.003185389429125467
333 -0.007074867353374427 0.0037650715350726277 -0.00039739324295163375
228 -0.01731962460297727 -0.0219430081999859 0.010046491379390208
233 -0.011642349802887421 -0.0020514538661419034 0.0075144073806721985
478 -0.005941816196845885 -0.002260885530017692 -0.007228495620254909
514 0.0064529379793671305 0.012555925438766368 -0.010260182396684544
353 0.0021174617194443432 -6.200857849428411e-05 -0.006770090926577057
185 -0.006752471110077995 0.0035457155712161743 0.010349704781726584
272 0.010437706078587829 -0.004058183766069875 -0.0014760777112313665
476 0.01359642258937292 -0.015137049238518862 0.015719581480131146
469 -0.003006246985331085 0.002378156404593069 -0.005146988751479373
331 0.003523860976661677 -0.0012824344794855288 -0.0003167992712308808
229 0.002212150716670075 0.0056771955107389775 0.006185760614496746
231 -0.011062396756748983 0.0006130668123019481 0.0016170876037021227
237 0.007820881204674293 -0.005162864559151062 -0.003994960256524231
242 0.002998502555093616 0.008699419449802421 -0.013281855931844054
480 0.008300869917161903 0.004324200383548851 -0.004192852580732944
479 -0.004372946470543438 0.002225621696032287 0.0007073811155838888
226 -0.005622838311995726 0.00447202692924058 -0.017240678122197317
187 -0.0005111898323818514 -0.004063733411659059 0.0005256312519654813
247 -0.004004963391668916 0.006319045407692267 -0.005170703414810432
183 0.010689694852910145 -0.022363311446651886 -0.006178100180259304
212 -0.009084990609736134 -0.0002758132989856567 0.008499258827038428
563 0.015255871666382306 -0.013094383428275992 0.014758738590717895
525 -0.013372476111715914 -0.016123759477621815 -0.01504438507931857
245 0.01626381018469501 -0.019440843958228746 -0.020238545579177366
524 0.025677968125789926 -0.008370871007519579 0.01374755937187387
350 0.005474465242857889 0.0030445200998870346 0.0006350537712894542
201 -0.0004576039270832919 0.00016568890195422533 -0.0065030898769855
482 3.2291220871777126e-05 -0.0010063430812925823 0.0066353855305195655
481 -0.010152462306056237 0.006891061968832407 0.02153885130640745
444 -0.005130083317336633 -0.0039630607829168624 -0.026444928934430494
191 0.013734923121680205 0.030443313561243825 -0.005541249481917973
136 0.003848865821374928 0.003343335668235935 0.00043659771070037685
330 0.018827592925285727 0.003112623028303428 -0.027262575658525825
467 0.003731099629081974 -0.0025950455547898415 0.00022472646174168253
352 0.001977117411946016 -0.0015882386609571348 -0.0002310984799762931
243 -0.00715400734747353 0.0037146491598430325 -0.0026936410045592073
170 0.016959040163265847 0.01952358746455188 -0.004245506354002156
290 0.013814460487882837 0.01684208149587115 0.010006989818759325
460 0.005408495315340994 -0.006948127895457517 0.0051881455067730835
236 0.01034335667876557 -0.00540992272410518 0.021278853190353907
518 -0.009392166333753303 -0.010307468067929502 0.012267890773317764
343 -0.004572852969732216 0.006189673154777696 0.00015809797206103323
175 -0.011660828839486359 -0.010763147779430268 0.005124570763808577
190 -0.00020702754363566452 -0.004083247605570898 -0.0008772654369490758
232 -3.10610504360836e-05 0.0007160671546755031 0.005180297575281456
235 0.0027811863215889696 -0.004468576309579575 0.0048665742531219395
244 0.004984558994439307 -0.003110958870627675 0.006864237692578141
458 0.012942400321358799 0.03467649575382631 -0.0024447425329589306
517 0.010280298776373117 -0.007330789452785737 0.015461848898995415
456 -0.0012329161495301742 -0.004631221422431015 -0.0007567339969127541
445 0.00157488039824244 -0.004516053765367968 -0.0003229617285983339
457 -0.02843485470063515 -0.017911569635262803 -0.024351380664935144
172 0.016578608391704993 0.004511841471248049 -0.003738685463832545
549 -0.023491902224963494 0.002972605192136937 -0.012785643347306934
580 0.0033912984795046682 -0.0020923435441624998 -0.0032917637870284143
443 0.043854071802087835 0.0002035077223144883 0.014050992094008643
581 0.000899470905198282 0.005220151682506595 0.00756986451988071
214 0.03697174888644041 -0.0061580507828664375 -0.0157906839244621
210 -0.003284822113417162 -0.009179008119552407 -0.0032448555178784776
473 0.0003514350297244083 -0.00348186124945419 -0.002148808438234042
133 0.0070775471816855555 0.012491645982330558 0.016630140706706632
314 -0.008110400439604842 0.006985711655543338 0.004810308783477804
311 0.008703194777024213 0.005454593818687398 -0.006626399086470386
315 -0.008688245599969073 0.002743436283982181 -0.009676868499721521
312 0.00586896823534677 0.0027547883504160787 0.0001604294010095512
313 -0.005186566068405313 -0.0005982869222939713 0.005343735574512724
135 -0.0011374347969690735 -0.0038220511530254017 -0.005690576655073674
213 0.002344661604478726 0.005443234040903618 0.005781866535149631
239 -0.0018699003474766768 -0.0004006261362946182 -0.00033782391944251
308 0.0021786828743352365 -0.008976281278861289 -0.04213713342568009
240 -0.014178708446446418 -0.022156980752090133 -0.014768250891650363
238 0.0036078416579869315 -0.008090981269884518 -0.0029305642468802724
137 0.01632374159817853 0.0030653394564048413 0.007387922952755739
241 -0.0022574279966430764 -0.004053942188787243 0.0031626424291681895
310 -0.0034573635684756253 0.006292106353996938 -0.00030667915399342936
211 -0.0022472040700023646 -0.005222943075711315 -0.008290108764523
208 -0.0008674212878771923 -0.000991645751685255 -0.0005542682699821828
419 -0.0071248909324526065 -0.0056321949161524925 0.007115609426185439
418 -0.004945412464419032 -0.001932392653407793 -4.9480488902803543e-05
414 -0.006610728411765718 -0.003745420359643465 -0.005408715808277271
417 0.002870215156413813 0.0015917314054720738 0.0030301834781076677
416 0.040340087115242715 -0.0032633488805840828 -0.014702213450054827
415 -0.007734302954833338 0.006370170014720973 0.004307612916770549
413 0.007999093282878483 0.0059057741075699425 -0.0038186159833503617
412 0.0074135465614492335 -7.202993321826513e-06 -0.010646376019303098
206 0.004540264921914086 -0.008194232256886504 -0.009951236282480614
209 -0.004523441141489335 -0.009607458561369292 -0.030944129000918905
342 0.002404709054108049 0.008289396255320389 -0.004393651442057856
391 -0.003059785122661369 -0.02132116051542479 0.0062280648090795344
207 0.013122186883286948 -0.010475454239265063 -0.016374919757560818
134 -0.014273848531047495 0.009870571321953434 -0.004408912039597167
336 -0.037602518614605104 -7.60645587372206e-05 0.03533427971563244
486 0.0008168011074128716 -0.006514794690468509 0.0006077142044198322
471 -0.027037642672355127 -0.0012874486141675992 0.006292593102106807
131 -0.004942219282741928 -0.007773624565059189 -0.005422778845612846
455 0.003828348839735717 -0.0009140643766259965 0.007336853217472261
337 -0.0005154989525849178 0.0006577794511731673 -0.0015479820243239982
103 -0.004209884754559548 0.013400699684144939 -0.008513859536039342
300 0.02141087180697164 0.0004620060162116484 -0.022719200341444687
234 0.00188075311163036 0.0038219168105360925 0.003973173719491941
130 -0.0062592347608943924 0.008623781469036121 -0.008509498328060496
338 -0.018454891121296453 -0.010254294445139683 -0.0374610087006432
348 0.004307079321517997 -0.0012930142800965582 0.0012777803219075148
390 0.004294672256183969 0.0015071842854519994 -0.0014521556980242813
334 0.006252849805058098 -0.0011612886869237504 0.0033083510721940938
306 0.00015724719454801911 0.003493970769223681 0.00020665755323242668
304 -0.003887846187449361 -0.0011088873915784223 -0.0031138534420091226
439 0.004718882788592711 0.004193198495607274 0.008578546990361159
309 0.010205419672250159 0.0012918349859610018 -0.007120729836350187
307 -0.012725635999703942 0.041031971465473376 0.014507624368801332
411 0.011581651745825988 0.0036450096559137177 -0.0002833150972159469
454 -0.001988946029948247 -0.0023195731269427247 0.003639274104058347
305 0.004953061740877303 -0.006812390245440708 -0.00974044074724669
249 -0.02294144571854399 0.0036133005945517753 -0.008928680381050068
301 0.008564006004235703 -0.008236663263510491 -0.012123090308853508
474 0.015814942738314873 0.0045139924368461605 -0.013524871210597578
294 -0.0008800176619829829 0.0003801022808409247 -0.0056538742113965415
251 -0.002490955486664246 0.00026054142006205484 0.011408381105080363
493 0.002395451252456467 -0.009551327853316105 -0.015352907884418406
102 0.007071565870224129 0.005440395064287914 0.00758162092785345
250 -0.004323127886262307 -0.004766721521354432 0.004288037744711088
377 0.031097435672985684 -0.0010833616003530324 0.014653596645956888
248 0.007522325273079608 0.010914032090997733 0.014269764921107412
484 -0.0010517244143797362 -0.0043663488276349865 0.006751900468755435
61 -0.0086377023223334 0.011313705853428745 -0.006404393445260133
82 0.00464058514191436 -0.004807792912940173 0.0030644528331211385
81 -0.012824694393829711 -0.0006794196068080264 -0.007012102111717105
495 0.02970586518822259 0.007939189079939029 0.02336964947209892
189 0.007508224889712139 -0.008311995278903255 0.019416281199403706
501 0.005900522444842044 0.004598903032859856 -0.0013301139915877405
404 -0.013137976640433969 0.00363809509504178 0.00030613849368426926
409 0.02714839019006212 -0.011811301671401596 0.021508792359636045
60 -0.0031380032410214488 0.0023656780343653885 0.00649757988580359
186 -0.0012406667370305434 0.0008069442167810159 -0.0027171320788789027
54 0.008675770650103476 0.015838233981373365 0.009624144456119324
198 0.013595848778828109 0.016998783375523532 0.009949469670203869
509 0.004365016824924597 0.011565156509325372 0.004328840025216753
510 -0.0025053607942682626 0.002384344774567031 0.0013245042563546905
511 -0.0021208504576183296 -0.014037993548947495 -0.0017730942598478793
90 0.005365835162269961 0.004167734070310361 -0.016280888488719496
76 0.004877149257106479 -0.01908428041116835 -0.04005997987112325
541 0.009132778633368496 -0.0030809878641004694 -0.011839048459929611
52 -0.00466228744984357 -0.008502556451751188 -0.02072993413847856
543 -0.0038217593516834186 0.008033583029041688 0.006735878708249367
544 0.004153276388283265 -0.00013759236414936587 0.00774017398056222
538 0.016587155323182366 0.02529387577215308 -0.013111344317525276
548 0.001162693162931035 -0.007174954924360854 0.02291808876779285
55 -0.004648687334157042 0.007641977706243323 0.0026193943364688065
405 0.0040465678976734296 0.004979030044089098 -0.0038394713666629592
58 -0.0047216877269940895 0.0048133589780161405 0.003502335868472077
59 -0.0034713821437273953 1.3958487709594365e-06 6.707978750738131e-06
182 0.004208521884279462 0.00024600949726311593 -0.01017377711943433
181 0.006197786662733916 -0.007366122203479407 0.0006656922762185761
406 -0.004497482120194037 0.0015676931802165509 -0.0020475120332969824
402 -0.0034679382078306245 0.007726523712039936 -0.0003127591418862865
408 0.024373086728502753 -0.014775446717139415 -0.013211744266853894
400 0.00597769764909476 -0.006883709151687141 0.0021798924691035326
410 0.02989541207019856 0.013712653529722124 -0.0009622411700672169
397 -0.000536542941242074 -0.008141771889595011 -0.0017599522187253377
51 0.02608818786832842 -0.04716351101730418 0.012177734367598244
196 -0.006282039265730267 -0.001069261641958255 -0.0011480731190763938
178 -0.005861849907446708 -0.0020336294666079046 0.007137174955584342
536 -0.008628159253704049 -0.0017270485952300108 0.02313853280561907
199 7.010602706095251e-05 -5.914025406898306e-05 0.004470136839431053
583 0.001839061847843078 0.0069444800274932085 0.006169600427753416
496 0.002848612847551585 -0.0017049983320563838 -0.013542262862098
79 0.0038313750802641765 0.002046179897289775 0.0005545147249873679
194 0.0003648266894467089 0.025638075693508566 -0.024968492063854302
78 -0.012331032103566614 0.008088912258888754 -0.003441362248857968
561 0.001305173733699706 0.0023256302705719 0.010873156724850676
498 0.005704946856848484 0.002355320955699264 -0.0006912526515912725
537 0.002131724141971701 0.022320398505364897 -0.013858905835387696
497 0.006553647333006894 -0.0007110510941322123 0.0010068118089636444
197 -0.0036308311140893393 0.0004250945912232186 -0.0011561106300695303
27 -0.003141432769509017 -0.002847368498877324 0.0037325397831675716
396 -0.005558052654531168 -0.010658276688729986 -0.009155362084145973
500 -0.0023029852993702187 0.003011037351548989 -0.010362868974336132
31 -0.004017058772724275 0.005495315049486185 0.004166503452261605
149 -0.0009419868217775756 -0.0026010770979913683 0.0054769447551843865
147 -0.01581197330653909 0.031492271688921006 -0.006725126123733204
200 0.0034212039820235504 -0.03202597923718377 0.009658302545488905
25 0.006667221769156208 0.0037176835038677095 0.00045455936255127237
163 0.020169232362040112 0.009122259821418413 -0.005121550392485639
552 -0.0016811121934323773 0.017879368112186437 -0.00733190269770426
459 -0.002554521906898351 -0.002704494191836431 0.02204377514520513
558 0.00027395465728379475 -0.004637312326806392 0.002895706475835171
339 -0.011446353928888183 0.005315307754909266 -0.027618671297847296
21 0.019898549860722595 -0.009575805719457315 0.004107506631358744
252 0.009362306864550824 -0.002042696120070877 -0.003938373514877579
319 0.0005832779215140606 -0.0019592105972986605 0.008157698331800498
246 -0.0013232674304913803 0.0220799294987571 -0.007856330318927645
461 0.002649309448269624 -0.0008214324572941371 0.0018913477220323133
80 -0.000912004846225244 0.00858789352577818 -0.009439501904797344
465 0.0043989731034687046 -0.014617863430925204 0.010358619416045323
215 -0.008750662921761328 -0.00483464717895628 0.006157754977670669
260 0.01435264673382828 -0.02293515799449947 -0.01449371215861403
394 -0.00182645547657245 -0.004157239344637955 -0.0019325405601682433
265 -0.008008140687957886 3.197095307492786e-05 0.007298515606668357
293 0.025548249178751394 0.0008974509254999055 -0.010840244191841365
398 0.003801557211987119 0.009087041791154786 -0.008028610112127589
221 0.022754806196179495 0.0027317326866500994 -0.015502937991450019
462 0.0002154153358132958 0.000375782418233024 0.0006752852617318575
429 0.023829729516977465 -0.006314180455984902 0.0007342243594022386
35 0.004649897633054625 0.0085326887779887 -0.01839466090023007
62 -0.006070503186738335 0.008491257831768389 0.0033858887469741263
438 0.003564531327705214 0.01063338407948851 -0.0003578131023351059
30 0.0007854025290654199 0.005453369566861067 -0.001826080360710383
421 0.0034309598781365937 0.0020402464906278317 0.003697267518056632
503 0.0014144555224067975 -0.001185875766515979 -0.003842368319193115
422 0.0011128218760003725 0.008868227263564666 -0.010034476615781624
499 0.008264612680747574 0.006820950335274959 0.0017864596661464438
505 0.012070824100105964 0.005247782519032649 -0.0004528910413208982
434 0.00669420993628107 0.00952321340021323 -0.002611844075397953
582 0.007749993293738891 -0.009674506556917328 -0.018704551375841146
557 0.0017189519955410704 -0.0007273449531941025 -0.002969712207606441
225 0.010994217896994472 0.01043324111458185 0.016313892362434794
393 0.0011112884197435864 -0.00032782322068842043 -0.001101955096429219
560 -0.0008998620377700522 -0.0004925804509460979 -0.004223275846909099
435 -0.0010852827309521446 0.0010058563687058496 0.0017224547534476875
295 -0.006183916344005465 -0.0013592850744985484 0.00035215800623082384
87 0.0024552610087592167 -0.020370019093509186 0.00026212859817786107
502 -0.0009599223613414125 0.011130000506109142 -0.0011051309193220945
431 -0.0003025463943973456 -0.015672958344983372 0.0055706502646449205
424 0.0028513778810161368 0.0024574740965177524 0.0007324886571198972
85 0.004632623768370553 -0.003761417760708213 0.0007065034584949609
111 0.002479127041696254 -0.00607958961594995 0.008352056217116936
463 -0.029199827796205682 -0.031091768263776614 0.028709924996588795
19 0.019795321955853474 -0.004191755066332354 -0.008552890082562794
577 -0.002575776322183253 0.002743446036304847 -0.0023450214484190593
578 -0.008639552067345325 0.011438197499788747 0.0074846325996013935
574 0.0035764480117874346 -0.0053794567537690414 0.002809071720238754
296 -0.011270054003531134 0.016481023052565425 0.02333346162176722
29 -0.003490088731522502 -0.0066160807304477525 0.004072006493538484
298 0.006961778552078386 0.00965633016979682 -0.004983617936540901
219 0.00759213498311829 -0.006465366180464648 0.0008257992616181083
551 -0.00797427724913717 -0.030295651784907607 -0.004034001496410315
267 0.00042914237015853884 -0.005490959277467735 -0.0034414765995116944
395 -0.01025678957211234 -0.0041332173940401345 0.020161552146381236
550 0.0013499564213045963 -0.02095924983078497 0.0036329281240774563
441 0.04086963132063362 -0.0016390972943022266 0.014871688210234183
442 0.00775024345121796 -0.007364677127964117 0.002444044549226839
579 0.006911448933725412 0.015501935665049326 0.007755832992850409
261 -0.013934892514796241 0.008345639001115056 -0.010906621995889338
266 0.02015071571930847 0.009900569841545241 0.015814705845619927
110 -0.009729464355360278 0.007962338786088211 -0.006899268962568625
303 -0.005409923003255862 0.03213893071911589 0.028422476197897627
440 -0.012025580933141967 0.0005806969993717825 -0.005197789597144754
436 -0.011806080290455566 0.0030201766719367066 -0.00659223825356182
264 -0.012115616219259315 0.022431017777546147 -0.041979572726448804
302 -0.0027161470781870045 0.005372448065772889 0.006465602677305978
553 -0.00046294843454364854 -0.0028425791171514414 0.006025766781172521
262 0.010424791906589891 -0.0006070606722398152 0.002252847672613473
299 -0.010612012157384684 -0.00794512186626012 0.002934804968739013
556 0.0018133961366592788 -0.006474668656153637 -0.007508766900162982
89 -0.0018510613235084516 0.002472498787469916 0.00270637848334319
34 0.009476064241087401 -0.0005415151188403554 0.025565010881028437
263 0.0013339257749851831 -0.00031669394806126236 -0.0014532626789484657
259 0.0004076373363491189 0.021578886321375758 0.015204973984825995
423 -0.0010243970282195483 -0.0009460251380353268 0.002268679772923677
268 -0.0028177230687948525 -0.006537856469533813 0.005379930770502556
195 0.002088161498383963 -0.0009302454633940641 0.008689064746295402
420 0.00867389201570523 -0.0162082164711737 0.01089416139000601
554 -0.006154455601171355 -0.0013059270769246597 -0.0047937797491568665
555 0.011988669440708746 -0.0035579832483304806 -0.0024865462256189875
433 -0.006297414687539907 0.0039036786302567975 0.020575128041942083
104 0.0038618995294717184 0.016292960258450395 -0.03169735013225367
437 0.012867011689962097 0.020932919704789627 0.00212639454353464
427 -0.02370928798408016 0.0010044518117215745 -0.01286928356190542
167 -0.028677629222622354 0.008100686951800024 0.00334372468620123
36 -0.003029030179868167 0.004167028621746603 -0.00901052195378677
23 -0.005297293478258483 0.0040497401745951435 0.006969362401201175

Bonds

1 4 447 281
2 5 447 446
3 5 447 450
4 5 447 448
5 15 351 173
6 17 286 285
7 13 349 354
8 4 345 349
9 1 345 403
10 5 345 346
11 5 345 340
12 13 47 174
13 14 47 45
14 13 49 47
15 14 49 50
16 13 344 349
17 14 344 341
18 13 347 344
19 13 347 351
20 5 403 401
21 5 403 407
22 5 403 399
23 13 177 49
24 13 177 124
25 1 162 165
26 5 162 160
27 5 162 161
28 5 162 159
29 4 165 347
30 5 165 164
31 5 165 166
32 17 171 173
33 6 41 285
34 2 41 43
35 5 41 40
36 5 41 42
37 16 174 169
38 13 174 176
39 14 124 127
40 13 176 124
41 14 176 120
42 8 168 169
43 2 168 43
44 5 168 172
45 5 168 167
46 13 356 351
47 13 354 356
48 15 354 357
49 17 359 357
50 10 43 39
51 9 43 170
52 13 15 13
53 4 361 356
54 5 361 363
55 5 361 360
56 5 361 362
57 13 283 281
58 15 283 285
59 18 114 466
60 18 449 39
61 13 281 278
62 4 56 15
63 4 56 177
64 5 56 132
65 5 56 57
66 14 180 179
67 13 17 15
68 14 17 18
69 8 532 534
70 2 532 531
71 5 532 530
72 5 532 508
73 10 531 527
74 9 531 533
75 13 13 11
76 14 13 53
77 5 545 576
78 5 545 572
79 5 545 546
80 12 123 291
81 11 123 292
82 4 282 280
83 1 282 287
84 5 282 279
85 5 282 483
86 13 280 283
87 18 227 527
88 10 472 466
89 9 472 474
90 18 329 564
91 6 223 357
92 2 223 379
93 5 223 224
94 5 223 222
95 13 128 180
96 14 128 126
97 15 278 116
98 13 277 280
99 14 277 275
100 2 528 531
101 6 528 116
102 5 528 507
103 5 528 529
104 6 269 116
105 2 269 472
106 5 269 270
107 5 269 271
108 13 276 277
109 13 276 278
110 18 355 193
111 1 113 274
112 5 113 115
113 5 113 158
114 5 113 157
115 4 274 276
116 5 274 117
117 5 274 273
118 10 379 193
119 9 379 378
120 8 430 380
121 2 430 379
122 5 430 428
123 5 430 432
124 14 11 10
125 16 384 380
126 13 384 388
127 13 388 392
128 14 388 387
129 14 392 335
130 13 386 384
131 14 386 382
132 18 37 370
133 16 12 9
134 13 12 14
135 13 12 11
136 8 487 484
137 3 487 490
138 5 487 485
139 5 487 491
140 5 287 289
141 5 287 288
142 5 287 489
143 3 492 490
144 7 492 486
145 5 492 493
146 5 492 494
147 12 490 486
148 11 490 488
149 3 121 123
150 8 121 241
151 5 121 119
152 5 121 122
153 13 14 17
154 14 14 16
155 13 453 575
156 14 453 452
157 6 84 317
158 2 84 86
159 5 84 82
160 5 84 552
161 8 142 143
162 2 142 140
163 5 142 144
164 5 142 141
165 18 73 139
166 10 140 139
167 9 140 138
168 17 156 327
169 4 63 64
170 1 63 545
171 5 63 98
172 5 63 539
173 4 152 322
174 5 152 154
175 5 152 151
176 5 152 150
177 17 540 542
178 17 464 317
179 17 547 542
180 15 65 542
181 13 65 67
182 13 64 65
183 13 67 70
184 4 69 67
185 5 69 46
186 5 69 44
187 5 69 48
188 15 70 72
189 13 66 64
190 14 66 100
191 13 68 66
192 13 68 70
193 17 74 72
194 6 257 72
195 2 257 140
196 5 257 254
197 5 257 258
198 13 322 325
199 13 320 322
200 15 320 317
201 15 325 327
202 13 326 323
203 13 326 325
204 13 321 320
205 13 323 321
206 14 323 324
207 6 569 327
208 2 569 568
209 5 569 567
210 5 569 451
211 18 318 559
212 10 86 559
213 9 86 88
214 16 146 143
215 13 146 149
216 13 22 23
217 14 22 20
218 4 328 326
219 5 328 385
220 5 328 332
221 6 105 95
222 2 105 108
223 5 105 106
224 5 105 104
225 13 109 112
226 15 109 155
227 4 92 112
228 5 92 93
229 5 92 94
230 5 92 38
231 13 217 424
232 14 217 220
233 4 71 68
234 5 71 75
235 5 71 101
236 16 575 573
237 13 575 577
238 13 255 217
239 14 255 256
240 13 24 148
241 14 24 28
242 8 504 501
243 2 504 108
244 5 504 506
245 5 504 582
246 8 367 369
247 2 367 368
248 5 367 365
249 5 367 364
250 18 96 107
251 14 32 535
252 10 568 564
253 9 568 565
254 10 4 1
255 9 4 5
256 8 571 573
257 2 571 568
258 5 571 570
259 5 571 566
260 17 153 155
261 18 97 1
262 1 383 328
263 5 383 512
264 5 383 381
265 5 383 389
266 10 108 107
267 9 108 19
268 13 188 216
269 14 188 184
270 13 33 32
271 14 33 36
272 13 148 146
273 14 148 145
274 1 204 71
275 5 204 203
276 5 204 202
277 5 204 205
278 10 368 370
279 9 368 366
280 16 371 369
281 13 371 188
282 13 374 371
283 14 374 376
284 15 91 95
285 2 3 4
286 6 3 95
287 5 3 99
288 5 3 2
289 6 372 155
290 2 372 368
291 5 372 373
292 5 372 375
293 14 216 215
294 8 8 9
295 2 8 4
296 5 8 7
297 5 8 6
298 16 26 534
299 13 26 22
300 13 26 32
301 13 425 374
302 14 425 426
303 13 218 425
304 13 218 216
305 13 112 91
306 13 470 585
307 14 470 468
308 13 585 516
309 14 585 584
310 13 516 333
311 13 477 479
312 14 477 562
313 13 475 477
314 13 475 478
315 12 521 519
316 11 521 525
317 3 520 521
318 8 520 358
319 5 520 518
320 5 520 524
321 7 523 519
322 3 523 521
323 5 523 522
324 5 523 526
325 4 515 516
326 4 515 475
327 5 515 513
328 5 515 514
329 13 333 331
330 14 333 272
331 13 233 235
332 14 478 476
333 16 353 358
334 13 353 350
335 13 353 352
336 13 185 136
337 13 185 180
338 16 469 467
339 13 469 470
340 13 469 331
341 14 331 330
342 4 229 233
343 4 229 231
344 5 229 228
345 5 229 226
346 13 231 201
347 13 231 445
348 13 480 478
349 14 480 481
350 13 479 482
351 14 479 563
352 4 187 186
353 4 187 185
354 5 187 189
355 5 187 183
356 10 247 243
357 9 247 246
358 13 350 343
359 14 350 517
360 13 201 404
361 14 201 237
362 16 482 484
363 13 482 480
364 13 136 135
365 14 136 191
366 14 352 290
367 13 343 342
368 14 343 339
369 18 175 243
370 13 190 186
371 14 190 192
372 13 232 233
373 14 232 230
374 13 235 239
375 14 235 236
376 6 244 173
377 2 244 247
378 5 244 245
379 5 244 242
380 13 456 453
381 14 456 457
382 14 445 444
383 13 580 456
384 13 580 578
385 4 581 417
386 4 581 580
387 5 581 460
388 5 581 549
389 7 210 213
390 3 210 211
391 5 210 207
392 5 210 212
393 8 473 467
394 2 473 472
395 5 473 471
396 5 473 443
397 7 311 313
398 3 311 312
399 5 311 308
400 5 311 314
401 12 312 313
402 11 312 315
403 13 135 130
404 14 135 137
405 14 239 240
406 16 238 241
407 13 238 234
408 13 238 239
409 3 310 312
410 8 310 306
411 5 310 309
412 5 310 377
413 12 211 213
414 11 211 214
415 3 208 211
416 8 208 413
417 5 208 206
418 5 208 209
419 13 418 417
420 14 418 419
421 16 414 413
422 13 414 415
423 13 414 412
424 13 417 455
425 13 415 418
426 14 415 416
427 14 412 411
428 13 342 348
429 8 131 129
430 3 131 251
431 5 131 134
432 5 131 133
433 13 455 412
434 14 455 454
435 4 337 342
436 4 337 334
437 5 337 338
438 5 337 336
439 13 234 232
440 14 234 118
441 16 130 129
442 13 130 128
443 13 348 352
444 14 348 284
445 13 390 386
446 14 390 391
447 13 334 390
448 13 334 392
449 16 304 306
450 13 304 301
451 13 304 305
452 13 439 393
453 14 439 441
454 14 305 307
455 13 301 298
456 14 301 300
457 7 294 291
458 3 294 123
459 5 294 297
460 5 294 249
461 12 251 125
462 11 251 248
463 3 250 251
464 7 250 125
465 5 250 103
466 5 250 102
467 13 404 400
468 14 404 409
469 13 60 190
470 14 60 61
471 13 186 182
472 5 510 583
473 5 510 509
474 5 510 511
475 3 544 405
476 7 544 543
477 5 544 548
478 5 544 541
479 3 55 79
480 8 55 59
481 5 55 54
482 5 55 52
483 12 405 543
484 11 405 538
485 16 58 59
486 13 58 60
487 13 58 181
488 13 182 181
489 14 182 178
490 14 181 51
491 8 406 402
492 3 406 405
493 5 406 410
494 5 406 408
495 16 400 402
496 13 400 397
497 13 397 445
498 14 397 396
499 7 196 199
500 3 196 197
501 5 196 198
502 5 196 194
503 12 79 77
504 11 79 81
505 7 78 77
506 3 78 79
507 5 78 80
508 5 78 76
509 8 561 558
510 2 561 86
511 5 561 90
512 5 561 537
513 13 498 497
514 14 498 496
515 14 497 495
516 12 197 199
517 11 197 200
518 16 500 501
519 13 500 498
520 4 31 30
521 4 31 29
522 5 31 35
523 5 31 34
524 13 149 25
525 14 149 147
526 14 25 27
527 8 252 461
528 2 252 247
529 5 252 459
530 5 252 253
531 4 319 321
532 1 319 510
533 5 319 316
534 5 319 465
535 16 462 461
536 13 462 255
537 13 462 421
538 13 438 435
539 14 438 437
540 13 30 33
541 14 421 420
542 13 503 500
543 14 503 505
544 13 499 502
545 13 499 497
546 4 434 436
547 4 434 555
548 5 434 431
549 5 434 429
550 14 557 440
551 14 393 395
552 13 560 557
553 14 560 536
554 13 435 436
555 14 435 433
556 4 295 299
557 4 295 499
558 5 295 293
559 5 295 458
560 13 502 503
561 14 502 463
562 13 424 423
563 1 85 89
564 5 85 110
565 5 85 83
566 5 85 87
567 13 111 268
568 13 111 91
569 13 577 578
570 14 577 574
571 14 578 579
572 13 29 24
573 13 29 25
574 13 298 299
575 14 298 296
576 4 219 424
577 4 219 218
578 5 219 221
579 5 219 427
580 13 267 109
581 16 442 394
582 13 442 438
583 13 442 393
584 13 436 439
585 13 302 305
586 14 302 303
587 13 553 554
588 14 553 550
589 4 262 267
590 1 262 263
591 5 262 261
592 5 262 260
593 13 299 302
594 16 556 558
595 13 556 560
596 4 89 111
597 5 89 225
598 5 89 62
599 5 263 264
600 5 263 259
601 5 263 265
602 13 423 421
603 14 423 422
604 13 268 267
605 14 268 266
606 3 195 197
607 8 195 394
608 5 195 163
609 5 195 398
610 13 554 556
611 14 554 551
612 13 555 553
613 13 555 557
614 13 23 30
615 14 23 21

Angles

1 23 281 447 446
2 23 281 447 450
3 23 281 447 448
4 29 446 447 450
5 29 446 447 448
6 29 450 447 448
7 24 347 351 356
8 26 356 351 173
9 26 347 351 173
10 11 41 285 283
11 28 283 285 286
12 12 41 285 286
13 9 345 349 344
14 24 344 349 354
15 9 345 349 354
16 1 403 345 349
17 23 349 345 346
18 23 349 345 340
19 2 403 345 346
20 29 346 345 340
21 2 403 345 340
22 24 49 47 174
23 25 49 47 45
24 25 174 47 45
25 24 177 49 47
26 25 177 49 50
27 25 47 49 50
28 24 347 344 349
29 25 347 344 341
30 25 349 344 341
31 9 165 347 344
32 9 165 347 351
33 24 344 347 351
34 2 345 403 401
35 2 345 403 407
36 2 345 403 399
37 29 401 403 407
38 29 401 403 399
39 29 407 403 399
40 9 56 177 49
41 9 56 177 124
42 24 49 177 124
43 11 244 173 351
44 28 351 173 171
45 12 244 173 171
46 2 165 162 160
47 29 160 162 161
48 29 160 162 159
49 2 165 162 161
50 29 161 162 159
51 2 165 162 159
52 1 162 165 347
53 2 162 165 164
54 2 162 165 166
55 23 347 165 164
56 29 164 165 166
57 23 347 165 166
58 14 168 169 174
59 16 43 41 285
60 30 40 41 285
61 30 42 41 285
62 15 43 41 40
63 29 40 41 42
64 15 43 41 42
65 27 47 174 169
66 24 47 174 176
67 27 176 174 169
68 24 177 124 176
69 25 177 124 127
70 25 176 124 127
71 24 174 176 124
72 25 174 176 120
73 25 124 176 120
74 17 43 168 169
75 15 43 168 172
76 15 43 168 167
77 32 172 168 169
78 29 172 168 167
79 32 167 168 169
80 9 361 356 354
81 24 354 356 351
82 9 361 356 351
83 24 349 354 356
84 26 356 354 357
85 26 349 354 357
86 18 43 39 449
87 11 223 357 354
88 28 354 357 359
89 12 223 357 359
90 3 41 43 168
91 5 41 43 39
92 4 41 43 170
93 4 168 43 170
94 33 170 43 39
95 5 168 43 39
96 9 56 15 17
97 24 17 15 13
98 9 56 15 13
99 23 356 361 363
100 23 356 361 360
101 23 356 361 362
102 29 363 361 360
103 29 363 361 362
104 29 360 361 362
105 24 280 283 281
106 26 281 283 285
107 26 280 283 285
108 9 447 281 283
109 24 283 281 278
110 9 447 281 278
111 22 15 56 177
112 23 15 56 132
113 23 15 56 57
114 23 177 56 132
115 29 132 56 57
116 23 177 56 57
117 24 185 180 128
118 25 185 180 179
119 25 128 180 179
120 24 14 17 15
121 25 14 17 18
122 25 15 17 18
123 17 531 532 534
124 15 531 532 530
125 15 531 532 508
126 32 530 532 534
127 29 530 532 508
128 32 508 532 534
129 3 528 531 532
130 5 528 531 527
131 4 528 531 533
132 4 532 531 533
133 33 533 531 527
134 5 532 531 527
135 18 531 527 227
136 24 15 13 11
137 25 15 13 53
138 25 11 13 53
139 2 63 545 576
140 2 63 545 572
141 2 63 545 546
142 29 576 545 572
143 29 576 545 546
144 29 572 545 546
145 18 472 466 114
146 6 294 123 121
147 8 294 123 291
148 7 294 123 292
149 7 121 123 292
150 34 292 123 291
151 8 121 123 291
152 1 287 282 280
153 23 280 282 279
154 23 280 282 483
155 2 287 282 279
156 29 279 282 483
157 2 287 282 483
158 9 282 280 277
159 24 277 280 283
160 9 282 280 283
161 3 269 472 473
162 5 269 472 466
163 4 269 472 474
164 4 473 472 474
165 33 474 472 466
166 5 473 472 466
167 16 379 223 357
168 30 224 223 357
169 30 222 223 357
170 15 379 223 224
171 29 224 223 222
172 15 379 223 222
173 24 130 128 180
174 25 130 128 126
175 25 180 128 126
176 24 276 278 281
177 26 276 278 116
178 26 281 278 116
179 24 276 277 280
180 25 276 277 275
181 25 280 277 275
182 11 528 116 278
183 11 269 116 278
184 10 528 116 269
185 16 531 528 116
186 30 507 528 116
187 30 529 528 116
188 15 531 528 507
189 29 507 528 529
190 15 531 528 529
191 16 472 269 116
192 30 270 269 116
193 30 271 269 116
194 15 472 269 270
195 29 270 269 271
196 15 472 269 271
197 9 274 276 277
198 9 274 276 278
199 24 277 276 278
200 2 274 113 115
201 29 115 113 158
202 29 115 113 157
203 2 274 113 158
204 29 158 113 157
205 2 274 113 157
206 1 113 274 276
207 2 113 274 117
208 2 113 274 273
209 23 276 274 117
210 29 117 274 273
211 23 276 274 273
212 18 379 193 355
213 3 223 379 430
214 5 223 379 193
215 4 223 379 378
216 4 430 379 378
217 33 378 379 193
218 5 430 379 193
219 17 379 430 380
220 15 379 430 428
221 15 379 430 432
222 32 428 430 380
223 29 428 430 432
224 32 432 430 380
225 24 12 11 13
226 25 12 11 10
227 25 13 11 10
228 14 430 380 384
229 27 386 384 380
230 24 386 384 388
231 27 388 384 380
232 24 384 388 392
233 25 384 388 387
234 25 392 388 387
235 24 334 392 388
236 25 334 392 335
237 25 388 392 335
238 24 390 386 384
239 25 390 386 382
240 25 384 386 382
241 18 368 370 37
242 14 8 9 12
243 27 14 12 9
244 27 11 12 9
245 24 14 12 11
246 14 532 534 26
247 21 490 487 484
248 32 485 487 484
249 32 491 487 484
250 19 490 487 485
251 29 485 487 491
252 19 490 487 491
253 2 282 287 289
254 2 282 287 288
255 2 282 287 489
256 29 289 287 288
257 29 289 287 489
258 29 288 287 489
259 13 294 291 123
260 13 250 125 251
261 14 131 129 130
262 20 490 492 486
263 19 490 492 493
264 19 490 492 494
265 31 493 492 486
266 29 493 492 494
267 31 494 492 486
268 6 487 490 492
269 8 487 490 486
270 7 487 490 488
271 7 492 490 488
272 34 488 490 486
273 8 492 490 486
274 21 123 121 241
275 19 123 121 119
276 19 123 121 122
277 32 119 121 241
278 29 119 121 122
279 32 122 121 241
280 24 12 14 17
281 25 12 14 16
282 25 17 14 16
283 24 456 453 575
284 25 456 453 452
285 25 575 453 452
286 16 86 84 317
287 30 82 84 317
288 30 552 84 317
289 15 86 84 82
290 29 82 84 552
291 15 86 84 552
292 18 86 559 318
293 17 140 142 143
294 15 140 142 144
295 15 140 142 141
296 32 144 142 143
297 29 144 142 141
298 32 141 142 143
299 18 140 139 73
300 3 257 140 142
301 5 257 140 139
302 4 257 140 138
303 4 142 140 138
304 33 138 140 139
305 5 142 140 139
306 1 545 63 64
307 23 64 63 98
308 23 64 63 539
309 2 545 63 98
310 29 98 63 539
311 2 545 63 539
312 23 322 152 154
313 23 322 152 151
314 23 322 152 150
315 29 154 152 151
316 29 154 152 150
317 29 151 152 150
318 26 64 65 542
319 24 64 65 67
320 26 67 65 542
321 28 65 542 547
322 28 65 542 540
323 35 547 542 540
324 9 63 64 66
325 24 66 64 65
326 9 63 64 65
327 9 69 67 65
328 24 65 67 70
329 9 69 67 70
330 23 67 69 46
331 23 67 69 44
332 23 67 69 48
333 29 46 69 44
334 29 46 69 48
335 29 44 69 48
336 24 68 70 67
337 26 68 70 72
338 26 67 70 72
339 24 68 66 64
340 25 68 66 100
341 25 64 66 100
342 11 257 72 70
343 28 70 72 74
344 12 257 72 74
345 9 71 68 66
346 9 71 68 70
347 24 66 68 70
348 16 140 257 72
349 30 254 257 72
350 30 258 257 72
351 15 140 257 254
352 29 254 257 258
353 15 140 257 258
354 11 569 327 325
355 28 325 327 156
356 12 569 327 156
357 9 152 322 320
358 24 320 322 325
359 9 152 322 325
360 24 321 320 322
361 26 322 320 317
362 26 321 320 317
363 24 326 325 322
364 26 326 325 327
365 26 322 325 327
366 11 84 317 320
367 28 320 317 464
368 12 84 317 464
369 9 328 326 323
370 9 328 326 325
371 24 323 326 325
372 9 319 321 323
373 24 323 321 320
374 9 319 321 320
375 24 326 323 321
376 25 326 323 324
377 25 321 323 324
378 16 568 569 327
379 30 567 569 327
380 30 451 569 327
381 15 568 569 567
382 29 567 569 451
383 15 568 569 451
384 14 142 143 146
385 3 84 86 561
386 5 84 86 559
387 4 84 86 88
388 4 561 86 88
389 33 88 86 559
390 5 561 86 559
391 27 148 146 143
392 24 148 146 149
393 27 149 146 143
394 18 568 564 329
395 11 372 155 109
396 28 109 155 153
397 12 372 155 153
398 24 26 22 23
399 25 26 22 20
400 25 23 22 20
401 14 367 369 371
402 1 383 328 326
403 2 383 328 385
404 2 383 328 332
405 23 326 328 385
406 29 385 328 332
407 23 326 328 332
408 16 108 105 95
409 30 106 105 95
410 30 104 105 95
411 15 108 105 106
412 29 106 105 104
413 15 108 105 104
414 24 267 109 112
415 26 267 109 155
416 26 112 109 155
417 23 112 92 93
418 23 112 92 94
419 23 112 92 38
420 29 93 92 94
421 29 93 92 38
422 29 94 92 38
423 24 255 217 424
424 25 255 217 220
425 25 424 217 220
426 1 204 71 68
427 2 204 71 75
428 2 204 71 101
429 23 68 71 75
430 29 75 71 101
431 23 68 71 101
432 14 571 573 575
433 27 453 575 573
434 24 453 575 577
435 27 577 575 573
436 24 462 255 217
437 25 462 255 256
438 25 217 255 256
439 24 29 24 148
440 25 29 24 28
441 25 148 24 28
442 17 108 504 501
443 15 108 504 506
444 15 108 504 582
445 32 506 504 501
446 29 506 504 582
447 32 582 504 501
448 17 368 367 369
449 15 368 367 365
450 15 368 367 364
451 32 365 367 369
452 29 365 367 364
453 32 364 367 369
454 18 4 1 97
455 18 108 107 96
456 24 26 32 33
457 25 26 32 535
458 25 33 32 535
459 3 569 568 571
460 5 569 568 564
461 4 569 568 565
462 4 571 568 565
463 33 565 568 564
464 5 571 568 564
465 3 3 4 8
466 5 3 4 1
467 4 3 4 5
468 4 8 4 5
469 33 5 4 1
470 5 8 4 1
471 17 568 571 573
472 15 568 571 570
473 15 568 571 566
474 32 570 571 573
475 29 570 571 566
476 32 566 571 573
477 2 328 383 512
478 29 512 383 381
479 29 512 383 389
480 2 328 383 381
481 29 381 383 389
482 2 328 383 389
483 3 105 108 504
484 5 105 108 107
485 4 105 108 19
486 4 504 108 19
487 33 19 108 107
488 5 504 108 107
489 24 371 188 216
490 25 371 188 184
491 25 216 188 184
492 24 30 33 32
493 25 30 33 36
494 25 32 33 36
495 24 24 148 146
496 25 24 148 145
497 25 146 148 145
498 2 71 204 203
499 29 203 204 202
500 29 203 204 205
501 2 71 204 202
502 29 202 204 205
503 2 71 204 205
504 3 372 368 367
505 5 372 368 370
506 4 372 368 366
507 4 367 368 366
508 33 366 368 370
509 5 367 368 370
510 27 374 371 369
511 24 374 371 188
512 27 188 371 369
513 24 425 374 371
514 25 425 374 376
515 25 371 374 376
516 24 111 91 112
517 26 111 91 95
518 26 112 91 95
519 16 4 3 95
520 30 99 3 95
521 30 2 3 95
522 15 4 3 99
523 29 99 3 2
524 15 4 3 2
525 16 368 372 155
526 30 373 372 155
527 30 375 372 155
528 15 368 372 373
529 29 373 372 375
530 15 368 372 375
531 11 3 95 91
532 11 105 95 91
533 10 3 95 105
534 24 218 216 188
535 25 218 216 215
536 25 188 216 215
537 17 4 8 9
538 15 4 8 7
539 15 4 8 6
540 32 7 8 9
541 29 7 8 6
542 32 6 8 9
543 27 22 26 534
544 27 32 26 534
545 24 22 26 32
546 24 218 425 374
547 25 218 425 426
548 25 374 425 426
549 9 219 218 425
550 9 219 218 216
551 24 425 218 216
552 9 92 112 109
553 24 109 112 91
554 9 92 112 91
555 13 78 77 79
556 24 469 470 585
557 25 469 470 468
558 25 585 470 468
559 24 470 585 516
560 25 470 585 584
561 25 516 585 584
562 9 515 516 585
563 24 585 516 333
564 9 515 516 333
565 24 475 477 479
566 25 475 477 562
567 25 479 477 562
568 9 515 475 477
569 9 515 475 478
570 24 477 475 478
571 13 523 519 521
572 6 523 521 520
573 8 523 521 519
574 7 523 521 525
575 7 520 521 525
576 34 525 521 519
577 8 520 521 519
578 21 521 520 358
579 19 521 520 518
580 19 521 520 524
581 32 518 520 358
582 29 518 520 524
583 32 524 520 358
584 14 520 358 353
585 31 522 523 519
586 19 521 523 522
587 29 522 523 526
588 31 526 523 519
589 19 521 523 526
590 20 521 523 519
591 22 516 515 475
592 23 516 515 513
593 23 516 515 514
594 23 475 515 513
595 29 513 515 514
596 23 475 515 514
597 24 516 333 331
598 25 516 333 272
599 25 331 333 272
600 9 229 233 232
601 24 232 233 235
602 9 229 233 235
603 24 475 478 480
604 25 475 478 476
605 25 480 478 476
606 27 350 353 358
607 27 352 353 358
608 24 350 353 352
609 9 187 185 136
610 9 187 185 180
611 24 136 185 180
612 27 470 469 467
613 27 331 469 467
614 24 470 469 331
615 24 469 331 333
616 25 469 331 330
617 25 333 331 330
618 22 233 229 231
619 23 233 229 228
620 23 233 229 226
621 23 231 229 228
622 29 228 229 226
623 23 231 229 226
624 9 229 231 201
625 9 229 231 445
626 24 201 231 445
627 24 482 480 478
628 25 482 480 481
629 25 478 480 481
630 24 477 479 482
631 25 477 479 563
632 25 482 479 563
633 22 186 187 185
634 23 186 187 189
635 23 186 187 183
636 23 185 187 189
637 29 189 187 183
638 23 185 187 183
639 3 244 247 252
640 5 244 247 243
641 4 244 247 246
642 4 252 247 246
643 33 246 247 243
644 5 252 247 243
645 24 353 350 343
646 25 353 350 517
647 25 343 350 517
648 24 231 201 404
649 25 231 201 237
650 25 404 201 237
651 27 479 482 484
652 24 479 482 480
653 27 480 482 484
654 24 185 136 135
655 25 185 136 191
656 25 135 136 191
657 14 473 467 469
658 24 353 352 348
659 25 353 352 290
660 25 348 352 290
661 18 247 243 175
662 24 350 343 342
663 25 350 343 339
664 25 342 343 339
665 24 60 190 186
666 25 60 190 192
667 25 186 190 192
668 24 234 232 233
669 25 234 232 230
670 25 233 232 230
671 24 233 235 239
672 25 233 235 236
673 25 239 235 236
674 16 247 244 173
675 30 245 244 173
676 30 242 244 173
677 15 247 244 245
678 29 245 244 242
679 15 247 244 242
680 24 580 456 453
681 25 580 456 457
682 25 453 456 457
683 24 231 445 397
684 25 231 445 444
685 25 397 445 444
686 9 581 580 456
687 9 581 580 578
688 24 456 580 578
689 22 417 581 580
690 23 417 581 460
691 23 417 581 549
692 23 580 581 460
693 29 460 581 549
694 23 580 581 549
695 31 207 210 213
696 19 211 210 207
697 29 207 210 212
698 31 212 210 213
699 19 211 210 212
700 20 211 210 213
701 17 472 473 467
702 15 472 473 471
703 15 472 473 443
704 32 471 473 467
705 29 471 473 443
706 32 443 473 467
707 31 308 311 313
708 19 312 311 308
709 29 308 311 314
710 31 314 311 313
711 19 312 311 314
712 20 312 311 313
713 6 311 312 310
714 8 311 312 313
715 7 311 312 315
716 7 310 312 315
717 34 315 312 313
718 8 310 312 313
719 13 311 313 312
720 24 136 135 130
721 25 136 135 137
722 25 130 135 137
723 13 210 213 211
724 24 238 239 235
725 25 238 239 240
726 25 235 239 240
727 27 234 238 241
728 27 239 238 241
729 24 234 238 239
730 14 121 241 238
731 21 312 310 306
732 19 312 310 309
733 19 312 310 377
734 32 309 310 306
735 29 309 310 377
736 32 377 310 306
737 6 210 211 208
738 8 210 211 213
739 7 210 211 214
740 7 208 211 214
741 34 214 211 213
742 8 208 211 213
743 21 211 208 413
744 19 211 208 206
745 19 211 208 209
746 32 206 208 413
747 29 206 208 209
748 32 209 208 413
749 24 415 418 417
750 25 415 418 419
751 25 417 418 419
752 27 415 414 413
753 27 412 414 413
754 24 415 414 412
755 9 581 417 418
756 24 418 417 455
757 9 581 417 455
758 24 414 415 418
759 25 414 415 416
760 25 418 415 416
761 14 208 413 414
762 24 414 412 455
763 25 414 412 411
764 25 455 412 411
765 9 337 342 343
766 24 343 342 348
767 9 337 342 348
768 13 492 486 490
769 21 251 131 129
770 32 134 131 129
771 32 133 131 129
772 19 251 131 134
773 29 134 131 133
774 19 251 131 133
775 24 417 455 412
776 25 417 455 454
777 25 412 455 454
778 22 342 337 334
779 23 342 337 338
780 23 342 337 336
781 23 334 337 338
782 29 338 337 336
783 23 334 337 336
784 24 238 234 232
785 25 238 234 118
786 25 232 234 118
787 27 135 130 129
788 24 135 130 128
789 27 128 130 129
790 24 342 348 352
791 25 342 348 284
792 25 352 348 284
793 24 334 390 386
794 25 334 390 391
795 25 386 390 391
796 9 337 334 390
797 9 337 334 392
798 24 390 334 392
799 14 310 306 304
800 27 301 304 306
801 27 305 304 306
802 24 301 304 305
803 24 436 439 393
804 25 436 439 441
805 25 393 439 441
806 24 304 305 302
807 25 304 305 307
808 25 302 305 307
809 24 304 301 298
810 25 304 301 300
811 25 298 301 300
812 31 297 294 291
813 19 123 294 297
814 29 297 294 249
815 31 249 294 291
816 19 123 294 249
817 20 123 294 291
818 6 131 251 250
819 8 131 251 125
820 7 131 251 248
821 7 250 251 248
822 34 248 251 125
823 8 250 251 125
824 20 251 250 125
825 19 251 250 103
826 19 251 250 102
827 31 103 250 125
828 29 103 250 102
829 31 102 250 125
830 14 487 484 482
831 14 504 501 500
832 24 201 404 400
833 25 201 404 409
834 25 400 404 409
835 24 58 60 190
836 25 58 60 61
837 25 190 60 61
838 9 187 186 190
839 24 190 186 182
840 9 187 186 182
841 2 319 510 583
842 2 319 510 509
843 2 319 510 511
844 29 583 510 509
845 29 583 510 511
846 29 509 510 511
847 13 544 543 405
848 20 405 544 543
849 19 405 544 548
850 19 405 544 541
851 31 548 544 543
852 29 548 544 541
853 31 541 544 543
854 21 79 55 59
855 19 79 55 54
856 19 79 55 52
857 32 54 55 59
858 29 54 55 52
859 32 52 55 59
860 6 406 405 544
861 8 406 405 543
862 7 406 405 538
863 7 544 405 538
864 34 538 405 543
865 8 544 405 543
866 27 60 58 59
867 27 181 58 59
868 24 60 58 181
869 14 55 59 58
870 24 186 182 181
871 25 186 182 178
872 25 181 182 178
873 24 58 181 182
874 25 58 181 51
875 25 182 181 51
876 21 405 406 402
877 32 410 406 402
878 32 408 406 402
879 19 405 406 410
880 29 410 406 408
881 19 405 406 408
882 14 406 402 400
883 27 404 400 402
884 24 404 400 397
885 27 397 400 402
886 24 400 397 445
887 25 400 397 396
888 25 445 397 396
889 31 198 196 199
890 19 197 196 198
891 29 198 196 194
892 31 194 196 199
893 19 197 196 194
894 20 197 196 199
895 13 196 199 197
896 6 78 79 55
897 8 78 79 77
898 7 78 79 81
899 7 55 79 81
900 34 81 79 77
901 8 55 79 77
902 31 80 78 77
903 19 79 78 80
904 29 80 78 76
905 31 76 78 77
906 19 79 78 76
907 20 79 78 77
908 17 86 561 558
909 15 86 561 90
910 15 86 561 537
911 32 90 561 558
912 29 90 561 537
913 32 537 561 558
914 24 500 498 497
915 25 500 498 496
916 25 497 498 496
917 24 499 497 498
918 25 499 497 495
919 25 498 497 495
920 6 196 197 195
921 8 196 197 199
922 7 196 197 200
923 7 195 197 200
924 34 200 197 199
925 8 195 197 199
926 27 503 500 501
927 24 503 500 498
928 27 498 500 501
929 22 30 31 29
930 23 30 31 35
931 23 30 31 34
932 23 29 31 35
933 29 35 31 34
934 23 29 31 34
935 24 146 149 25
936 25 146 149 147
937 25 25 149 147
938 24 29 25 149
939 25 29 25 27
940 25 149 25 27
941 14 561 558 556
942 17 247 252 461
943 15 247 252 459
944 15 247 252 253
945 32 459 252 461
946 29 459 252 253
947 32 253 252 461
948 1 510 319 321
949 23 321 319 316
950 23 321 319 465
951 2 510 319 316
952 29 316 319 465
953 2 510 319 465
954 14 252 461 462
955 14 195 394 442
956 27 255 462 461
957 27 421 462 461
958 24 255 462 421
959 24 442 438 435
960 25 442 438 437
961 25 435 438 437
962 9 31 30 23
963 24 23 30 33
964 9 31 30 33
965 24 462 421 423
966 25 462 421 420
967 25 423 421 420
968 24 502 503 500
969 25 502 503 505
970 25 500 503 505
971 9 295 499 502
972 9 295 499 497
973 24 502 499 497
974 22 436 434 555
975 23 436 434 431
976 23 436 434 429
977 23 555 434 431
978 29 431 434 429
979 23 555 434 429
980 24 555 557 560
981 25 555 557 440
982 25 560 557 440
983 24 442 393 439
984 25 442 393 395
985 25 439 393 395
986 24 556 560 557
987 25 556 560 536
988 25 557 560 536
989 24 438 435 436
990 25 438 435 433
991 25 436 435 433
992 22 299 295 499
993 23 299 295 293
994 23 299 295 458
995 23 499 295 293
996 29 293 295 458
997 23 499 295 458
998 24 499 502 503
999 25 499 502 463
1000 25 503 502 463
1001 9 219 424 217
1002 24 217 424 423
1003 9 219 424 423
1004 2 89 85 110
1005 29 110 85 83
1006 29 110 85 87
1007 2 89 85 83
1008 29 83 85 87
1009 2 89 85 87
1010 9 89 111 268
1011 9 89 111 91
1012 24 268 111 91
1013 24 575 577 578
1014 25 575 577 574
1015 25 578 577 574
1016 24 580 578 577
1017 25 580 578 579
1018 25 577 578 579
1019 9 31 29 24
1020 9 31 29 25
1021 24 24 29 25
1022 24 301 298 299
1023 25 301 298 296
1024 25 299 298 296
1025 22 424 219 218
1026 23 424 219 221
1027 23 424 219 427
1028 23 218 219 221
1029 29 221 219 427
1030 23 218 219 427
1031 9 262 267 268
1032 24 268 267 109
1033 9 262 267 109
1034 27 438 442 394
1035 27 393 442 394
1036 24 438 442 393
1037 9 434 436 435
1038 24 435 436 439
1039 9 434 436 439
1040 24 299 302 305
1041 25 299 302 303
1042 25 305 302 303
1043 24 555 553 554
1044 25 555 553 550
1045 25 554 553 550
1046 1 263 262 267
1047 23 267 262 261
1048 23 267 262 260
1049 2 263 262 261
1050 29 261 262 260
1051 2 263 262 260
1052 9 295 299 298
1053 24 298 299 302
1054 9 295 299 302
1055 27 554 556 558
1056 24 554 556 560
1057 27 560 556 558
1058 1 85 89 111
1059 2 85 89 225
1060 2 85 89 62
1061 23 111 89 225
1062 29 225 89 62
1063 23 111 89 62
1064 2 262 263 264
1065 2 262 263 259
1066 2 262 263 265
1067 29 264 263 259
1068 29 264 263 265
1069 29 259 263 265
1070 24 424 423 421
1071 25 424 423 422
1072 25 421 423 422
1073 24 111 268 267
1074 25 111 268 266
1075 25 267 268 266
1076 21 197 195 394
1077 19 197 195 163
1078 19 197 195 398
1079 32 163 195 394
1080 29 163 195 398
1081 32 398 195 394
1082 24 553 554 556
1083 25 553 554 551
1084 25 556 554 551
1085 9 434 555 553
1086 9 434 555 557
1087 24 553 555 557
1088 24 22 23 30
1089 25 22 23 21
1090 25 30 23 21

Dihedrals

1 26 347 351 356 354
2 30 356 351 173 171
3 30 347 351 173 171
4 15 41 285 283 281
5 31 283 285 41 40
6 31 283 285 41 42
7 15 41 285 283 280
8 10 345 349 344 347
9 25 344 349 345 346
10 25 344 349 345 340
11 26 344 349 354 356
12 11 345 349 344 341
13 27 354 349 344 341
14 25 354 349 345 346
15 25 354 349 345 340
16 10 345 349 354 356
17 12 345 349 354 357
18 28 344 349 354 357
19 1 403 345 349 344
20 23 349 345 403 401
21 23 349 345 403 407
22 23 349 345 403 399
23 1 403 345 349 354
24 33 346 345 403 401
25 33 346 345 403 407
26 33 346 345 403 399
27 33 340 345 403 401
28 33 340 345 403 407
29 33 340 345 403 399
30 29 49 47 174 169
31 26 49 47 174 176
32 27 174 47 49 50
33 45 45 47 174 169
34 26 177 49 47 174
35 27 177 49 47 45
36 44 50 49 47 45
37 26 47 49 177 124
38 26 347 344 349 354
39 26 349 344 347 351
40 10 165 347 344 349
41 11 165 347 344 341
42 10 165 347 351 356
43 25 344 347 165 164
44 25 351 347 165 164
45 25 344 347 165 166
46 25 351 347 165 166
47 26 344 347 351 356
48 27 351 347 344 341
49 12 165 347 351 173
50 28 344 347 351 173
51 10 56 177 49 47
52 11 56 177 49 50
53 10 56 177 124 176
54 11 56 177 124 127
55 25 49 177 56 132
56 25 124 177 56 132
57 25 49 177 56 57
58 25 124 177 56 57
59 26 49 177 124 176
60 27 49 177 124 127
61 27 124 177 49 50
62 15 244 173 351 356
63 31 351 173 244 245
64 31 351 173 244 242
65 15 244 173 351 347
66 33 160 162 165 164
67 33 160 162 165 166
68 33 161 162 165 164
69 33 161 162 165 166
70 33 159 162 165 164
71 33 159 162 165 166
72 1 162 165 347 344
73 1 162 165 347 351
74 23 347 165 162 160
75 23 347 165 162 161
76 23 347 165 162 159
77 17 168 169 174 47
78 17 168 169 174 176
79 32 174 169 168 167
80 32 174 169 168 172
81 18 43 41 285 283
82 46 285 41 43 39
83 19 43 41 285 286
84 38 40 41 285 286
85 38 42 41 285 286
86 35 40 41 43 39
87 34 40 41 43 170
88 35 42 41 43 39
89 34 42 41 43 170
90 26 47 174 176 124
91 27 47 174 176 120
92 27 176 174 47 45
93 26 177 124 176 174
94 27 177 124 176 120
95 27 174 176 124 127
96 45 120 176 174 169
97 44 120 176 124 127
98 29 124 176 174 169
99 20 43 168 169 174
100 34 172 168 43 170
101 34 167 168 43 170
102 48 169 168 43 39
103 35 172 168 43 39
104 35 167 168 43 39
105 10 361 356 351 347
106 10 361 356 354 349
107 25 354 356 361 363
108 25 354 356 361 360
109 25 354 356 361 362
110 25 351 356 361 363
111 25 351 356 361 360
112 25 351 356 361 362
113 12 361 356 351 173
114 28 354 356 351 173
115 12 361 356 354 357
116 28 351 356 354 357
117 26 349 354 356 351
118 30 356 354 357 359
119 30 349 354 357 359
120 15 223 357 354 356
121 31 354 357 223 224
122 31 354 357 223 222
123 15 223 357 354 349
124 3 168 43 41 285
125 39 170 43 41 285
126 4 41 43 168 169
127 2 41 43 168 172
128 2 41 43 168 167
129 5 41 43 39 449
130 2 168 43 41 40
131 2 168 43 41 42
132 40 170 43 168 169
133 41 170 43 39 449
134 5 168 43 39 449
135 10 56 15 17 14
136 25 17 15 56 132
137 25 17 15 56 57
138 26 17 15 13 11
139 27 17 15 13 53
140 11 56 15 17 18
141 27 13 15 17 18
142 25 13 15 56 132
143 25 13 15 56 57
144 11 56 15 13 53
145 10 56 15 13 11
146 26 280 283 281 278
147 30 281 283 285 286
148 30 280 283 285 286
149 10 447 281 278 276
150 10 447 281 283 280
151 25 283 281 447 446
152 25 283 281 447 450
153 25 283 281 447 448
154 25 278 281 447 446
155 25 278 281 447 450
156 25 278 281 447 448
157 12 447 281 283 285
158 28 278 281 283 285
159 12 447 281 278 116
160 28 283 281 278 116
161 24 177 56 15 17
162 24 15 56 177 49
163 24 15 56 177 124
164 24 177 56 15 13
165 26 185 180 128 130
166 27 185 180 128 126
167 26 14 17 15 13
168 27 15 17 14 16
169 20 531 532 534 26
170 34 530 532 531 533
171 34 508 532 531 533
172 48 534 532 531 527
173 35 530 532 531 527
174 35 508 532 531 527
175 4 528 531 532 534
176 2 528 531 532 530
177 2 528 531 532 508
178 40 533 531 532 534
179 3 532 531 528 116
180 39 533 531 528 116
181 5 532 531 527 227
182 41 533 531 527 227
183 2 532 531 528 529
184 5 528 531 527 227
185 2 532 531 528 507
186 27 15 13 11 10
187 44 53 13 11 10
188 9 121 123 291 294
189 8 294 123 121 241
190 6 294 123 121 119
191 6 294 123 121 122
192 6 121 123 294 297
193 6 121 123 294 249
194 42 292 123 294 291
195 43 292 123 121 241
196 47 291 123 121 241
197 7 121 123 294 291
198 1 287 282 280 277
199 23 280 282 287 289
200 23 280 282 287 288
201 23 280 282 287 489
202 1 287 282 280 283
203 33 279 282 287 289
204 33 279 282 287 288
205 33 279 282 287 489
206 33 483 282 287 289
207 33 483 282 287 288
208 33 483 282 287 489
209 10 282 280 277 276
210 25 277 280 282 279
211 25 277 280 282 483
212 26 277 280 283 281
213 11 282 280 277 275
214 27 283 280 277 275
215 25 283 280 282 279
216 25 283 280 282 483
217 10 282 280 283 281
218 12 282 280 283 285
219 28 277 280 283 285
220 3 473 472 269 116
221 39 474 472 269 116
222 4 269 472 473 467
223 2 269 472 473 471
224 2 269 472 473 443
225 5 269 472 466 114
226 2 473 472 269 270
227 2 473 472 269 271
228 40 474 472 473 467
229 41 474 472 466 114
230 5 473 472 466 114
231 18 379 223 357 354
232 46 357 223 379 193
233 19 379 223 357 359
234 38 224 223 357 359
235 38 222 223 357 359
236 35 224 223 379 193
237 34 224 223 379 378
238 35 222 223 379 193
239 34 222 223 379 378
240 27 130 128 180 179
241 45 126 128 130 129
242 44 126 128 180 179
243 29 180 128 130 129
244 26 276 278 281 283
245 26 276 277 280 283
246 26 280 277 276 278
247 15 528 116 278 276
248 15 269 116 278 276
249 15 528 116 278 281
250 15 269 116 278 281
251 31 278 116 528 507
252 31 278 116 528 529
253 31 278 116 269 270
254 31 278 116 269 271
255 13 528 116 269 472
256 14 528 116 269 270
257 14 528 116 269 271
258 14 269 116 528 507
259 14 269 116 528 529
260 13 269 116 528 531
261 18 531 528 116 278
262 46 116 528 531 527
263 35 507 528 531 527
264 34 507 528 531 533
265 35 529 528 531 527
266 34 529 528 531 533
267 18 472 269 116 278
268 46 116 269 472 466
269 35 270 269 472 466
270 34 270 269 472 474
271 35 271 269 472 466
272 34 271 269 472 474
273 10 274 276 277 280
274 11 274 276 277 275
275 10 274 276 278 281
276 25 277 276 274 117
277 25 278 276 274 117
278 25 277 276 274 273
279 25 278 276 274 273
280 26 277 276 278 281
281 27 278 276 277 275
282 28 277 276 278 116
283 12 274 276 278 116
284 33 115 113 274 117
285 33 115 113 274 273
286 33 158 113 274 117
287 33 158 113 274 273
288 33 157 113 274 117
289 33 157 113 274 273
290 1 113 274 276 277
291 1 113 274 276 278
292 23 276 274 113 115
293 23 276 274 113 158
294 23 276 274 113 157
295 3 430 379 223 357
296 39 378 379 223 357
297 4 223 379 430 380
298 2 223 379 430 428
299 2 223 379 430 432
300 5 223 379 193 355
301 2 430 379 223 224
302 2 430 379 223 222
303 40 378 379 430 380
304 41 378 379 193 355
305 5 430 379 193 355
306 20 379 430 380 384
307 34 428 430 379 378
308 34 432 430 379 378
309 48 380 430 379 193
310 35 428 430 379 193
311 35 432 430 379 193
312 29 13 11 12 9
313 45 10 11 12 9
314 26 12 11 13 15
315 27 12 11 13 53
316 17 430 380 384 386
317 17 430 380 384 388
318 32 384 380 430 432
319 32 384 380 430 428
320 26 386 384 388 392
321 27 386 384 388 387
322 27 388 384 386 382
323 27 384 388 392 335
324 45 387 388 384 380
325 44 387 388 392 335
326 29 392 388 384 380
327 26 334 392 388 384
328 27 334 392 388 387
329 29 390 386 384 380
330 26 390 386 384 388
331 27 384 386 390 391
332 45 382 386 384 380
333 17 8 9 12 14
334 17 8 9 12 11
335 32 12 9 8 6
336 32 12 9 8 7
337 26 14 12 11 13
338 27 14 12 11 10
339 27 11 12 14 16
340 17 532 534 26 22
341 17 532 534 26 32
342 32 26 534 532 508
343 32 26 534 532 530
344 21 490 487 484 482
345 37 485 487 490 486
346 36 485 487 490 488
347 37 491 487 490 486
348 36 491 487 490 488
349 16 294 291 123 292
350 22 123 291 294 297
351 22 123 291 294 249
352 22 251 125 250 103
353 22 251 125 250 102
354 16 250 125 251 248
355 17 131 129 130 135
356 32 130 129 131 134
357 32 130 129 131 133
358 17 131 129 130 128
359 36 493 492 490 488
360 36 494 492 490 488
361 37 493 492 490 486
362 37 494 492 490 486
363 8 492 490 487 484
364 47 486 490 487 484
365 43 488 490 487 484
366 7 487 490 492 486
367 6 487 490 492 493
368 6 487 490 492 494
369 9 487 490 486 492
370 6 492 490 487 485
371 6 492 490 487 491
372 42 488 490 492 486
373 21 123 121 241 238
374 36 119 121 123 292
375 36 122 121 123 292
376 37 119 121 123 291
377 37 122 121 123 291
378 29 17 14 12 9
379 45 16 14 12 9
380 26 12 14 17 15
381 27 12 14 17 18
382 44 16 14 17 18
383 26 17 14 12 11
384 29 456 453 575 573
385 26 456 453 575 577
386 27 575 453 456 457
387 45 452 453 575 573
388 18 86 84 317 320
389 46 317 84 86 559
390 19 86 84 317 464
391 38 82 84 317 464
392 38 552 84 317 464
393 35 82 84 86 559
394 34 82 84 86 88
395 35 552 84 86 559
396 34 552 84 86 88
397 20 140 142 143 146
398 34 144 142 140 138
399 34 141 142 140 138
400 48 143 142 140 139
401 35 144 142 140 139
402 35 141 142 140 139
403 3 142 140 257 72
404 39 138 140 257 72
405 4 257 140 142 143
406 2 257 140 142 144
407 2 257 140 142 141
408 5 257 140 139 73
409 2 142 140 257 254
410 2 142 140 257 258
411 40 138 140 142 143
412 41 138 140 139 73
413 5 142 140 139 73
414 1 545 63 64 66
415 23 64 63 545 576
416 23 64 63 545 572
417 23 64 63 545 546
418 1 545 63 64 65
419 33 98 63 545 576
420 33 98 63 545 572
421 33 98 63 545 546
422 33 539 63 545 576
423 33 539 63 545 572
424 33 539 63 545 546
425 30 64 65 542 547
426 30 64 65 542 540
427 26 64 65 67 70
428 30 67 65 542 547
429 30 67 65 542 540
430 10 63 64 66 68
431 25 66 64 63 98
432 25 66 64 63 539
433 28 66 64 65 542
434 26 66 64 65 67
435 11 63 64 66 100
436 27 65 64 66 100
437 25 65 64 63 98
438 25 65 64 63 539
439 10 63 64 65 67
440 12 63 64 65 542
441 10 69 67 70 68
442 10 69 67 65 64
443 25 65 67 69 46
444 25 65 67 69 44
445 25 65 67 69 48
446 28 70 67 65 542
447 25 70 67 69 46
448 25 70 67 69 44
449 25 70 67 69 48
450 12 69 67 65 542
451 12 69 67 70 72
452 28 65 67 70 72
453 26 68 70 67 65
454 30 68 70 72 74
455 30 67 70 72 74
456 26 68 66 64 65
457 26 64 66 68 70
458 15 257 72 70 68
459 31 70 72 257 254
460 31 70 72 257 258
461 15 257 72 70 67
462 10 71 68 66 64
463 11 71 68 66 100
464 10 71 68 70 67
465 25 66 68 71 75
466 25 70 68 71 75
467 25 66 68 71 101
468 25 70 68 71 101
469 26 66 68 70 67
470 27 70 68 66 100
471 12 71 68 70 72
472 28 66 68 70 72
473 18 140 257 72 70
474 46 72 257 140 139
475 19 140 257 72 74
476 38 254 257 72 74
477 38 258 257 72 74
478 35 254 257 140 139
479 34 254 257 140 138
480 35 258 257 140 139
481 34 258 257 140 138
482 15 569 327 325 326
483 31 325 327 569 567
484 31 325 327 569 451
485 15 569 327 325 322
486 10 152 322 325 326
487 10 152 322 320 321
488 25 320 322 152 154
489 25 320 322 152 151
490 25 320 322 152 150
491 25 325 322 152 154
492 25 325 322 152 151
493 25 325 322 152 150
494 12 152 322 320 317
495 28 325 322 320 317
496 12 152 322 325 327
497 28 320 322 325 327
498 26 321 320 322 325
499 30 322 320 317 464
500 30 321 320 317 464
501 26 326 325 322 320
502 30 326 325 327 156
503 30 322 325 327 156
504 15 84 317 320 322
505 31 320 317 84 82
506 31 320 317 84 552
507 15 84 317 320 321
508 10 328 326 323 321
509 11 328 326 323 324
510 10 328 326 325 322
511 25 323 326 328 385
512 25 325 326 328 385
513 25 323 326 328 332
514 25 325 326 328 332
515 26 323 326 325 322
516 27 325 326 323 324
517 12 328 326 325 327
518 28 323 326 325 327
519 10 319 321 323 326
520 25 323 321 319 316
521 25 323 321 319 465
522 26 323 321 320 322
523 11 319 321 323 324
524 27 320 321 323 324
525 25 320 321 319 316
526 25 320 321 319 465
527 10 319 321 320 322
528 12 319 321 320 317
529 28 323 321 320 317
530 26 326 323 321 320
531 26 321 323 326 325
532 18 568 569 327 325
533 46 327 569 568 564
534 19 568 569 327 156
535 38 567 569 327 156
536 38 451 569 327 156
537 35 567 569 568 564
538 34 567 569 568 565
539 35 451 569 568 564
540 34 451 569 568 565
541 17 142 143 146 148
542 17 142 143 146 149
543 32 146 143 142 141
544 32 146 143 142 144
545 3 561 86 84 317
546 39 88 86 84 317
547 4 84 86 561 558
548 2 84 86 561 90
549 2 84 86 561 537
550 5 84 86 559 318
551 2 561 86 84 82
552 2 561 86 84 552
553 40 88 86 561 558
554 41 88 86 559 318
555 5 561 86 559 318
556 26 148 146 149 25
557 27 148 146 149 147
558 27 149 146 148 145
559 15 372 155 109 267
560 31 109 155 372 373
561 31 109 155 372 375
562 15 372 155 109 112
563 29 23 22 26 534
564 45 20 22 26 534
565 26 26 22 23 30
566 27 26 22 23 21
567 44 20 22 23 21
568 26 23 22 26 32
569 17 367 369 371 374
570 17 367 369 371 188
571 32 371 369 367 364
572 32 371 369 367 365
573 1 383 328 326 323
574 1 383 328 326 325
575 23 326 328 383 512
576 23 326 328 383 381
577 23 326 328 383 389
578 18 108 105 95 91
579 46 95 105 108 107
580 35 106 105 108 107
581 34 106 105 108 19
582 35 104 105 108 107
583 34 104 105 108 19
584 26 267 109 112 91
585 30 267 109 155 153
586 30 112 109 155 153
587 26 255 217 424 423
588 27 424 217 255 256
589 1 204 71 68 66
590 1 204 71 68 70
591 23 68 71 204 203
592 23 68 71 204 202
593 23 68 71 204 205
594 17 571 573 575 453
595 17 571 573 575 577
596 32 575 573 571 566
597 32 575 573 571 570
598 26 453 575 577 578
599 27 453 575 577 574
600 27 577 575 453 452
601 29 217 255 462 461
602 45 256 255 462 461
603 26 462 255 217 424
604 27 462 255 217 220
605 44 256 255 217 220
606 26 217 255 462 421
607 26 29 24 148 146
608 27 29 24 148 145
609 44 28 24 148 145
610 26 148 24 29 25
611 20 108 504 501 500
612 34 506 504 108 19
613 34 582 504 108 19
614 48 501 504 108 107
615 35 506 504 108 107
616 35 582 504 108 107
617 20 368 367 369 371
618 34 365 367 368 366
619 34 364 367 368 366
620 48 369 367 368 370
621 35 365 367 368 370
622 35 364 367 368 370
623 29 33 32 26 534
624 45 535 32 26 534
625 26 26 32 33 30
626 27 26 32 33 36
627 3 571 568 569 327
628 39 565 568 569 327
629 4 569 568 571 573
630 2 569 568 571 570
631 2 569 568 571 566
632 5 569 568 564 329
633 2 571 568 569 567
634 2 571 568 569 451
635 40 565 568 571 573
636 41 565 568 564 329
637 5 571 568 564 329
638 4 3 4 8 9
639 2 3 4 8 7
640 2 3 4 8 6
641 40 5 4 8 9
642 3 8 4 3 95
643 39 5 4 3 95
644 5 8 4 1 97
645 41 5 4 1 97
646 2 8 4 3 2
647 5 3 4 1 97
648 2 8 4 3 99
649 20 568 571 573 575
650 34 570 571 568 565
651 34 566 571 568 565
652 48 573 571 568 564
653 35 570 571 568 564
654 35 566 571 568 564
655 33 512 383 328 385
656 33 512 383 328 332
657 33 381 383 328 385
658 33 381 383 328 332
659 33 389 383 328 385
660 33 389 383 328 332
661 3 504 108 105 95
662 39 19 108 105 95
663 4 105 108 504 501
664 2 105 108 504 506
665 2 105 108 504 582
666 5 105 108 107 96
667 2 504 108 105 106
668 2 504 108 105 104
669 40 19 108 504 501
670 41 19 108 107 96
671 5 504 108 107 96
672 27 371 188 216 215
673 45 184 188 371 369
674 44 184 188 216 215
675 29 216 188 371 369
676 27 30 33 32 535
677 44 36 33 32 535
678 29 24 148 146 143
679 26 24 148 146 149
680 27 146 148 24 28
681 45 145 148 146 143
682 33 203 204 71 75
683 33 203 204 71 101
684 33 202 204 71 75
685 33 202 204 71 101
686 33 205 204 71 75
687 33 205 204 71 101
688 3 367 368 372 155
689 39 366 368 372 155
690 4 372 368 367 369
691 2 372 368 367 365
692 2 372 368 367 364
693 5 372 368 370 37
694 2 367 368 372 373
695 2 367 368 372 375
696 40 366 368 367 369
697 41 366 368 370 37
698 5 367 368 370 37
699 26 374 371 188 216
700 27 374 371 188 184
701 27 188 371 374 376
702 29 425 374 371 369
703 26 425 374 371 188
704 27 371 374 425 426
705 45 376 374 371 369
706 26 111 91 112 109
707 18 4 3 95 91
708 46 95 3 4 1
709 35 99 3 4 1
710 34 99 3 4 5
711 35 2 3 4 1
712 34 2 3 4 5
713 18 368 372 155 109
714 46 155 372 368 370
715 19 368 372 155 153
716 38 373 372 155 153
717 38 375 372 155 153
718 35 373 372 368 370
719 34 373 372 368 366
720 35 375 372 368 370
721 34 375 372 368 366
722 15 3 95 91 111
723 15 105 95 91 111
724 15 3 95 91 112
725 15 105 95 91 112
726 31 91 95 3 99
727 31 91 95 3 2
728 31 91 95 105 106
729 31 91 95 105 104
730 13 3 95 105 108
731 14 3 95 105 106
732 14 3 95 105 104
733 14 105 95 3 99
734 14 105 95 3 2
735 13 105 95 3 4
736 26 218 216 188 371
737 27 218 216 188 184
738 20 4 8 9 12
739 34 7 8 4 5
740 34 6 8 4 5
741 48 9 8 4 1
742 35 7 8 4 1
743 35 6 8 4 1
744 26 22 26 32 33
745 27 22 26 32 535
746 27 32 26 22 20
747 26 218 425 374 371
748 27 218 425 374 376
749 44 426 425 374 376
750 26 374 425 218 216
751 10 219 218 425 374
752 11 219 218 425 426
753 10 219 218 216 188
754 11 219 218 216 215
755 25 425 218 219 221
756 25 216 218 219 221
757 25 425 218 219 427
758 25 216 218 219 427
759 26 425 218 216 188
760 27 425 218 216 215
761 27 216 218 425 426
762 10 92 112 91 111
763 10 92 112 109 267
764 25 109 112 92 93
765 25 109 112 92 94
766 25 109 112 92 38
767 25 91 112 92 93
768 25 91 112 92 94
769 25 91 112 92 38
770 12 92 112 91 95
771 28 109 112 91 95
772 12 92 112 109 155
773 28 91 112 109 155
774 16 78 77 79 81
775 22 79 77 78 80
776 22 79 77 78 76
777 29 585 470 469 467
778 45 468 470 469 467
779 26 469 470 585 516
780 27 469 470 585 584
781 44 468 470 585 584
782 26 585 470 469 331
783 26 470 585 516 333
784 27 516 585 470 468
785 10 515 516 585 470
786 25 585 516 515 513
787 25 585 516 515 514
788 26 585 516 333 331
789 27 585 516 333 272
790 11 515 516 585 584
791 27 333 516 585 584
792 25 333 516 515 513
793 25 333 516 515 514
794 11 515 516 333 272
795 10 515 516 333 331
796 26 475 477 479 482
797 27 475 477 479 563
798 44 562 477 479 563
799 26 479 477 475 478
800 10 515 475 477 479
801 11 515 475 477 562
802 10 515 475 478 480
803 11 515 475 478 476
804 25 477 475 515 513
805 25 478 475 515 513
806 25 477 475 515 514
807 25 478 475 515 514
808 26 477 475 478 480
809 27 477 475 478 476
810 27 478 475 477 562
811 16 523 519 521 525
812 22 521 519 523 522
813 22 521 519 523 526
814 9 520 521 519 523
815 8 523 521 520 358
816 6 523 521 520 518
817 6 523 521 520 524
818 6 520 521 523 522
819 6 520 521 523 526
820 42 525 521 523 519
821 43 525 521 520 358
822 47 519 521 520 358
823 7 520 521 523 519
824 21 521 520 358 353
825 36 518 520 521 525
826 36 524 520 521 525
827 37 518 520 521 519
828 37 524 520 521 519
829 17 520 358 353 350
830 17 520 358 353 352
831 32 353 358 520 518
832 32 353 358 520 524
833 37 522 523 521 519
834 36 522 523 521 525
835 37 526 523 521 519
836 36 526 523 521 525
837 24 475 515 516 585
838 24 516 515 475 477
839 24 516 515 475 478
840 24 475 515 516 333
841 27 516 333 331 330
842 44 272 333 331 330
843 10 229 233 232 234
844 25 232 233 229 228
845 25 232 233 229 226
846 26 232 233 235 239
847 27 232 233 235 236
848 11 229 233 232 230
849 27 235 233 232 230
850 25 235 233 229 228
851 25 235 233 229 226
852 11 229 233 235 236
853 10 229 233 235 239
854 26 475 478 480 482
855 27 475 478 480 481
856 26 350 353 352 348
857 27 350 353 352 290
858 27 352 353 350 517
859 10 187 185 136 135
860 11 187 185 136 191
861 10 187 185 180 128
862 11 187 185 180 179
863 25 136 185 187 189
864 25 180 185 187 189
865 25 136 185 187 183
866 25 180 185 187 183
867 26 136 185 180 128
868 27 136 185 180 179
869 27 180 185 136 191
870 26 470 469 331 333
871 27 470 469 331 330
872 27 331 469 470 468
873 29 333 331 469 467
874 45 330 331 469 467
875 26 469 331 333 516
876 27 469 331 333 272
877 24 231 229 233 232
878 24 233 229 231 201
879 24 233 229 231 445
880 24 231 229 233 235
881 10 229 231 201 404
882 11 229 231 201 237
883 10 229 231 445 397
884 11 229 231 445 444
885 25 201 231 229 228
886 25 445 231 229 228
887 25 201 231 229 226
888 25 445 231 229 226
889 26 201 231 445 397
890 27 201 231 445 444
891 27 445 231 201 237
892 27 482 480 478 476
893 45 481 480 482 484
894 44 481 480 478 476
895 29 478 480 482 484
896 29 477 479 482 484
897 26 477 479 482 480
898 27 482 479 477 562
899 45 563 479 482 484
900 24 185 187 186 190
901 24 186 187 185 136
902 24 186 187 185 180
903 24 185 187 186 182
904 3 252 247 244 173
905 39 246 247 244 173
906 4 244 247 252 461
907 2 244 247 252 459
908 2 244 247 252 253
909 5 244 247 243 175
910 2 252 247 244 245
911 2 252 247 244 242
912 40 246 247 252 461
913 41 246 247 243 175
914 5 252 247 243 175
915 29 343 350 353 358
916 45 517 350 353 358
917 26 353 350 343 342
918 27 353 350 343 339
919 44 517 350 343 339
920 26 343 350 353 352
921 26 231 201 404 400
922 27 231 201 404 409
923 44 237 201 404 409
924 26 404 201 231 445
925 26 479 482 480 478
926 27 479 482 480 481
927 27 480 482 479 563
928 26 185 136 135 130
929 27 185 136 135 137
930 44 191 136 135 137
931 26 135 136 185 180
932 17 473 467 469 470
933 17 473 467 469 331
934 32 469 467 473 443
935 32 469 467 473 471
936 29 348 352 353 358
937 45 290 352 353 358
938 26 353 352 348 342
939 27 353 352 348 284
940 26 350 343 342 348
941 27 342 343 350 517
942 26 60 190 186 182
943 27 186 190 60 61
944 26 234 232 233 235
945 27 233 232 234 118
946 27 233 235 239 240
947 44 236 235 239 240
948 18 247 244 173 351
949 46 173 244 247 243
950 19 247 244 173 171
951 38 245 244 173 171
952 38 242 244 173 171
953 35 245 244 247 243
954 34 245 244 247 246
955 35 242 244 247 243
956 34 242 244 247 246
957 26 580 456 453 575
958 27 580 456 453 452
959 44 457 456 453 452
960 26 453 456 580 578
961 26 231 445 397 400
962 27 231 445 397 396
963 10 581 580 456 453
964 11 581 580 456 457
965 10 581 580 578 577
966 11 581 580 578 579
967 25 456 580 581 460
968 25 578 580 581 460
969 25 456 580 581 549
970 25 578 580 581 549
971 26 456 580 578 577
972 27 456 580 578 579
973 27 578 580 456 457
974 24 580 581 417 418
975 24 417 581 580 456
976 24 417 581 580 578
977 24 580 581 417 455
978 37 207 210 211 213
979 36 207 210 211 214
980 37 212 210 211 213
981 36 212 210 211 214
982 20 472 473 467 469
983 34 471 473 472 474
984 34 443 473 472 474
985 48 467 473 472 466
986 35 471 473 472 466
987 35 443 473 472 466
988 37 308 311 312 313
989 36 308 311 312 315
990 37 314 311 312 313
991 36 314 311 312 315
992 9 310 312 313 311
993 8 311 312 310 306
994 6 311 312 310 309
995 6 311 312 310 377
996 6 310 312 311 308
997 6 310 312 311 314
998 42 315 312 311 313
999 43 315 312 310 306
1000 47 313 312 310 306
1001 7 310 312 311 313
1002 16 311 313 312 315
1003 22 312 313 311 308
1004 22 312 313 311 314
1005 29 136 135 130 129
1006 26 136 135 130 128
1007 27 130 135 136 191
1008 45 137 135 130 129
1009 16 210 213 211 214
1010 22 211 213 210 207
1011 22 211 213 210 212
1012 29 235 239 238 241
1013 45 240 239 238 241
1014 26 238 239 235 233
1015 27 238 239 235 236
1016 26 234 238 239 235
1017 27 234 238 239 240
1018 27 239 238 234 118
1019 17 121 241 238 234
1020 17 121 241 238 239
1021 32 238 241 121 119
1022 32 238 241 121 122
1023 21 312 310 306 304
1024 36 309 310 312 315
1025 36 377 310 312 315
1026 37 309 310 312 313
1027 37 377 310 312 313
1028 9 208 211 213 210
1029 8 210 211 208 413
1030 6 210 211 208 206
1031 6 210 211 208 209
1032 6 208 211 210 207
1033 6 208 211 210 212
1034 42 214 211 210 213
1035 43 214 211 208 413
1036 47 213 211 208 413
1037 7 208 211 210 213
1038 21 211 208 413 414
1039 36 206 208 211 214
1040 36 209 208 211 214
1041 37 206 208 211 213
1042 37 209 208 211 213
1043 26 415 418 417 455
1044 27 417 418 415 416
1045 26 415 414 412 455
1046 27 415 414 412 411
1047 27 412 414 415 416
1048 10 581 417 418 415
1049 25 418 417 581 460
1050 25 418 417 581 549
1051 26 418 417 455 412
1052 27 418 417 455 454
1053 11 581 417 418 419
1054 27 455 417 418 419
1055 25 455 417 581 460
1056 25 455 417 581 549
1057 11 581 417 455 454
1058 10 581 417 455 412
1059 29 418 415 414 413
1060 45 416 415 414 413
1061 26 414 415 418 417
1062 27 414 415 418 419
1063 44 416 415 418 419
1064 26 418 415 414 412
1065 17 208 413 414 415
1066 17 208 413 414 412
1067 32 414 413 208 206
1068 32 414 413 208 209
1069 29 455 412 414 413
1070 45 411 412 414 413
1071 26 414 412 455 417
1072 27 414 412 455 454
1073 10 337 342 343 350
1074 25 343 342 337 338
1075 25 343 342 337 336
1076 26 343 342 348 352
1077 27 343 342 348 284
1078 11 337 342 343 339
1079 27 348 342 343 339
1080 25 348 342 337 338
1081 25 348 342 337 336
1082 11 337 342 348 284
1083 10 337 342 348 352
1084 22 490 486 492 493
1085 22 490 486 492 494
1086 16 492 486 490 488
1087 21 251 131 129 130
1088 37 134 131 251 125
1089 36 134 131 251 248
1090 37 133 131 251 125
1091 36 133 131 251 248
1092 27 417 455 412 411
1093 44 454 455 412 411
1094 24 334 337 342 343
1095 24 342 337 334 390
1096 24 342 337 334 392
1097 24 334 337 342 348
1098 29 232 234 238 241
1099 45 118 234 238 241
1100 26 238 234 232 233
1101 27 238 234 232 230
1102 44 118 234 232 230
1103 26 232 234 238 239
1104 26 135 130 128 180
1105 27 135 130 128 126
1106 27 128 130 135 137
1107 27 342 348 352 290
1108 44 284 348 352 290
1109 26 334 390 386 384
1110 27 334 390 386 382
1111 44 391 390 386 382
1112 26 386 390 334 392
1113 10 337 334 390 386
1114 11 337 334 390 391
1115 10 337 334 392 388
1116 11 337 334 392 335
1117 25 390 334 337 338
1118 25 392 334 337 338
1119 25 390 334 337 336
1120 25 392 334 337 336
1121 26 390 334 392 388
1122 27 390 334 392 335
1123 27 392 334 390 391
1124 17 310 306 304 301
1125 17 310 306 304 305
1126 32 304 306 310 309
1127 32 304 306 310 377
1128 26 301 304 305 302
1129 27 301 304 305 307
1130 27 305 304 301 300
1131 27 436 439 393 395
1132 44 441 439 393 395
1133 29 302 305 304 306
1134 45 307 305 304 306
1135 26 304 305 302 299
1136 27 304 305 302 303
1137 29 298 301 304 306
1138 45 300 301 304 306
1139 26 304 301 298 299
1140 27 304 301 298 296
1141 44 300 301 298 296
1142 26 298 301 304 305
1143 37 297 294 123 291
1144 36 297 294 123 292
1145 37 249 294 123 291
1146 36 249 294 123 292
1147 8 250 251 131 129
1148 47 125 251 131 129
1149 43 248 251 131 129
1150 7 131 251 250 125
1151 6 131 251 250 103
1152 6 131 251 250 102
1153 9 131 251 125 250
1154 6 250 251 131 134
1155 6 250 251 131 133
1156 42 248 251 250 125
1157 36 103 250 251 248
1158 36 102 250 251 248
1159 37 103 250 251 125
1160 37 102 250 251 125
1161 17 487 484 482 479
1162 32 482 484 487 485
1163 32 482 484 487 491
1164 17 487 484 482 480
1165 17 504 501 500 503
1166 17 504 501 500 498
1167 32 500 501 504 582
1168 32 500 501 504 506
1169 29 201 404 400 402
1170 26 201 404 400 397
1171 27 400 404 201 237
1172 45 409 404 400 402
1173 29 190 60 58 59
1174 45 61 60 58 59
1175 26 58 60 190 186
1176 27 58 60 190 192
1177 44 61 60 190 192
1178 26 190 60 58 181
1179 10 187 186 190 60
1180 25 190 186 187 189
1181 25 190 186 187 183
1182 26 190 186 182 181
1183 27 190 186 182 178
1184 11 187 186 190 192
1185 27 182 186 190 192
1186 25 182 186 187 189
1187 25 182 186 187 183
1188 11 187 186 182 178
1189 10 187 186 182 181
1190 22 405 543 544 548
1191 22 405 543 544 541
1192 16 544 543 405 538
1193 36 548 544 405 538
1194 36 541 544 405 538
1195 37 548 544 405 543
1196 37 541 544 405 543
1197 21 79 55 59 58
1198 36 54 55 79 81
1199 36 52 55 79 81
1200 37 54 55 79 77
1201 37 52 55 79 77
1202 8 544 405 406 402
1203 47 543 405 406 402
1204 43 538 405 406 402
1205 7 406 405 544 543
1206 6 406 405 544 548
1207 6 406 405 544 541
1208 9 406 405 543 544
1209 6 544 405 406 410
1210 6 544 405 406 408
1211 42 538 405 544 543
1212 26 60 58 181 182
1213 27 60 58 181 51
1214 27 181 58 60 61
1215 17 55 59 58 60
1216 17 55 59 58 181
1217 32 58 59 55 54
1218 32 58 59 55 52
1219 27 186 182 181 51
1220 44 178 182 181 51
1221 29 182 181 58 59
1222 45 51 181 58 59
1223 26 58 181 182 186
1224 27 58 181 182 178
1225 21 405 406 402 400
1226 37 410 406 405 543
1227 36 410 406 405 538
1228 37 408 406 405 543
1229 36 408 406 405 538
1230 17 406 402 400 404
1231 32 400 402 406 410
1232 32 400 402 406 408
1233 17 406 402 400 397
1234 26 404 400 397 445
1235 27 404 400 397 396
1236 27 397 400 404 409
1237 27 400 397 445 444
1238 45 396 397 400 402
1239 44 396 397 445 444
1240 29 445 397 400 402
1241 37 198 196 197 199
1242 36 198 196 197 200
1243 37 194 196 197 199
1244 36 194 196 197 200
1245 16 196 199 197 200
1246 22 197 199 196 198
1247 22 197 199 196 194
1248 9 55 79 77 78
1249 8 78 79 55 59
1250 6 78 79 55 54
1251 6 78 79 55 52
1252 6 55 79 78 80
1253 6 55 79 78 76
1254 42 81 79 78 77
1255 43 81 79 55 59
1256 47 77 79 55 59
1257 7 55 79 78 77
1258 37 80 78 79 77
1259 36 80 78 79 81
1260 37 76 78 79 77
1261 36 76 78 79 81
1262 20 86 561 558 556
1263 34 90 561 86 88
1264 34 537 561 86 88
1265 48 558 561 86 559
1266 35 90 561 86 559
1267 35 537 561 86 559
1268 27 500 498 497 495
1269 45 496 498 500 501
1270 44 496 498 497 495
1271 29 497 498 500 501
1272 26 499 497 498 500
1273 27 499 497 498 496
1274 9 195 197 199 196
1275 8 196 197 195 394
1276 6 196 197 195 163
1277 6 196 197 195 398
1278 6 195 197 196 198
1279 6 195 197 196 194
1280 42 200 197 196 199
1281 43 200 197 195 394
1282 47 199 197 195 394
1283 7 195 197 196 199
1284 26 503 500 498 497
1285 27 503 500 498 496
1286 27 498 500 503 505
1287 24 29 31 30 23
1288 24 30 31 29 24
1289 24 30 31 29 25
1290 24 29 31 30 33
1291 27 146 149 25 27
1292 45 147 149 146 143
1293 44 147 149 25 27
1294 29 25 149 146 143
1295 26 29 25 149 146
1296 27 29 25 149 147
1297 17 561 558 556 554
1298 17 561 558 556 560
1299 32 556 558 561 537
1300 32 556 558 561 90
1301 20 247 252 461 462
1302 34 459 252 247 246
1303 34 253 252 247 246
1304 48 461 252 247 243
1305 35 459 252 247 243
1306 35 253 252 247 243
1307 1 510 319 321 323
1308 23 321 319 510 583
1309 23 321 319 510 509
1310 23 321 319 510 511
1311 1 510 319 321 320
1312 33 316 319 510 583
1313 33 316 319 510 509
1314 33 316 319 510 511
1315 33 465 319 510 583
1316 33 465 319 510 509
1317 33 465 319 510 511
1318 17 252 461 462 255
1319 17 252 461 462 421
1320 32 462 461 252 253
1321 32 462 461 252 459
1322 17 195 394 442 438
1323 17 195 394 442 393
1324 32 442 394 195 163
1325 32 442 394 195 398
1326 26 255 462 421 423
1327 27 255 462 421 420
1328 27 421 462 255 256
1329 29 435 438 442 394
1330 45 437 438 442 394
1331 26 442 438 435 436
1332 27 442 438 435 433
1333 44 437 438 435 433
1334 26 435 438 442 393
1335 10 31 30 23 22
1336 25 23 30 31 35
1337 25 23 30 31 34
1338 26 23 30 33 32
1339 27 23 30 33 36
1340 11 31 30 23 21
1341 27 33 30 23 21
1342 25 33 30 31 35
1343 25 33 30 31 34
1344 11 31 30 33 36
1345 10 31 30 33 32
1346 29 423 421 462 461
1347 45 420 421 462 461
1348 26 462 421 423 424
1349 27 462 421 423 422
1350 29 502 503 500 501
1351 26 502 503 500 498
1352 27 500 503 502 463
1353 45 505 503 500 501
1354 10 295 499 502 503
1355 11 295 499 502 463
1356 10 295 499 497 498
1357 11 295 499 497 495
1358 25 502 499 295 293
1359 25 497 499 295 293
1360 25 502 499 295 458
1361 25 497 499 295 458
1362 26 502 499 497 498
1363 27 502 499 497 495
1364 27 497 499 502 463
1365 24 555 434 436 435
1366 24 436 434 555 553
1367 24 436 434 555 557
1368 24 555 434 436 439
1369 26 555 557 560 556
1370 27 555 557 560 536
1371 29 439 393 442 394
1372 45 395 393 442 394
1373 26 442 393 439 436
1374 27 442 393 439 441
1375 27 556 560 557 440
1376 45 536 560 556 558
1377 44 536 560 557 440
1378 29 557 560 556 558
1379 26 438 435 436 439
1380 27 436 435 438 437
1381 24 499 295 299 298
1382 24 299 295 499 502
1383 24 299 295 499 497
1384 24 499 295 299 302
1385 26 499 502 503 500
1386 27 499 502 503 505
1387 44 463 502 503 505
1388 26 503 502 499 497
1389 10 219 424 217 255
1390 25 217 424 219 221
1391 25 217 424 219 427
1392 26 217 424 423 421
1393 27 217 424 423 422
1394 11 219 424 217 220
1395 27 423 424 217 220
1396 25 423 424 219 221
1397 25 423 424 219 427
1398 11 219 424 423 422
1399 10 219 424 423 421
1400 33 110 85 89 225
1401 33 110 85 89 62
1402 33 83 85 89 225
1403 33 83 85 89 62
1404 33 87 85 89 225
1405 33 87 85 89 62
1406 10 89 111 268 267
1407 11 89 111 268 266
1408 10 89 111 91 112
1409 25 268 111 89 225
1410 25 91 111 89 225
1411 25 268 111 89 62
1412 25 91 111 89 62
1413 26 268 111 91 112
1414 27 91 111 268 266
1415 28 268 111 91 95
1416 12 89 111 91 95
1417 27 575 577 578 579
1418 45 574 577 575 573
1419 44 574 577 578 579
1420 29 578 577 575 573
1421 26 580 578 577 575
1422 27 580 578 577 574
1423 10 31 29 24 148
1424 11 31 29 24 28
1425 10 31 29 25 149
1426 11 31 29 25 27
1427 25 24 29 31 35
1428 25 25 29 31 35
1429 25 24 29 31 34
1430 25 25 29 31 34
1431 26 24 29 25 149
1432 27 24 29 25 27
1433 27 25 29 24 28
1434 26 301 298 299 302
1435 27 299 298 301 300
1436 24 218 219 424 217
1437 24 424 219 218 425
1438 24 424 219 218 216
1439 24 218 219 424 423
1440 10 262 267 268 111
1441 25 268 267 262 261
1442 25 268 267 262 260
1443 26 268 267 109 112
1444 11 262 267 268 266
1445 27 109 267 268 266
1446 25 109 267 262 261
1447 25 109 267 262 260
1448 10 262 267 109 112
1449 12 262 267 109 155
1450 28 268 267 109 155
1451 26 438 442 393 439
1452 27 438 442 393 395
1453 27 393 442 438 437
1454 10 434 436 435 438
1455 25 435 436 434 431
1456 25 435 436 434 429
1457 26 435 436 439 393
1458 27 435 436 439 441
1459 11 434 436 435 433
1460 27 439 436 435 433
1461 25 439 436 434 431
1462 25 439 436 434 429
1463 11 434 436 439 441
1464 10 434 436 439 393
1465 27 299 302 305 307
1466 44 303 302 305 307
1467 26 555 553 554 556
1468 27 555 553 554 551
1469 44 550 553 554 551
1470 26 554 553 555 557
1471 1 263 262 267 268
1472 23 267 262 263 264
1473 23 267 262 263 259
1474 23 267 262 263 265
1475 1 263 262 267 109
1476 33 261 262 263 264
1477 33 261 262 263 259
1478 33 261 262 263 265
1479 33 260 262 263 264
1480 33 260 262 263 259
1481 33 260 262 263 265
1482 10 295 299 298 301
1483 25 298 299 295 293
1484 25 298 299 295 458
1485 26 298 299 302 305
1486 27 298 299 302 303
1487 11 295 299 298 296
1488 27 302 299 298 296
1489 25 302 299 295 293
1490 25 302 299 295 458
1491 11 295 299 302 303
1492 10 295 299 302 305
1493 26 554 556 560 557
1494 27 554 556 560 536
1495 27 560 556 554 551
1496 1 85 89 111 268
1497 1 85 89 111 91
1498 23 111 89 85 110
1499 23 111 89 85 83
1500 23 111 89 85 87
1501 27 424 423 421 420
1502 44 422 423 421 420
1503 26 111 268 267 109
1504 26 267 268 111 91
1505 21 197 195 394 442
1506 36 163 195 197 200
1507 36 398 195 197 200
1508 37 163 195 197 199
1509 37 398 195 197 199
1510 29 553 554 556 558
1511 26 553 554 556 560
1512 27 556 554 553 550
1513 45 551 554 556 558
1514 10 434 555 553 554
1515 11 434 555 553 550
1516 10 434 555 557 560
1517 11 434 555 557 440
1518 25 553 555 434 431
1519 25 557 555 434 431
1520 25 553 555 434 429
1521 25 557 555 434 429
1522 26 553 555 557 560
1523 27 553 555 557 440
1524 27 557 555 553 550
1525 26 22 23 30 33
1526 27 30 23 22 20

Impropers

1 13 281 447 446 450
2 13 281 447 446 448
3 13 281 447 450 448
4 14 446 447 450 448
5 26 347 351 356 173
6 29 41 285 286 283
7 24 345 349 354 344
8 2 403 345 346 349
9 2 403 345 340 349
10 13 349 345 346 340
11 3 403 345 346 340
12 25 49 47 174 45
13 25 177 49 47 50
14 25 347 344 349 341
15 24 165 347 344 351
16 3 345 403 401 407
17 3 345 403 401 399
18 3 345 403 407 399
19 14 401 403 407 399
20 24 56 177 49 124
21 29 244 173 171 351
22 3 165 162 160 161
23 3 165 162 160 159
24 3 165 162 161 159
25 14 160 162 161 159
26 1 162 165 347 164
27 1 162 165 347 166
28 3 162 165 164 166
29 13 347 165 164 166
30 5 43 41 40 285
31 5 43 41 42 285
32 15 40 41 42 285
33 4 43 41 40 42
34 27 176 174 47 169
35 25 176 124 177 127
36 25 174 176 124 120
37 6 43 168 169 172
38 6 43 168 169 167
39 4 43 168 172 167
40 17 172 168 167 169
41 24 361 356 351 354
42 26 349 354 356 357
43 29 223 357 359 354
44 19 41 43 168 39
45 18 41 43 168 170
46 20 41 43 39 170
47 20 168 43 39 170
48 24 56 15 13 17
49 13 356 361 363 360
50 13 356 361 363 362
51 13 356 361 360 362
52 14 363 361 360 362
53 26 280 283 281 285
54 24 447 281 278 283
55 12 15 56 177 132
56 12 15 56 177 57
57 13 15 56 132 57
58 13 177 56 132 57
59 25 128 180 185 179
60 25 14 17 15 18
61 6 531 532 534 530
62 6 531 532 534 508
63 4 531 532 530 508
64 17 530 532 508 534
65 19 528 531 532 527
66 18 528 531 532 533
67 20 528 531 527 533
68 20 532 531 527 533
69 25 15 13 11 53
70 3 63 545 576 572
71 3 63 545 576 546
72 3 63 545 572 546
73 14 576 545 572 546
74 22 294 123 121 291
75 21 294 123 121 292
76 23 294 123 291 292
77 23 121 123 291 292
78 2 287 282 279 280
79 2 287 282 483 280
80 13 280 282 279 483
81 3 287 282 279 483
82 24 282 280 283 277
83 19 269 472 473 466
84 18 269 472 473 474
85 20 269 472 466 474
86 20 473 472 466 474
87 5 379 223 224 357
88 5 379 223 222 357
89 15 224 223 222 357
90 4 379 223 224 222
91 25 130 128 180 126
92 26 276 278 281 116
93 25 276 277 280 275
94 28 528 116 269 278
95 5 531 528 507 116
96 5 531 528 529 116
97 15 507 528 529 116
98 4 531 528 507 529
99 5 472 269 270 116
100 5 472 269 271 116
101 15 270 269 271 116
102 4 472 269 270 271
103 24 274 276 277 278
104 3 274 113 115 158
105 3 274 113 115 157
106 3 274 113 158 157
107 14 115 113 158 157
108 1 113 274 276 117
109 1 113 274 276 273
110 3 113 274 117 273
111 13 276 274 117 273
112 19 223 379 430 193
113 18 223 379 430 378
114 20 223 379 193 378
115 20 430 379 193 378
116 6 379 430 380 428
117 6 379 430 380 432
118 4 379 430 428 432
119 17 428 430 432 380
120 25 13 11 12 10
121 27 388 384 386 380
122 25 384 388 392 387
123 25 388 392 334 335
124 25 390 386 384 382
125 27 14 12 11 9
126 9 490 487 485 484
127 9 490 487 491 484
128 17 485 487 491 484
129 7 490 487 485 491
130 3 282 287 289 288
131 3 282 287 289 489
132 3 282 287 288 489
133 14 289 287 288 489
134 10 490 492 486 493
135 10 490 492 486 494
136 7 490 492 493 494
137 16 493 492 494 486
138 22 487 490 492 486
139 21 487 490 492 488
140 23 487 490 486 488
141 23 492 490 486 488
142 11 123 121 241 119
143 11 123 121 241 122
144 7 123 121 119 122
145 17 119 121 122 241
146 25 12 14 17 16
147 25 456 453 575 452
148 5 86 84 82 317
149 5 86 84 552 317
150 15 82 84 552 317
151 4 86 84 82 552
152 6 140 142 143 144
153 6 140 142 143 141
154 4 140 142 144 141
155 17 144 142 141 143
156 19 257 140 142 139
157 18 257 140 142 138
158 20 257 140 139 138
159 20 142 140 139 138
160 2 545 63 98 64
161 2 545 63 539 64
162 13 64 63 98 539
163 3 545 63 98 539
164 13 322 152 154 151
165 13 322 152 154 150
166 13 322 152 151 150
167 14 154 152 151 150
168 26 67 65 64 542
169 30 65 542 547 540
170 24 63 64 65 66
171 24 69 67 70 65
172 13 67 69 46 44
173 13 67 69 46 48
174 13 67 69 44 48
175 14 46 69 44 48
176 26 67 70 68 72
177 25 68 66 64 100
178 29 257 72 74 70
179 24 71 68 66 70
180 5 140 257 254 72
181 5 140 257 258 72
182 15 254 257 258 72
183 4 140 257 254 258
184 29 569 327 156 325
185 24 152 322 325 320
186 26 321 320 322 317
187 26 322 325 326 327
188 29 84 317 464 320
189 24 328 326 323 325
190 24 319 321 320 323
191 25 326 323 321 324
192 5 568 569 567 327
193 5 568 569 451 327
194 15 567 569 451 327
195 4 568 569 567 451
196 19 84 86 561 559
197 18 84 86 561 88
198 20 84 86 559 88
199 20 561 86 559 88
200 27 149 146 148 143
201 29 372 155 153 109
202 25 26 22 23 20
203 1 383 328 326 385
204 1 383 328 326 332
205 3 383 328 385 332
206 13 326 328 385 332
207 5 108 105 106 95
208 5 108 105 104 95
209 15 106 105 104 95
210 4 108 105 106 104
211 26 112 109 267 155
212 13 112 92 93 94
213 13 112 92 93 38
214 13 112 92 94 38
215 14 93 92 94 38
216 25 255 217 424 220
217 1 204 71 68 75
218 1 204 71 68 101
219 3 204 71 75 101
220 13 68 71 75 101
221 27 577 575 453 573
222 25 462 255 217 256
223 25 29 24 148 28
224 6 108 504 501 506
225 6 108 504 501 582
226 4 108 504 506 582
227 17 506 504 582 501
228 6 368 367 369 365
229 6 368 367 369 364
230 4 368 367 365 364
231 17 365 367 364 369
232 25 33 32 26 535
233 19 569 568 571 564
234 18 569 568 571 565
235 20 569 568 564 565
236 20 571 568 564 565
237 19 3 4 8 1
238 18 3 4 8 5
239 20 3 4 1 5
240 20 8 4 1 5
241 6 568 571 573 570
242 6 568 571 573 566
243 4 568 571 570 566
244 17 570 571 566 573
245 3 328 383 512 381
246 3 328 383 512 389
247 3 328 383 381 389
248 14 512 383 381 389
249 19 105 108 504 107
250 18 105 108 504 19
251 20 105 108 107 19
252 20 504 108 107 19
253 25 371 188 216 184
254 25 30 33 32 36
255 25 24 148 146 145
256 3 71 204 203 202
257 3 71 204 203 205
258 3 71 204 202 205
259 14 203 204 202 205
260 19 372 368 367 370
261 18 372 368 367 366
262 20 372 368 370 366
263 20 367 368 370 366
264 27 188 371 374 369
265 25 425 374 371 376
266 26 111 91 112 95
267 5 4 3 99 95
268 5 4 3 2 95
269 15 99 3 2 95
270 4 4 3 99 2
271 5 368 372 373 155
272 5 368 372 375 155
273 15 373 372 375 155
274 4 368 372 373 375
275 28 3 95 105 91
276 25 188 216 218 215
277 6 4 8 9 7
278 6 4 8 9 6
279 4 4 8 7 6
280 17 7 8 6 9
281 27 22 26 32 534
282 25 218 425 374 426
283 24 219 218 425 216
284 24 92 112 91 109
285 25 469 470 585 468
286 25 470 585 516 584
287 24 515 516 333 585
288 25 475 477 479 562
289 24 515 475 477 478
290 22 523 521 520 519
291 21 523 521 520 525
292 23 523 521 519 525
293 23 520 521 519 525
294 11 521 520 358 518
295 11 521 520 358 524
296 7 521 520 518 524
297 17 518 520 524 358
298 8 521 523 522 519
299 8 521 523 526 519
300 16 522 523 526 519
301 7 521 523 522 526
302 12 516 515 475 513
303 12 516 515 475 514
304 13 516 515 513 514
305 13 475 515 513 514
306 25 516 333 331 272
307 24 229 233 235 232
308 25 480 478 475 476
309 27 350 353 352 358
310 24 187 185 136 180
311 27 470 469 331 467
312 25 333 331 469 330
313 12 233 229 231 228
314 12 233 229 231 226
315 13 233 229 228 226
316 13 231 229 228 226
317 24 229 231 201 445
318 25 482 480 478 481
319 25 477 479 482 563
320 12 186 187 185 189
321 12 186 187 185 183
322 13 186 187 189 183
323 13 185 187 189 183
324 19 244 247 252 243
325 18 244 247 252 246
326 20 244 247 243 246
327 20 252 247 243 246
328 25 353 350 343 517
329 25 231 201 404 237
330 27 480 482 479 484
331 25 185 136 135 191
332 25 348 352 353 290
333 25 350 343 342 339
334 25 60 190 186 192
335 25 234 232 233 230
336 25 233 235 239 236
337 5 247 244 245 173
338 5 247 244 242 173
339 15 245 244 242 173
340 4 247 244 245 242
341 25 580 456 453 457
342 25 397 445 231 444
343 24 581 580 456 578
344 12 417 581 580 460
345 12 417 581 580 549
346 13 417 581 460 549
347 13 580 581 460 549
348 8 211 210 207 213
349 8 211 210 212 213
350 16 207 210 212 213
351 7 211 210 207 212
352 6 472 473 467 471
353 6 472 473 467 443
354 4 472 473 471 443
355 17 471 473 443 467
356 8 312 311 308 313
357 8 312 311 314 313
358 16 308 311 314 313
359 7 312 311 308 314
360 22 311 312 310 313
361 21 311 312 310 315
362 23 311 312 313 315
363 23 310 312 313 315
364 25 136 135 130 137
365 25 235 239 238 240
366 27 234 238 239 241
367 11 312 310 306 309
368 11 312 310 306 377
369 7 312 310 309 377
370 17 309 310 377 306
371 22 210 211 208 213
372 21 210 211 208 214
373 23 210 211 213 214
374 23 208 211 213 214
375 11 211 208 413 206
376 11 211 208 413 209
377 7 211 208 206 209
378 17 206 208 209 413
379 25 415 418 417 419
380 27 415 414 412 413
381 24 581 417 455 418
382 25 414 415 418 416
383 25 455 412 414 411
384 24 337 342 348 343
385 9 251 131 134 129
386 9 251 131 133 129
387 17 134 131 133 129
388 7 251 131 134 133
389 25 417 455 412 454
390 12 342 337 334 338
391 12 342 337 334 336
392 13 342 337 338 336
393 13 334 337 338 336
394 25 238 234 232 118
395 27 128 130 135 129
396 25 342 348 352 284
397 25 334 390 386 391
398 24 337 334 390 392
399 27 301 304 305 306
400 25 436 439 393 441
401 25 302 305 304 307
402 25 304 301 298 300
403 8 123 294 297 291
404 8 123 294 249 291
405 16 297 294 249 291
406 7 123 294 297 249
407 22 131 251 250 125
408 21 131 251 250 248
409 23 131 251 125 248
410 23 250 251 125 248
411 10 251 250 125 103
412 10 251 250 125 102
413 7 251 250 103 102
414 16 103 250 102 125
415 25 201 404 400 409
416 25 58 60 190 61
417 24 187 186 182 190
418 3 319 510 583 509
419 3 319 510 583 511
420 3 319 510 509 511
421 14 583 510 509 511
422 10 405 544 543 548
423 10 405 544 543 541
424 7 405 544 548 541
425 16 548 544 541 543
426 11 79 55 59 54
427 11 79 55 59 52
428 7 79 55 54 52
429 17 54 55 52 59
430 22 406 405 544 543
431 21 406 405 544 538
432 23 406 405 543 538
433 23 544 405 543 538
434 27 60 58 181 59
435 25 186 182 181 178
436 25 182 181 58 51
437 9 405 406 410 402
438 9 405 406 408 402
439 17 410 406 408 402
440 7 405 406 410 408
441 27 397 400 404 402
442 25 400 397 445 396
443 8 197 196 198 199
444 8 197 196 194 199
445 16 198 196 194 199
446 7 197 196 198 194
447 22 78 79 55 77
448 21 78 79 55 81
449 23 78 79 77 81
450 23 55 79 77 81
451 8 79 78 80 77
452 8 79 78 76 77
453 16 80 78 76 77
454 7 79 78 80 76
455 6 86 561 558 90
456 6 86 561 558 537
457 4 86 561 90 537
458 17 90 561 537 558
459 25 500 498 497 496
460 25 498 497 499 495
461 22 196 197 195 199
462 21 196 197 195 200
463 23 196 197 199 200
464 23 195 197 199 200
465 27 498 500 503 501
466 12 30 31 29 35
467 12 30 31 29 34
468 13 30 31 35 34
469 13 29 31 35 34
470 25 146 149 25 147
471 25 149 25 29 27
472 6 247 252 461 459
473 6 247 252 461 253
474 4 247 252 459 253
475 17 459 252 253 461
476 2 510 319 316 321
477 2 510 319 465 321
478 13 321 319 316 465
479 3 510 319 316 465
480 27 255 462 421 461
481 25 442 438 435 437
482 24 31 30 33 23
483 25 423 421 462 420
484 25 502 503 500 505
485 24 295 499 502 497
486 12 436 434 555 431
487 12 436 434 555 429
488 13 436 434 431 429
489 13 555 434 431 429
490 25 560 557 555 440
491 25 439 393 442 395
492 25 556 560 557 536
493 25 438 435 436 433
494 12 299 295 499 293
495 12 299 295 499 458
496 13 299 295 293 458
497 13 499 295 293 458
498 25 499 502 503 463
499 24 219 424 423 217
500 3 89 85 110 83
501 3 89 85 110 87
502 3 89 85 83 87
503 14 110 85 83 87
504 24 89 111 268 91
505 25 575 577 578 574
506 25 577 578 580 579
507 24 31 29 24 25
508 25 301 298 299 296
509 12 424 219 218 221
510 12 424 219 218 427
511 13 424 219 221 427
512 13 218 219 221 427
513 24 262 267 109 268
514 27 438 442 393 394
515 24 434 436 439 435
516 25 299 302 305 303
517 25 555 553 554 550
518 2 263 262 261 267
519 2 263 262 260 267
520 13 267 262 261 260
521 3 263 262 261 260
522 24 295 299 302 298
523 27 560 556 554 558
524 1 85 89 111 225
525 1 85 89 111 62
526 3 85 89 225 62
527 13 111 89 225 62
528 3 262 263 264 259
529 3 262 263 264 265
530 3 262 263 259 265
531 14 264 263 259 265
532 25 424 423 421 422
533 25 111 268 267 266
534 11 197 195 394 163
535 11 197 195 394 398
536 7 197 195 163 398
537 17 163 195 398 394
538 25 553 554 556 551
539 24 434 555 553 557
540 25 22 23 30 21
