LAMMPS data file via write_data, version 4 Jul 2026, timestep = 2962000, units = real

585 atoms
11 atom types
615 bonds
18 bond types
1090 angles
35 angle types
1532 dihedrals
48 dihedral types
540 impropers
30 improper types

1.4865548389908625 19.667224171005497 xlo xhi
1.4865548389908625 19.667224171005497 ylo yhi
1.4865548389908625 19.667224171005497 zlo zhi

Masses

1 12.01115
2 12.01115
3 12.01115
4 12.01115
5 1.00797
6 1.00797
7 1.00797
8 14.0067
9 15.9994
10 15.9994
11 15.9994

Pair Coeffs # lj/class2/coul/long

1 0.054 4.01
2 0.054 4.01
3 0.054 4.01
4 0.064 4.01
5 0.02 2.995
6 0.013 1.098
7 0.013 1.098
8 0.065 4.07
9 0.24 3.535
10 0.24 3.535
11 0.24 3.535

Bond Coeffs # class2

1 1.53 299.67 -501.77 679.81
2 1.53 299.67 -501.77 679.81
3 1.53 299.67 -501.77 679.81
4 1.501 321.902 -521.821 572.163
5 1.101 345 -691.89 844.6
6 1.457 365.805 -699.637 998.484
7 1.42 400.395 -835.195 1313.01
8 1.42 400.395 -835.195 1313.01
9 1.101 345 -691.89 844.6
10 1.42 400.395 -835.195 1313.01
11 1.101 345 -691.89 844.6
12 1.42 400.395 -835.195 1313.01
13 1.417 470.836 -627.618 1327.63
14 1.0982 372.825 -803.453 894.317
15 1.412 257.775 0 0
16 1.3768 428.88 -738.235 1114.97
17 1.006 466.74 -1073.6 1251.11
18 0.965 532.506 -1282.9 2004.77

Angle Coeffs # class2

1 108.4 43.9594 -8.3924 -9.3379
2 110.77 41.453 -10.604 5.129
3 112.67 39.516 -7.443 -9.5583
4 110.77 41.453 -10.604 5.129
5 111.27 54.5381 -8.3642 -13.0838
6 112.67 39.516 -7.443 -9.5583
7 110.77 41.453 -10.604 5.129
8 111.27 54.5381 -8.3642 -13.0838
9 120.05 44.7148 -22.7352 0
10 112.444 47.2337 -10.6612 -10.2062
11 109 80 0 0
12 110.954 50.8652 -4.4522 -10.0298
13 104.5 35.7454 -10.0067 -6.2729
14 102.969 38.9739 -6.2595 -8.171
15 110.77 41.453 -10.604 5.129
16 111.91 60.7147 -13.3366 -13.0785
17 111.27 54.5381 -8.3642 -13.0838
18 105.8 52.7061 -12.109 -9.8681
19 110.77 41.453 -10.604 5.129
20 111.27 54.5381 -8.3642 -13.0838
21 111.27 54.5381 -8.3642 -13.0838
22 111 44.3234 -9.4454 0
23 111 44.3234 -9.4454 0
24 118.9 61.0226 -34.9931 0
25 117.94 35.1558 -12.4682 0
26 120 102 0 0
27 123.42 73.6781 -21.6787 0
28 110 41.6 0 0
29 107.66 39.641 -12.921 -2.4318
30 110.62 51.3137 -6.7198 -2.6003
31 108.728 58.5446 -10.8088 -12.4006
32 108.728 58.5446 -10.8088 -12.4006
33 108.728 58.5446 -10.8088 -12.4006
34 108.728 58.5446 -10.8088 -12.4006
35 107.067 45.252 -7.5558 -9.512

BondBond Coeffs

1 0 1.53 1.501
2 3.3872 1.53 1.101
3 0 1.53 1.53
4 3.3872 1.53 1.101
5 11.4318 1.53 1.42
6 0 1.53 1.53
7 3.3872 1.53 1.101
8 11.4318 1.53 1.42
9 12.0676 1.501 1.417
10 -2.1113 1.457 1.457
11 0 1.457 1.412
12 -6.4168 1.457 1.006
13 -7.1131 1.42 1.42
14 0 1.42 1.3768
15 3.3872 1.53 1.101
16 4.6217 1.53 1.457
17 11.4318 1.53 1.42
18 -9.6879 1.42 0.965
19 3.3872 1.53 1.101
20 11.4318 1.53 1.42
21 11.4318 1.53 1.42
22 0 1.501 1.501
23 2.9168 1.501 1.101
24 68.2856 1.417 1.417
25 1.0795 1.417 1.0982
26 0 1.417 1.412
27 48.4754 1.417 1.3768
28 0 1.412 1.006
29 5.3316 1.101 1.101
30 12.426 1.101 1.457
31 23.1979 1.101 1.42
32 23.1979 1.101 1.42
33 23.1979 1.101 1.42
34 23.1979 1.101 1.42
35 -1.8749 1.006 1.006

BondAngle Coeffs

1 0 0 1.53 1.501
2 20.754 11.421 1.53 1.101
3 8.016 8.016 1.53 1.53
4 20.754 11.421 1.53 1.101
5 2.6868 20.4033 1.53 1.42
6 8.016 8.016 1.53 1.53
7 20.754 11.421 1.53 1.101
8 2.6868 20.4033 1.53 1.42
9 47.0579 31.0771 1.501 1.417
10 -7.2229 -7.2229 1.457 1.457
11 0 0 1.457 1.412
12 31.8096 20.5799 1.457 1.006
13 -2.8112 -2.8112 1.42 1.42
14 0 0 1.42 1.3768
15 20.754 11.421 1.53 1.101
16 6.0876 16.5702 1.53 1.457
17 2.6868 20.4033 1.53 1.42
18 28.58 18.9277 1.42 0.965
19 20.754 11.421 1.53 1.101
20 2.6868 20.4033 1.53 1.42
21 2.6868 20.4033 1.53 1.42
22 0 0 1.501 1.501
23 26.4608 11.7717 1.501 1.101
24 28.8708 28.8708 1.417 1.417
25 20.0033 24.2183 1.417 1.0982
26 0 0 1.417 1.412
27 58.479 107.681 1.417 1.3768
28 0 0 1.412 1.006
29 18.103 18.103 1.101 1.101
30 13.4582 42.4332 1.101 1.457
31 4.6189 55.327 1.101 1.42
32 4.6189 55.327 1.101 1.42
33 4.6189 55.327 1.101 1.42
34 4.6189 55.327 1.101 1.42
35 28.0322 28.0322 1.006 1.006

Dihedral Coeffs # class2

1 -0.2802 0 -0.0678 0 -0.0122 0
2 0 0 0.0316 0 -0.1681 0
3 0.1764 0 0.1766 0 -0.5206 0
4 0.7137 0 0.266 0 -0.2545 0
5 -0.6732 0 -0.4778 0 -0.167 0
6 0 0 0.0316 0 -0.1681 0
7 0.7137 0 0.266 0 -0.2545 0
8 0.7137 0 0.266 0 -0.2545 0
9 -0.5203 0 -0.3028 0 -0.345 0
10 0 0 4.4072 0 0 0
11 0 0 1.559 0 0 0
12 0 0 3 0 0 0
13 -0.1406 0 0.4168 0 0.015 0
14 0.1904 0 -0.1342 0 -0.246 0
15 0 0 2.25 0 0 0
16 0.5302 0 0 0 -0.3966 0
17 0 0 1.5 0 0 0
18 0 0 0 0 0.05 180
19 -1.1506 0 -0.6344 0 -0.1845 0
20 0 0 0 0 0.13 180
21 0 0 0 0 0.13 180
22 0.5302 0 0 0 -0.3966 0
23 -0.0228 0 0.028 0 -0.1863 0
24 -0.2802 0 -0.0678 0 -0.0122 0
25 -0.2801 0 -0.0678 0 -0.0122 0
26 8.3667 0 1.1932 0 0 0
27 0 0 3.9661 0 0 0
28 0 0 3 0 0 0
29 0 0 4.8498 0 0 0
30 0 0 2.25 0 0 0
31 0 0 0 0 0.05 180
32 0.9513 0 0.1155 0 0.072 0
33 -0.1432 0 0.0617 0 -0.1083 0
34 -0.1432 0 0.0617 0 -0.1083 0
35 -0.1435 0 0.253 0 -0.0905 0
36 -0.1432 0 0.0617 0 -0.1083 0
37 -0.1435 0 0.253 0 -0.0905 0
38 -0.5187 0 -0.4837 0 -0.1692 0
39 -0.2428 0 0.4065 0 -0.3079 0
40 -0.1435 0 0.253 0 -0.0905 0
41 0.1863 0 -0.4338 0 -0.2121 0
42 -0.1435 0 0.253 0 -0.0905 0
43 -0.1435 0 0.253 0 -0.0905 0
44 0 0 1.8769 0 0 0
45 0 0 1.7234 0 0 0
46 0 0 0 0 0.158 180
47 -0.182 0 -0.1084 0 -0.7047 0
48 -0.182 0 -0.1084 0 -0.7047 0

AngleAngleTorsion Coeffs

1 0 108.4 120.05
2 -16.164 112.67 110.77
3 -27.3953 112.67 111.91
4 -29.042 112.67 111.27
5 -12.1038 111.27 105.8
6 -16.164 112.67 110.77
7 -29.042 112.67 111.27
8 -29.042 112.67 111.27
9 -19.0059 111.27 104.5
10 -14.4097 120.05 118.9
11 4.4444 120.05 117.94
12 0 120.05 120
13 -24.3818 112.444 111.91
14 -12.5567 112.444 110.62
15 0 109 120
16 -16.4438 104.5 108.728
17 0 102.969 123.42
18 0 111.91 109
19 -7.5499 111.91 110.954
20 0 111.27 102.969
21 0 111.27 102.969
22 -16.4438 104.5 108.728
23 0 108.4 110.77
24 0 111 120.05
25 -5.8888 120.05 111
26 0 118.9 118.9
27 -4.8141 118.9 117.94
28 0 118.9 120
29 -21.0247 118.9 123.42
30 0 120 110
31 0 109 110.62
32 0 102.969 108.728
33 -12.564 110.77 110.77
34 -12.564 110.77 110.77
35 -20.2006 110.77 111.27
36 -12.564 110.77 110.77
37 -20.2006 110.77 111.27
38 -10.4258 110.62 110.954
39 -15.7572 110.77 111.91
40 -20.2006 110.77 111.27
41 -10.5093 108.728 105.8
42 -20.2006 110.77 111.27
43 -20.2006 110.77 111.27
44 0.3598 117.94 117.94
45 4.2296 117.94 123.42
46 0 111.91 111.27
47 -14.0484 111.27 111.27
48 -14.0484 111.27 111.27

EndBondTorsion Coeffs

1 0 0 0 0 0 0 1.53 1.417
2 0.2486 0.2422 -0.0925 0.0814 0.0591 0.2219 1.53 1.101
3 0.1032 0.5896 -0.4836 0.0579 -0.0043 -0.1906 1.53 1.457
4 -0.319 0.4411 -0.7174 1.1538 0.8409 -0.9138 1.53 1.42
5 -0.58 0.9004 0 0 0.5343 0.9025 1.53 0.965
6 0.2486 0.2422 -0.0925 0.0814 0.0591 0.2219 1.53 1.101
7 -0.319 0.4411 -0.7174 1.1538 0.8409 -0.9138 1.53 1.42
8 -0.319 0.4411 -0.7174 1.1538 0.8409 -0.9138 1.53 1.42
9 -0.2456 1.0517 -0.7795 0.4741 1.2635 0.5576 1.53 1.42
10 0 0.2421 0 0 -0.6918 0 1.501 1.417
11 0 -1.797 0 0 -0.4879 0 1.501 1.0982
12 0 0 0 0 0 0 1.501 1.412
13 -0.0128 -0.0495 -0.1079 0.0997 -0.0046 -0.2657 1.457 1.53
14 0.0628 0.0873 -0.0882 -0.5892 0.714 0.3505 1.457 1.101
15 0 0 0 0 0 0 1.457 1.417
16 -0.162 0.1564 -1.1408 -0.6054 1.3339 0.9648 1.42 1.101
17 0 0 0 0 0 0 1.42 1.417
18 0 0 0 0 0 0 1.53 1.412
19 -0.9466 0.9356 -0.5542 0.057 0.0625 0.4112 1.53 1.006
20 0 0 0 0 0 0 1.53 1.3768
21 0 0 0 0 0 0 1.53 1.3768
22 -0.162 0.1564 -1.1408 -0.6054 1.3339 0.9648 1.42 1.101
23 0 0 0 0 0 0 1.501 1.101
24 0 0 0 0 0 0 1.501 1.417
25 -0.5835 1.122 0.3978 1.3997 0.7756 0 1.417 1.101
26 -0.1185 6.3204 0 -0.1185 6.3204 0 1.417 1.417
27 0 -6.8958 0 0 -0.4669 0 1.417 1.0982
28 0 0 0 0 0 0 1.417 1.412
29 0 0.2655 0 0 4.8905 0 1.417 1.3768
30 0 0 0 0 0 0 1.417 1.006
31 0 0 0 0 0 0 1.412 1.101
32 0 0 0 0 0 0 1.3768 1.101
33 0.213 0.312 0.0777 0.213 0.312 0.0777 1.101 1.101
34 0.213 0.312 0.0777 0.213 0.312 0.0777 1.101 1.101
35 0.9681 0.9551 0.0436 0.5903 0.6669 0.8584 1.101 1.42
36 0.213 0.312 0.0777 0.213 0.312 0.0777 1.101 1.101
37 0.9681 0.9551 0.0436 0.5903 0.6669 0.8584 1.101 1.42
38 -1.1685 0.9266 -0.0993 0.085 0.3061 0.2104 1.101 1.006
39 0.196 0.7056 0.112 0.1022 0.209 0.6433 1.101 1.457
40 0.9681 0.9551 0.0436 0.5903 0.6669 0.8584 1.101 1.42
41 -1.7554 1.3145 0.2263 0.2493 0.6803 0 1.101 0.965
42 0.9681 0.9551 0.0436 0.5903 0.6669 0.8584 1.101 1.42
43 0.9681 0.9551 0.0436 0.5903 0.6669 0.8584 1.101 1.42
44 0 -0.689 0 0 -0.689 0 1.0982 1.0982
45 0 -1.5867 0 0 4.2641 0 1.0982 1.3768
46 0 0 0 0 0 0 1.457 1.42
47 1.0165 0.7553 -0.4609 1.0165 0.7553 -0.4609 1.42 1.42
48 1.0165 0.7553 -0.4609 1.0165 0.7553 -0.4609 1.42 1.42

MiddleBondTorsion Coeffs

1 0 0 0 1.501
2 -14.879 -3.6581 -0.3138 1.53
3 -15.4174 -7.3055 -1.0749 1.53
4 -21.8842 -7.6764 -0.6868 1.53
5 1.2472 0 0.7485 1.42
6 -14.879 -3.6581 -0.3138 1.53
7 -21.8842 -7.6764 -0.6868 1.53
8 -21.8842 -7.6764 -0.6868 1.53
9 -5.9288 -2.7007 -0.3175 1.42
10 0 9.1792 0 1.417
11 0 3.9421 0 1.417
12 0 0 0 1.417
13 -8.0036 -7.7321 -3.064 1.457
14 -6.4529 -6.8122 -1.1632 1.457
15 0 0 0 1.412
16 -6.8007 -4.6546 -1.4101 1.42
17 0 0 0 1.3768
18 0 0 0 1.457
19 -2.2208 0.5479 -0.3527 1.457
20 0 0 0 1.42
21 0 0 0 1.42
22 -6.8007 -4.6546 -1.4101 1.42
23 0 0 0 1.53
24 0 0 0 1.501
25 -5.5679 1.4083 0.301 1.501
26 27.5989 -2.312 0 1.417
27 0 -1.1521 0 1.417
28 0 0 0 1.417
29 0 4.8255 0 1.417
30 0 0 0 1.412
31 0 0 0 1.457
32 0 0 0 1.42
33 -14.261 -0.5322 -0.4864 1.53
34 -14.261 -0.5322 -0.4864 1.53
35 -16.7975 -1.2296 -0.275 1.53
36 -14.261 -0.5322 -0.4864 1.53
37 -16.7975 -1.2296 -0.275 1.53
38 -3.4611 1.6996 -0.6007 1.457
39 -10.4959 -0.7647 -0.0545 1.53
40 -16.7975 -1.2296 -0.275 1.53
41 0 0.9241 -0.5889 1.42
42 -16.7975 -1.2296 -0.275 1.53
43 -16.7975 -1.2296 -0.275 1.53
44 0 4.8228 0 1.417
45 0 5.5432 0 1.417
46 0 0 0 1.53
47 -17.2585 -3.6157 -0.8364 1.53
48 -17.2585 -3.6157 -0.8364 1.53

BondBond13 Coeffs

1 0 1.53 1.417
2 0 1.53 1.101
3 0 1.53 1.457
4 0 1.53 1.42
5 0 1.53 0.965
6 0 1.53 1.101
7 0 1.53 1.42
8 0 1.53 1.42
9 0 1.53 1.42
10 2.5085 1.501 1.417
11 0.8743 1.501 1.0982
12 0 1.501 1.412
13 0 1.457 1.53
14 0 1.457 1.101
15 0 1.457 1.417
16 0 1.42 1.101
17 0 1.42 1.417
18 0 1.53 1.412
19 0 1.53 1.006
20 0 1.53 1.3768
21 0 1.53 1.3768
22 0 1.42 1.101
23 0 1.501 1.101
24 0 1.501 1.417
25 -3.4826 1.417 1.101
26 53 1.417 1.417
27 -6.2741 1.417 1.0982
28 0 1.417 1.412
29 -2.2436 1.417 1.3768
30 0 1.417 1.006
31 0 1.412 1.101
32 0 1.3768 1.101
33 0 1.101 1.101
34 0 1.101 1.101
35 0 1.101 1.42
36 0 1.101 1.101
37 0 1.101 1.42
38 0 1.101 1.006
39 0 1.101 1.457
40 0 1.101 1.42
41 0 1.101 0.965
42 0 1.101 1.42
43 0 1.101 1.42
44 -1.7077 1.0982 1.0982
45 2.0517 1.0982 1.3768
46 0 1.457 1.42
47 0 1.42 1.42
48 0 1.42 1.42

AngleTorsion Coeffs

1 0 0 0 0 0 0 108.4 120.05
2 -0.2454 0 -0.1136 0.3113 0.4516 -0.1988 112.67 110.77
3 -1.9225 -1.345 0.221 2.0125 0.944 -2.7612 112.67 111.91
4 0.5623 -0.3041 -0.4015 0.9672 -0.7566 -1.2331 112.67 111.27
5 -3.5903 2.5225 0.4888 0.8726 -0.3577 0.3888 111.27 105.8
6 -0.2454 0 -0.1136 0.3113 0.4516 -0.1988 112.67 110.77
7 0.5623 -0.3041 -0.4015 0.9672 -0.7566 -1.2331 112.67 111.27
8 0.5623 -0.3041 -0.4015 0.9672 -0.7566 -1.2331 112.67 111.27
9 -2.7466 1.4877 -0.8955 0.5676 0.945 0.0703 111.27 104.5
10 0 -4.4683 0 0 3.8987 0 120.05 118.9
11 0 -0.1242 0 0 3.4601 0 120.05 117.94
12 0 0 0 0 0 0 120.05 120
13 1.2031 1.3645 -0.7071 -2.7883 1.5193 1.4796 112.444 111.91
14 -1.3582 0.1465 -0.5729 -2.6321 0.9353 -0.8398 112.444 110.62
15 0 0 0 0 0 0 109 120
16 -0.7777 0.434 -0.6653 -1.8234 1.6393 0.5144 104.5 108.728
17 0 0 0 0 0 0 102.969 123.42
18 0 0 0 0 0 0 111.91 109
19 -3.343 4.4558 -0.0346 0.2873 -0.8072 -0.096 111.91 110.954
20 0 0 0 0 0 0 111.27 102.969
21 0 0 0 0 0 0 111.27 102.969
22 -0.7777 0.434 -0.6653 -1.8234 1.6393 0.5144 104.5 108.728
23 0 0 0 0 0 0 108.4 110.77
24 0 0 0 0 0 0 111 120.05
25 0.2251 0.6548 0.1237 4.6266 0.1632 0.0461 120.05 111
26 1.9767 1.0239 0 1.9767 1.0239 0 118.9 118.9
27 0 2.5014 0 0 2.7147 0 118.9 117.94
28 0 0 0 0 0 0 118.9 120
29 0 10.0155 0 0 1.7404 0 118.9 123.42
30 0 0 0 0 0 0 120 110
31 0 0 0 0 0 0 109 110.62
32 0 0 0 0 0 0 102.969 108.728
33 -0.8085 0.5569 -0.2466 -0.8085 0.5569 -0.2466 110.77 110.77
34 -0.8085 0.5569 -0.2466 -0.8085 0.5569 -0.2466 110.77 110.77
35 2.3668 2.492 -1.0122 -0.1892 0.4918 0.7273 110.77 111.27
36 -0.8085 0.5569 -0.2466 -0.8085 0.5569 -0.2466 110.77 110.77
37 2.3668 2.492 -1.0122 -0.1892 0.4918 0.7273 110.77 111.27
38 -3.9582 2.0063 0.3213 -0.4294 -0.4442 -0.6141 110.62 110.954
39 0.5111 1.6328 -1.0155 -1.1075 0.282 0.8318 110.77 111.91
40 2.3668 2.492 -1.0122 -0.1892 0.4918 0.7273 110.77 111.27
41 -3.406 1.6396 0.0737 0 -0.281 -0.5944 108.728 105.8
42 2.3668 2.492 -1.0122 -0.1892 0.4918 0.7273 110.77 111.27
43 2.3668 2.492 -1.0122 -0.1892 0.4918 0.7273 110.77 111.27
44 0 2.4501 0 0 2.4501 0 117.94 117.94
45 0 1.8729 0 0 2.5706 0 117.94 123.42
46 0 0 0 0 0 0 111.91 111.27
47 0.5511 0.9737 -0.6673 0.5511 0.9737 -0.6673 111.27 111.27
48 0.5511 0.9737 -0.6673 0.5511 0.9737 -0.6673 111.27 111.27

Improper Coeffs # class2

1 0 0
2 0 0
3 0 0
4 0 0
5 0 0
6 0 0
7 0 0
8 0 0
9 0 0
10 0 0
11 0 0
12 0 0
13 0 0
14 0 0
15 0 0
16 0 0
17 0 0
18 0 0
19 0 0
20 0 0
21 0 0
22 0 0
23 0 0
24 7.8153 0
25 4.8912 0
26 0 0
27 13.0421 0
28 0 0
29 0 0
30 0 0

AngleAngle Coeffs

1 2.0403 -1.8202 1.0827 108.4 110.77 111
2 1.0827 -1.8202 2.0403 110.77 108.4 111
3 0.2738 -0.4825 0.2738 110.77 110.77 107.66
4 0.2738 -0.4825 0.2738 110.77 110.77 107.66
5 2.4286 0.5381 -2.5301 110.77 111.91 110.62
6 0.1689 2.5926 3.9177 111.27 110.77 108.728
7 0.2738 -0.4825 0.2738 110.77 110.77 107.66
8 3.9177 2.5926 0.1689 110.77 111.27 108.728
9 3.9177 2.5926 0.1689 110.77 111.27 108.728
10 0.1689 2.5926 3.9177 111.27 110.77 108.728
11 0.1689 2.5926 3.9177 111.27 110.77 108.728
12 0 0 0 111 111 111
13 2.3794 3.0118 2.3794 111 111 107.66
14 -0.3157 -0.3157 -0.3157 107.66 107.66 107.66
15 2.4321 2.4321 -3.5496 107.66 110.62 110.62
16 2.4259 2.4259 2.1283 107.66 108.728 108.728
17 2.4259 2.4259 2.1283 107.66 108.728 108.728
18 -1.3199 -1.3199 0.1184 112.67 110.77 110.77
19 -0.833 -0.833 -3.5744 112.67 111.27 111.27
20 0.1689 2.5926 3.9177 111.27 110.77 108.728
21 -1.3199 -1.3199 0.1184 112.67 110.77 110.77
22 -0.833 -0.833 -3.5744 112.67 111.27 111.27
23 0.1689 2.5926 3.9177 111.27 110.77 108.728
24 0 0 0 120.05 120.05 118.9
25 0 0 0 118.9 117.94 117.94
26 0 0 0 118.9 120 120
27 0 0 0 118.9 123.42 123.42
28 0 0 0 112.444 109 109
29 0 0 0 110.954 109 110
30 0 0 0 110 110 107.067

Atoms # full

447 1 1 -0.159 3.3392109230604983 4.975639079767394 3.846667381985084 0 0 0
351 1 4 0 7.9493482431919045 4.479146205342023 8.936359623778172 0 1 0
448 1 5 0.053 3.106451827411614 3.952204491355834 3.6588440634656236 0 0 0
446 1 5 0.053 4.222824176382322 4.989589696383452 4.556594820674732 0 0 0
450 1 5 0.053 3.828875448639376 5.2507127904581985 2.9115201793442047 0 0 0
285 1 8 -0.3314 3.7905306953070155 7.7284260452366365 3.3184309446938713 0 0 0
286 1 6 0.2487 4.478275894335001 6.9318343638073285 3.4618249457273285 0 0 0
349 1 4 0 7.781593225095817 7.207191001410369 8.193020989256095 0 1 0
345 1 1 -0.106 7.479794997594701 8.618974217964961 7.915841020516319 0 1 0
47 1 4 -0.1268 7.665458024649046 5.331383349324362 4.6929828958105615 0 0 0
45 1 5 0.1268 7.715990159263156 6.270596695644997 5.2664157732910954 0 0 0
49 1 4 -0.1268 8.226703600709236 4.102583638552556 5.112613879487511 0 0 0
50 1 5 0.1268 8.521967157389454 3.9619788686958617 6.167216225796351 0 0 0
344 1 4 -0.1268 6.6263508211232764 6.391087386448947 8.258880786908417 0 1 0
347 1 4 0 6.711410469990737 5.006781263583763 8.515939726938639 0 1 0
403 1 1 -0.159 7.4608979883002995 9.001686305393669 6.372375291173906 0 1 0
401 1 5 0.053 6.793515574421034 8.35023556183271 5.741161701806415 0 1 0
177 1 4 0 8.305787732908794 2.9685728029403005 4.322072583485934 0 0 0
341 1 5 0.1268 5.5782331356352985 6.748162966241163 7.983629549720809 0 1 0
173 1 8 -0.3314 8.110501690495395 3.1920857345731797 9.449828663936529 0 1 0
162 1 1 -0.159 5.0681054146217885 4.114590687906515 6.975393013407228 0 1 0
165 1 1 -0.106 5.538257733550261 4.006414538158763 8.395324657029313 0 1 0
41 1 1 -0.0233 3.877310181118699 8.018288807909414 1.9461497893980437 0 0 0
174 1 4 0.0265 7.162003087846199 5.403428887225055 3.3884330628670236 0 0 0
160 1 5 0.053 4.36966898395726 3.311185874789892 6.656277914222615 0 1 0
124 1 4 -0.1268 7.740997263296032 3.0491750027088593 3.067151581767794 0 0 0
176 1 4 -0.1268 7.23681761896387 4.259952463490361 2.573772983125453 0 0 0
161 1 5 0.053 4.644414698940187 5.120876040395856 6.706078103654984 0 1 0
159 1 5 0.053 5.963523366651164 3.9789171701429296 6.365037892072521 0 1 0
356 1 4 0 9.089572657313155 5.297363334152516 8.874668872301363 0 1 0
354 1 4 0 9.029251862951284 6.6466462721355395 8.465532335587255 0 1 0
346 1 5 0.053 8.10561767289522 9.34961914694292 8.475043402551051 0 1 0
283 1 4 0 2.4836676585237205 7.3683984323254865 3.786120419274976 0 0 0
281 1 4 0 2.19260944004841 5.9977602835186214 4.032896031453627 0 0 0
171 1 6 0.2487 9.09773444012257 2.9060391109759642 9.567922730472844 0 1 0
169 1 10 -0.1595 6.647738161455114 6.649182695210608 2.906456160336015 0 0 0
166 1 5 0.053 4.829399214782233 4.087413653802214 9.218775222867267 0 1 0
399 1 5 0.053 8.514664603226759 8.745636589506912 6.100686410118604 0 1 0
340 1 5 0.053 6.54301007560448 8.853181081518521 8.329050061734103 0 1 0
359 1 6 0.2487 10.068001846285592 8.351547469286832 8.276120500229826 0 1 0
73 1 7 0.4241 3.9792490156591507 8.42546055628462 5.657182155815537 0 0 0
139 1 11 -0.5571 3.6979512152892973 8.276807886528266 6.5980962307427236 1 -1 1
142 1 1 0.027 2.243431983883059 9.06542478245395 8.18570406302011 1 -1 1
140 1 2 0.08 3.0555535768627404 9.510518153080657 6.953345050178318 1 -1 1
164 1 5 0.053 5.903112525644552 2.9441324327448086 8.41105084317152 0 1 0
529 1 5 0.053 2.292700488860423 3.910509049480515 5.739960285516953 1 0 1
144 1 5 0.053 2.9767832274393577 8.976702001322066 8.973093496376123 1 -1 1
141 1 5 0.053 1.7832443642766695 8.011218421207662 8.037026549350152 1 -1 1
39 1 11 -0.5571 6.118041408704093 9.21311713880229 2.068715572993436 0 0 0
483 1 5 0.053 2.485007030922791 10.003749847971344 3.194381342914352 0 0 0
444 3 5 0.1268 3.484975732461828 2.7416598706567035 10.32195303244766 0 0 0
357 1 8 -0.3314 10.19964132230732 7.400168829080375 8.366636808790707 0 1 0
138 1 5 0.053 2.286764161145159 9.73759588873047 6.103889608230268 1 -1 1
127 1 5 0.1268 7.854330616467304 2.2117668809114073 2.347083182499843 0 0 0
238 3 4 0.0265 17.750982451527285 5.514276000810234 10.28421992543669 -1 0 0
491 1 5 0.053 10.236213084506717 4.855651896215598 2.5058405910696218 1 1 1
530 1 5 0.053 2.241748134689484 2.815195953098952 8.06036868877894 1 0 1
230 3 5 0.1268 2.7801893241769644 6.551479611937478 9.999611432961515 0 0 0
232 3 4 -0.1268 1.9529800101409034 5.979452005773447 10.407977720007134 0 0 0
56 1 1 -0.106 8.84710791088239 1.6187544522160857 4.756747275774021 0 0 0
4 1 2 0.08 16.212085564581542 18.384449354138777 5.305333590225784 0 -1 0
168 1 1 0.027 6.1319164691712285 6.845716502235746 1.5437549030712565 0 0 0
222 1 5 0.053 10.450801638931521 6.9817675632443645 6.245192270489262 -1 0 0
449 1 7 0.4241 5.728528030716814 10.006882232009158 1.6612742512637158 0 0 0
18 1 5 0.1268 10.341218819504064 1.6697155177286438 7.15561883300784 0 0 0
361 1 1 -0.159 10.407031671640238 4.719881128972279 9.38104907193958 0 1 0
485 1 5 0.053 10.478385082988614 6.482921204607193 2.1245558588545403 1 1 1
407 1 5 0.053 7.2742696027964096 10.10892977198281 6.081708237816031 0 1 0
254 1 5 0.053 4.78355992442809 10.11789524190717 7.913243370643737 1 -1 1
363 1 5 0.053 10.79270748355515 3.8230769017170863 8.923084175866975 0 1 0
507 1 5 0.053 19.478923551357777 2.390954865495666 5.3513758090319055 0 0 1
15 1 4 0 10.334165805022522 1.719559511644098 4.88726450328455 0 0 0
376 1 5 0.1268 16.416151559530512 15.277002933348436 6.814415162873541 0 0 0
143 1 10 -0.1595 19.397409735545786 10.010833938842584 8.58791409984051 0 -1 1
282 1 1 -0.106 19.627113427714427 9.655934602552534 3.3625034813925367 -1 0 0
532 1 1 0.027 19.387992193422 2.484723951927985 7.943232236475745 0 0 1
53 1 5 0.1268 10.796315569050337 1.7719644433459385 2.7031246379980507 0 0 0
280 1 4 0 19.54433155536618 8.181244628163002 3.717931770940094 -1 0 0
17 1 4 -0.1268 10.89150025548701 1.645053026692094 6.158010742851313 0 0 0
271 1 5 0.053 19.335400236778806 2.77554287295065 2.9076905670412536 0 1 1
508 1 5 0.053 18.94633514736768 2.6452842600339155 8.904591280072605 0 0 1
224 1 5 0.053 11.234469432845525 5.900999494154339 7.417332217519099 -1 0 0
487 1 1 0.027 11.053630482894919 5.5673209756981805 2.208201321501886 1 1 1
234 3 4 -0.1268 18.850963579768646 6.244442682329622 9.931117022687646 -1 0 0
223 1 1 -0.0233 11.015944197853798 6.984494176622339 7.194392192238474 -1 0 0
528 1 1 -0.0233 19.400828384679475 3.447960295288074 5.624309951321986 0 0 1
490 1 3 0.08 11.977281576419626 5.5540832655270265 3.5072461006146507 1 1 1
488 1 5 0.053 11.432342912403492 5.686583998747368 4.475349214426165 1 1 1
533 1 5 0.053 18.82467880558875 4.492860997015523 7.41114402177367 0 0 1
531 1 2 0.08 18.698973425827237 3.4543767231004585 6.99297261686736 0 0 1
527 1 11 -0.5571 17.276289012584517 3.283426101590317 6.989914297587306 0 0 1
227 1 7 0.4241 16.940767032135824 3.9932818257816614 6.415641335114439 -1 0 0
291 3 9 -0.266 13.766075292876073 4.390495849366169 9.264998551093797 -1 0 0
249 3 5 0.053 15.56335975874819 3.1918112973949793 9.166706594484415 -1 0 0
278 1 4 0 19.127659534884966 5.55845887286186 4.391970986203697 -1 0 0
277 1 4 -0.1268 18.290266768686475 7.750020221945571 4.247568924654816 -1 0 0
116 1 8 -0.1654 18.690736261276154 4.173572239414316 4.440344933395487 -1 0 0
270 1 5 0.053 17.74361105170909 2.851565902882031 3.180171772144318 0 1 1
269 1 1 -0.0233 18.58813205087268 3.5446699949526463 3.1084153146969387 0 1 1
115 1 5 0.053 16.577848078219795 5.776889808690826 7.134719061266913 -1 0 0
157 1 5 0.053 16.18284426083524 7.362385685055933 6.595830229639571 -1 0 0
276 1 4 0 18.106874563663595 6.460223872775276 4.504872513263047 -1 0 0
355 1 7 0.4241 12.994929746088413 9.347757234201591 6.129939220629548 0 1 0
432 1 5 0.053 12.550245837100592 8.091065776467644 9.153333984977646 -1 0 0
113 1 1 -0.159 16.142696132284854 6.30793230703763 6.278608538364068 -1 0 0
117 1 5 0.053 16.555439502751923 4.877636173814614 4.5374682557820325 -1 0 0
274 1 1 -0.106 16.65242954271193 5.961863611247099 4.856092863423873 -1 0 0
158 1 5 0.053 15.117527384623266 6.051144173049593 6.341204557638024 -1 0 0
193 1 11 -0.5571 12.141667406312946 9.075991558851761 6.433432257440479 -1 0 0
275 1 5 0.1268 17.399298848078498 8.379418801006675 4.229097160790814 -1 0 0
379 1 2 0.08 12.385152523157194 7.770831898078744 7.006516990325202 -1 0 0
273 1 5 0.053 15.926442595131705 6.475034279132069 4.265007102515035 -1 0 0
428 1 5 0.053 13.478782528645754 6.815753590234723 8.495542445980295 -1 0 0
430 1 1 0.027 13.16644675702127 7.813212807148792 8.32688808921888 -1 0 0
378 1 5 0.053 12.920796705569717 7.1873749902152495 6.246642479765917 -1 0 0
380 1 10 -0.1595 14.27185593397917 8.680401559655529 8.198392191224883 -1 0 0
384 1 4 0.0265 14.85877086158164 9.100907593446887 9.343815741545743 -1 0 0
388 1 4 -0.1268 16.226591718023492 8.948283744850396 9.503551015442875 -1 0 0
37 1 7 0.4241 14.694287506398497 9.565080824154064 3.993919857628957 0 0 0
387 1 5 0.1268 16.793783407777465 8.460118824273767 8.639338754689692 -1 0 0
370 1 11 -0.5571 14.540488960361353 9.861624374273141 4.91702589532611 0 0 0
118 3 5 0.1268 18.651528624316022 7.087503333764667 9.21559429168655 -1 0 0
474 1 5 0.053 18.026394628824995 5.450667047289215 1.9044514442997413 0 1 1
494 1 5 0.053 13.782713039190567 4.558120782294701 4.396777881379711 1 1 1
492 1 1 0.027 13.300580038556385 4.902550116340608 3.499290187840142 1 1 1
486 1 9 -0.266 13.170739379656906 6.3479867574528175 3.3992681655951396 1 1 1
472 1 2 0.08 18.330844311812655 4.3530944829723826 1.7505342410532272 0 1 1
294 3 1 0.027 14.572407410865106 3.230662186952433 9.641955084763053 -1 0 0
125 1 9 -0.266 15.392379017086641 8.662902114443835 2.32226088108907 0 0 0
11 1 4 -0.1268 12.57935079056672 1.7771633053224791 3.877380651494794 0 0 0
241 3 10 -0.1595 16.47348132964403 5.689315149491653 9.74535199490389 -1 0 0
13 1 4 -0.1268 11.19154831296931 1.710503828046091 3.7271981799395095 0 0 0
12 1 4 0.0265 13.118330425512085 1.8188103910233453 5.178086695635168 0 0 0
493 1 5 0.053 13.695655919619648 4.449810277076376 2.635125090170585 1 1 1
297 3 5 0.053 14.12783521715379 2.283260191055685 9.795951746753431 -1 0 0
14 1 4 -0.1268 12.295090603466761 1.6787196908112483 6.252096729586976 0 0 0
10 1 5 0.1268 13.195923114767982 1.9264459611488807 2.987717525946109 0 0 0
9 1 10 -0.1595 14.530348581846894 1.953917904551468 5.239055302508657 0 0 0
364 1 5 0.053 15.632266941580585 10.852517524654756 6.904356649097759 0 0 0
112 1 4 0 16.080931930934014 14.62220535695477 2.706328095784812 0 0 0
329 2 7 0.4241 10.727162625409779 10.083713792170899 6.563847542467475 0 -1 1
279 1 5 0.053 19.300870874488282 10.196298535802642 4.32877216794877 -1 0 0
16 1 5 0.1268 12.715492302254823 1.9150020904532679 7.276412167363751 0 0 0
287 1 1 -0.159 18.760694704330046 10.207372909048186 2.1319799605414094 -1 0 0
289 1 5 0.053 17.692608842700412 10.452688287572045 2.4285752971412693 -1 0 0
362 1 5 0.053 11.206533384669966 5.434680173077258 9.26226696443978 0 1 0
386 1 4 -0.1268 14.187806346946358 9.565609852546135 10.46775289142857 -1 0 0
106 1 5 0.053 17.23439503121659 18.894968976585865 2.699538709574279 0 -1 1
145 1 5 0.1268 17.782822655347022 12.205912360132542 8.831986406917252 0 -1 1
126 1 5 0.1268 10.66824701637627 10.830151831556908 2.3545922420601033 0 0 0
366 1 5 0.053 16.267717356598766 10.8998100731222 4.663775514764547 0 0 0
155 1 8 -0.3314 15.12947274832742 12.25303799568601 2.5572051933046174 0 0 0
571 2 1 0.027 11.42747412156244 12.710258771221525 7.6019096610856725 0 0 0
147 1 5 0.1268 3.3174636554510264 10.537773341560634 10.475541547242264 1 -1 1
149 1 4 -0.1268 2.617764132187224 11.320640610413438 10.236655273766953 1 -1 1
57 1 5 0.053 8.483874492556339 19.50655284082893 5.708797371408394 0 -1 0
78 1 1 -0.0233 7.347290476998654 15.643808599579375 9.895538315034939 0 0 -1
7 1 5 0.053 14.37548724576147 18.456334298880442 6.61762536268179 0 -1 0
48 1 5 0.053 5.996659688884392 12.77485496944111 10.395912316636565 0 0 0
552 2 5 0.053 3.065646660709584 14.147444233791013 1.80916287328934 0 0 1
218 1 4 0 15.062094619544274 15.152131529496089 9.965700971925044 0 0 0
360 1 5 0.053 10.43479852886525 4.599892481725565 10.48245337594701 0 1 0
319 2 1 -0.106 6.254305220213214 16.694418462753326 1.5841688973335137 0 -1 1
324 2 5 0.1268 8.694332603946055 16.65027817840633 1.9375567872641184 0 -1 1
257 1 1 -0.0233 4.135229991229549 10.651314589020638 7.163727068692107 1 -1 1
258 1 5 0.053 4.575517643544732 10.74102167728408 6.089895314826917 1 -1 1
452 2 5 0.1268 9.723827107235232 10.554759400539028 9.185470682196213 0 0 0
44 1 5 0.053 7.015933633152883 11.59275873923206 9.462339169286892 0 0 0
509 2 5 0.053 4.814145806501937 16.976167184032107 3.050246071602012 0 -1 1
21 1 5 0.1268 3.6936848203518835 15.870585760669833 9.016332913897475 1 -1 1
132 1 5 0.053 8.525098500962269 18.94741560181305 4.155513031975293 0 -1 0
510 2 1 -0.159 5.63731662266385 17.53997112296789 2.728107876263822 0 -1 1
511 2 5 0.053 5.28536690112985 18.566233659709905 2.36429221258285 0 -1 1
321 2 4 0 6.952746330562732 15.462794956397255 2.1321356296107075 0 -1 1
576 1 5 0.053 7.347127910333325 18.415275090207547 7.07650950528692 0 0 0
323 2 4 -0.1268 8.303903719632705 15.67771545002146 2.3251551728104474 0 -1 1
572 1 5 0.053 6.037868071202931 17.67180326794199 7.931467386743417 0 0 0
150 2 5 0.053 7.306158909502508 11.170233776648159 3.8129166287148517 0 -1 1
546 1 5 0.053 5.8194261142528365 17.922452955024237 6.216596207666987 0 0 0
151 2 5 0.053 6.678433671461242 12.177244139990705 5.058490753176028 0 -1 1
545 1 1 -0.159 6.59031078959766 17.66004412122114 6.98627535301345 0 0 0
539 1 5 0.053 8.30703180776051 16.170892988038204 6.937993736079121 0 0 0
98 1 5 0.053 7.457312713014196 16.327694665972103 5.557957004636538 0 0 0
154 2 5 0.053 5.679288667315449 11.669595476147961 3.623966909851097 0 -1 1
156 2 6 0.2487 8.7501531860478 11.731749866866512 4.323560382234245 0 -1 1
451 2 5 0.053 8.814502150967424 13.019559851103237 6.285251840124021 0 0 0
63 1 1 -0.106 7.21301818502824 16.337966457463285 6.635562065546326 0 0 0
152 2 1 -0.159 6.71193091597339 11.980747030217975 3.928218381500568 0 -1 1
464 2 6 0.2487 4.743813992337147 13.252362664746776 3.307704754056857 0 -1 1
65 1 4 0 6.552517771389583 14.239622896343041 8.086709238911812 0 0 0
542 1 8 -0.3314 7.521174544945666 14.467461951333371 9.05296837923565 0 0 0
64 1 4 0 6.340028662859163 15.150567332361353 7.0294923801207405 0 0 0
67 1 4 0 5.751445657254187 13.1139829117671 8.225320896341874 0 0 0
69 1 1 -0.159 6.068069425674892 12.21646038286167 9.478506151041497 0 0 0
70 1 4 0 4.6172557228500875 12.98308205622786 7.404049932338982 0 0 0
66 1 4 -0.1268 5.22374203558479 14.981985551006886 6.2535857149565075 0 0 0
72 1 8 -0.3314 3.666583611591608 11.952853548058714 7.6142463167493935 0 0 0
68 1 4 0 4.2921740368793095 13.968551240576543 6.442093757571263 0 0 0
74 1 6 0.2487 2.782904728189462 12.172217490022538 7.128676485910658 0 0 0
327 2 8 -0.3314 9.370565031349612 12.560062468918641 4.177574837566043 0 -1 1
322 2 4 0 7.222962913126028 13.27326164981826 3.2862644999419244 0 -1 1
320 2 4 0 6.392556688611626 14.260501374052556 2.66608352158422 0 -1 1
325 2 4 0 8.573269090582283 13.570798382358227 3.4621243090285896 0 -1 1
317 2 8 -0.3314 4.965532048032042 14.08618673438193 2.7944373133345843 0 -1 1
326 2 4 0 9.101109720366605 14.74711771485245 2.9548251320634336 0 -1 1
569 2 1 -0.0233 9.770716561062153 13.017384986682858 5.606243915412696 0 0 0
100 1 5 0.1268 5.136372690953435 15.743694492256907 5.423353310685104 0 0 0
71 1 1 -0.106 3.126827547120256 13.86085680104927 5.43420448858568 0 0 0
101 1 5 0.053 3.012879559578793 12.789734753257612 5.105011020314947 0 0 0
20 1 5 0.1268 3.340007859758722 17.631334172739567 7.505574660581226 1 -1 1
75 1 5 0.053 3.350045557326826 14.42134954105945 4.4966291405409455 0 0 0
583 2 5 0.053 6.316559360707162 17.577943128306988 3.6073484689920647 0 -1 1
23 1 4 -0.1268 2.831502063382108 16.56188674446208 9.142530011999714 1 -1 1
22 1 4 -0.1268 2.6375187981362833 17.652589361520786 8.333972097349232 1 -1 1
506 1 5 0.053 2.6255056741730955 16.61596177466592 2.2056524142856433 1 -1 1
547 1 6 0.2487 7.580205993410358 13.609630454989489 9.636906414972788 0 0 0
80 1 5 0.053 7.584555293342714 16.543543912374297 9.301123634461 0 0 -1
564 2 11 -0.5571 10.116766466655243 10.814072729365995 6.502243870507492 0 0 0
389 2 5 0.053 10.81865715880131 17.026607990340743 3.5512543424784195 0 -1 1
46 1 5 0.053 5.361895393250661 11.395590589124707 9.611797131256836 0 0 0
504 1 1 0.027 19.65444225179515 16.43782610037654 2.133295514921609 0 -1 1
540 1 7 0.4241 9.739293265704061 15.652988103566072 9.722797881677552 0 0 0
375 1 5 0.053 13.54253211204575 11.744799331797058 3.8843756275549395 0 0 0
453 2 4 -0.1268 10.167485965258258 11.008375234151497 10.059819415461082 0 0 0
582 1 5 0.053 19.482900227157604 15.72101155830621 2.8760949012967583 0 -1 1
202 1 5 0.053 19.425057255480358 13.854007057992689 6.508929797874169 -1 0 0
575 2 4 0.0265 10.651664629646142 12.358329251622704 9.896395188222398 0 0 0
204 1 1 -0.159 1.9166644589301152 14.54091244311603 5.993577706852894 0 0 0
534 1 10 -0.1595 19.278830484836313 19.27362479420289 7.549101629297799 0 -1 1
567 2 5 0.053 10.211852925340622 13.97935488444208 5.579466389137363 0 0 0
256 1 5 0.1268 11.44924267306297 18.283919008598605 8.695001394532962 0 0 0
30 1 4 0 2.0237403171245236 16.28813292156231 10.236207285256556 1 -1 1
153 1 6 0.2487 14.619594974051346 11.581271681605196 1.9598243466015457 0 0 0
33 1 4 -0.1268 19.02041196293429 17.05434897003858 10.404913195188103 0 -1 1
573 2 10 -0.1595 10.476800031202218 13.013917795380618 8.691022060280105 0 0 0
512 2 5 0.053 12.258373686281592 16.041768506586415 3.8065274846058554 0 -1 1
381 2 5 0.053 10.8377840510885 15.831251487248045 4.869112171944824 0 -1 1
105 1 1 -0.0233 17.40246786295785 17.867799575823568 2.3878101004025556 0 -1 1
205 1 5 0.053 19.42755971788854 14.841273780611804 5.2025357695535615 -1 0 0
87 1 5 0.053 12.977810645501153 17.808591877186757 1.8506966963444593 0 0 0
94 1 5 0.053 18.06035263849902 14.369726492682453 3.699438880134981 0 0 0
203 1 5 0.053 2.070744469200537 15.472246282651458 6.5856096304887 0 0 0
216 1 4 -0.1268 14.776584665197808 13.76644602585548 9.976647712417021 0 0 0
8 1 1 0.027 15.043357562747586 19.159348541907836 6.128549119796853 0 -1 0
99 1 5 0.053 14.788485359385685 17.905962089248415 3.6810826468496733 0 -1 0
146 1 4 0.0265 19.62028967611738 11.167928256792614 9.412541342126598 0 -1 1
184 1 5 0.1268 14.898943819153471 11.812284400034034 8.966224301543644 0 0 0
217 1 4 -0.1268 13.002522875781347 17.313825034975228 9.86377052843616 0 0 0
3 1 1 -0.0233 15.68415198104273 17.422433412568115 4.165035964529834 0 -1 0
570 2 5 0.053 11.893067320343286 13.623525747607776 7.321745684955853 0 0 0
93 1 5 0.053 16.87254882206583 14.812726305806605 4.726803205095155 0 0 0
5 1 5 0.053 16.806599380934408 19.266493666723257 4.937273211085399 0 -1 0
109 1 4 0 15.372579952113306 13.633625671360878 2.04102231984048 0 0 0
28 1 5 0.1268 18.298658983039378 14.358302113458567 9.875951496104545 0 -1 1
97 1 7 0.4241 17.691868251786925 18.33372272301564 6.532013273735989 0 0 0
6 1 5 0.053 15.396032642475364 1.538055925045402 6.951920886439275 0 0 0
91 1 4 0 15.951002607683481 15.950543224366376 2.345088307585537 0 0 0
565 2 5 0.053 11.60711273550001 11.879788259485858 5.667696762016549 0 0 0
568 2 2 0.08 10.797526988025789 12.084055023385066 6.338068003799942 0 0 0
26 1 4 0.0265 19.655820169468036 18.33660748535324 8.45026780999326 0 -1 1
426 1 5 0.1268 15.776448436251691 16.703403803060386 8.603623147950737 0 0 0
32 1 4 -0.1268 18.728443279767912 18.005908074225186 9.438333677441763 0 -1 1
382 1 5 0.1268 13.098891521171266 9.76246570659957 10.450068336624762 -1 0 0
188 1 4 -0.1268 15.068015798757825 12.900748908889996 8.863153118397932 0 0 0
385 2 5 0.053 10.79191792314716 15.404105214612304 1.8442436795187032 0 -1 1
95 1 8 -0.1654 16.60178523766575 16.930008689309506 3.159996917580999 0 0 0
368 1 2 0.08 15.25648952958099 11.1092668353714 4.944518439115356 0 0 0
96 1 7 0.4241 18.41223540439185 17.450402718853656 4.389030394463438 0 0 0
108 1 2 0.08 18.93513631379465 17.7173807036806 2.6364855815396 0 -1 1
369 1 10 -0.1595 15.854163098211224 12.799762719723647 6.480391577217873 0 0 0
107 1 11 -0.5571 19.113489351801526 17.964902986003693 4.028169143930471 0 -1 1
19 1 5 0.053 19.3991970046683 18.53892175066378 2.0997862426635066 0 -1 1
373 1 5 0.053 14.53345501975161 13.152039164105082 4.322923745405264 0 0 0
220 1 5 0.1268 13.292249063206864 16.908642459347554 8.936163804914937 0 0 0
367 1 1 0.027 15.139969430876599 11.626708810204295 6.342527981093698 0 0 0
374 1 4 -0.1268 15.972144359951498 14.830039774888185 7.7034019402279155 0 0 0
288 1 5 0.053 19.18074952478854 11.19574272186013 1.7742637205806486 -1 0 0
383 2 1 -0.159 11.158198243207611 15.993128441714413 3.8310866875806466 0 -1 1
148 1 4 -0.1268 18.766918203824396 12.230643062340379 9.429140031251737 0 -1 1
38 1 5 0.053 17.058266953404235 13.14274633710867 4.177524557196186 0 0 0
332 2 5 0.053 11.079303493153194 14.062616212621165 3.0127286941459617 0 -1 1
2 1 5 0.053 15.240209135601713 16.545003937414478 4.690156805752883 0 -1 0
535 1 5 0.1268 17.781295118817027 18.61544692543902 9.565763498186941 0 -1 1
371 1 4 0.0265 15.67689911611204 13.476714894495943 7.70687131688347 0 0 0
328 2 1 -0.106 10.573350133900119 15.012271196437123 2.8264965351680695 0 -1 1
372 1 1 -0.0233 14.6087729095172 12.155016058871832 3.9351616641021443 0 0 0
255 1 4 -0.1268 11.917429075635384 18.171786950493996 9.729549769520661 0 0 0
92 1 1 -0.159 17.01297295115607 14.213603024263964 3.827817413381615 0 0 0
1 1 11 -0.5571 17.08358676995543 17.67655102847795 6.190459421243467 0 -1 0
365 1 5 0.053 14.15773259289865 11.780543882383924 6.726041376864839 0 0 0
24 1 4 -0.1268 18.993871481092544 13.496449323314488 9.933475592216531 0 -1 1
566 2 5 0.053 12.227202319196406 12.13237681325636 7.957043852685207 0 0 0
425 1 4 -0.1268 15.543989266366955 15.619552111919749 8.734638190295968 0 0 0
76 1 5 0.053 6.224041963557025 15.784516131592552 10.274812528191852 0 0 -1
42 1 5 0.053 3.3942119047724963 9.012641455653085 1.8414655931539887 0 0 0
119 3 5 0.053 14.664991287640754 6.560895271386886 10.382192963190931 -1 0 0
84 2 1 -0.0233 4.154099208145834 14.181270616400322 1.5556974085655177 0 0 1
318 2 7 0.4241 3.311600025243379 11.832503138646548 1.6350910611566363 0 -1 1
584 1 5 0.1268 5.513252993442641 5.372449535482829 16.231781437856153 1 1 0
470 1 4 -0.1268 3.9666318038134065 4.571228623847213 17.53854628576607 1 1 0
585 1 4 -0.1268 5.164445258854602 4.53591109551145 16.817843815021803 1 1 0
516 1 4 0 5.982661887069252 3.3785750949489444 17.045179337215764 1 1 0
468 1 5 0.1268 3.3753431397467057 5.456743231592069 17.275136969848884 1 1 0
562 1 5 0.1268 7.808938630575496 5.948170526367198 16.912195303798708 1 1 0
477 1 4 -0.1268 8.516819336668105 5.182509425250288 17.248395159962023 1 1 0
475 1 4 0 8.344439123637049 3.8263152518248478 16.959809321601124 1 1 0
513 1 5 0.053 6.996397954358047 3.874170178201783 15.206807553922873 1 1 0
519 1 9 -0.266 7.22917093961776 7.351160289725349 14.265889771971915 0 0 0
521 1 3 0.08 6.535416043469475 7.5393231164009595 12.941292237587229 0 0 0
520 1 1 0.027 5.265180750339702 8.489470443013648 13.032991355418819 0 0 0
358 1 10 -0.1595 4.069555053944454 8.029882513220345 13.623746232188799 0 0 0
515 1 1 -0.106 7.208219931115 3.3346499987888927 16.139153761483836 1 1 0
333 1 4 -0.1268 5.610823529361482 2.4164684275232973 17.9096686371156 1 1 0
478 1 4 -0.1268 9.302965321208319 2.9812874044997644 17.460643763334506 1 1 0
353 1 4 0.0265 2.86173657811451 8.552687299563791 13.488295584693143 0 0 0
469 1 4 0.0265 3.553715930277472 3.5171700640703736 18.386022852706674 1 1 0
331 1 4 -0.1268 4.407697895824059 2.4457189249697726 18.61317671761183 1 1 0
479 1 4 -0.1268 9.633269329936597 5.637315503968586 17.92861406947821 1 1 0
522 1 5 0.053 5.728644767906658 5.843127086110992 14.142478721910278 0 0 0
514 1 5 0.053 7.313440459578291 2.253744082459105 15.920796133986642 1 1 0
237 3 5 0.1268 3.9148178670295946 3.6685831058255793 14.509442754040453 0 0 0
242 1 5 0.053 7.708160161869075 3.939100185137739 11.392573466135579 0 1 0
231 3 4 0 3.7063289189328734 3.3546507163173116 12.443220996997427 0 0 0
201 3 4 -0.1268 3.866394827089205 2.8853080257413 13.712698075753845 0 0 0
191 1 5 0.1268 9.193538441260262 8.904104703589367 16.30062671306234 0 0 -1
136 1 4 -0.1268 9.435770495961485 9.413680811702081 17.216318115464166 0 0 -1
183 1 5 0.053 6.794435417101742 9.779289177355603 16.912172976392874 0 0 -1
170 1 5 0.053 5.258031089124042 8.402381645739942 18.58391263770277 0 0 -1
228 3 5 0.053 3.310561185292249 5.3505120556102925 13.176817084778026 0 0 0
229 3 1 -0.106 3.4330892882642954 4.863635461120055 12.204156759397858 0 0 0
480 1 4 -0.1268 10.41554993446366 3.3891378124221716 18.18189258229428 1 1 0
272 1 5 0.1268 6.175502260168813 1.5223280456576695 17.786067611682853 1 1 0
445 3 4 -0.1268 3.66396621133858 2.4170941602767435 11.353782994547648 0 0 0
523 1 1 0.027 6.599384070741961 6.246096937814763 13.691997315878067 0 0 0
563 1 5 0.1268 9.886906409249034 6.6849827060934475 18.039585578225957 1 1 0
185 1 4 0 8.605978949044799 10.32973308771448 17.763168225037134 0 0 -1
314 1 5 0.053 9.600951710614511 5.3688125534171425 14.483380279919167 0 0 0
526 1 5 0.053 7.331041008772091 5.446773300970421 13.458173296045686 0 0 0
482 1 4 0.0265 10.579580114903479 4.723094190663367 18.403947619016453 1 1 0
476 1 5 0.1268 9.04849135755374 1.9063174724951706 17.21830109049457 1 1 0
524 1 5 0.053 5.449020116220565 9.444244028003979 13.602640015626049 0 0 0
518 1 5 0.053 4.973086907104425 8.891555540461404 12.06910560362255 0 0 0
350 1 4 -0.1268 2.632611118445898 9.90500145690498 13.245428506389862 0 0 0
233 3 4 0 2.11377380288314 5.043852048145279 11.43103423888862 0 0 0
549 2 5 0.053 9.900830713470176 9.74548201689238 13.756685934135557 0 0 0
290 1 5 0.1268 1.7316860491594008 6.718798398174024 13.986090818935937 0 0 0
352 1 4 -0.1268 1.7127497766165087 7.788739682519753 13.755459303718629 0 0 0
517 1 5 0.1268 3.451581399417142 10.632047059724814 13.160577552495095 0 0 0
525 1 5 0.053 7.316317027284808 7.642624503722372 12.124798724805611 0 0 0
459 1 5 0.053 9.77991872043856 2.6609566353787493 12.278605406187804 0 1 0
457 2 5 0.1268 9.94438989558805 9.389294175036916 11.399653488485546 0 0 0
226 3 5 0.053 4.275682781569417 5.356751254010853 11.659390494430982 0 0 0
187 1 1 -0.106 7.25974202845275 10.73056966185034 17.213070809966986 0 0 -1
467 1 10 -0.1595 2.272262389389127 3.3933209028051183 18.9607271066776 1 1 0
581 2 1 -0.106 10.711391620415 10.46398007865705 13.68769322455457 0 0 0
245 1 5 0.053 6.480850724892452 2.7716295321163598 10.779164261451024 0 1 0
244 1 1 -0.0233 7.523553680802285 3.085845279483799 10.785451226114693 0 1 0
180 1 4 -0.1268 9.122830413680592 10.935592347410875 18.93129752434378 0 0 -1
343 1 4 -0.1268 19.54462922948831 10.423763509120958 13.024121668981573 -1 0 0
330 1 5 0.1268 4.169113634888101 1.5810985706314693 19.267400324764658 1 1 0
394 2 10 -0.1595 12.465099807972642 17.507513425622893 15.805333747843681 -1 0 0
315 1 5 0.053 10.84003319793654 2.9114990211279066 14.238261834553715 0 0 0
175 1 7 0.4241 6.324274169509496 1.778730773920754 12.713929748139009 0 1 0
456 2 4 -0.1268 10.333478393986908 10.395643650930687 11.307371526656597 0 0 0
442 2 4 0.0265 13.288473915089723 16.48965781044434 15.266304267743223 -1 0 0
172 1 5 0.053 5.507324280786278 6.015357308916338 19.404264529447794 0 0 -1
40 1 5 0.053 3.3629842309445985 7.292583081748229 19.40216208326164 0 0 -1
167 1 5 0.053 7.033558419566198 6.829750593916389 19.162061646806688 0 0 -1
120 1 5 0.1268 7.069957676641758 4.276117331718266 19.654773906852828 0 0 -1
311 1 1 0.027 10.586779068205898 5.171401913560661 14.575026267733913 0 0 0
308 1 5 0.053 11.14831538495717 5.968136484882039 15.109222106273833 0 0 0
458 1 5 0.053 19.524793088172487 2.3769476527672926 14.99291086146508 0 0 0
236 3 5 0.1268 19.246661820094207 3.6787821545897694 12.829123126342077 -1 0 0
235 3 4 -0.1268 19.206766246824877 4.337219134827071 11.905005620552899 -1 0 0
505 1 5 0.1268 17.389534575094373 15.991140776842538 17.163123754767447 0 -1 0
484 1 10 -0.1595 11.70042400326485 5.103480293729586 19.194671683384055 1 1 0
102 1 5 0.053 16.934175213323062 7.896159318841187 19.30109991944091 0 0 -1
135 1 4 -0.1268 10.77899984434033 9.198543013851253 17.625892851437232 0 0 -1
481 1 5 0.1268 11.07173663319123 2.6324340070754664 18.570855963404117 1 1 0
419 2 5 0.1268 11.664328562792589 7.774987693628268 12.946684639909723 0 0 0
473 1 1 0.027 19.656564973774728 4.547068352543591 19.082183493817695 0 1 0
443 1 5 0.053 19.370992807055554 4.903403778270457 18.061192997580928 0 1 0
212 2 5 0.053 18.96170747747943 6.727560654518928 16.72448948081761 0 0 0
114 1 7 0.4241 16.929780932976957 4.451183458467846 18.672517319056368 -1 0 -1
348 1 4 -0.1268 18.620777803595317 8.339106958240507 13.613765123765877 -1 0 0
313 1 9 -0.266 11.228589915475386 4.934640355986497 13.30920739253577 0 0 0
130 1 4 0.0265 11.175948904098933 9.639683019352455 18.901366629501492 0 0 -1
137 1 5 0.1268 11.388029531619924 8.630977419519573 16.9334906019213 0 0 -1
210 2 1 0.027 17.889851757752982 6.855638415785487 16.582701881625688 0 0 0
312 1 3 0.08 11.298600663660658 3.9241552054011475 14.342586608182238 0 0 0
214 2 5 0.053 17.620430443176073 5.070483110704578 15.284697709005204 0 0 0
390 1 4 -0.1268 14.872263335086883 9.866507765229727 11.605455150641598 -1 0 0
284 1 5 0.1268 17.734223130018666 7.701837252643675 13.674618241583145 -1 0 0
122 3 5 0.053 15.608493943909645 5.94766342376875 11.595631041424063 -1 0 0
342 1 4 0 18.393835069995987 9.621971704262531 13.221487116170861 -1 0 0
418 2 4 -0.1268 12.321706673477518 8.42511128576955 13.53439470101133 0 0 0
213 2 9 -0.266 17.104946643032456 5.878147447787477 17.270775737524822 0 0 0
240 3 5 0.1268 17.242634675916182 3.8130177435323667 11.606137975725861 -1 0 0
310 1 1 0.027 12.71691434330935 3.740027481956308 14.788834033851238 0 0 0
211 2 3 0.08 17.07733782917196 5.903675372650166 15.790658012862565 0 0 0
208 2 1 0.027 15.710485112544667 6.348001738795334 15.168196890500745 0 0 0
414 2 4 0.0265 14.315172548940973 8.353050002225412 14.929965898598253 0 0 0
416 2 5 0.1268 13.483954408365262 6.7767835726769645 13.755047230569375 0 0 0
415 2 4 -0.1268 13.372062850398006 7.7656339352895385 14.056275364850965 0 0 0
413 2 10 -0.1595 15.480870079934052 7.7192892824581785 15.2871659999514 0 0 0
206 2 5 0.053 14.913375766744496 5.842881588088971 15.74148878805537 0 0 0
209 2 5 0.053 15.653485874640714 6.16931149473007 14.085327732378827 0 0 0
207 2 5 0.053 17.513356835147835 7.88601884875088 16.775608791911715 0 0 0
306 1 10 -0.1595 13.439589559703998 2.935923867742437 13.88087649318499 0 0 0
304 1 4 0.0265 14.713668124227235 2.6388348522646092 14.14801436833205 0 0 0
133 1 5 0.053 13.483255139983022 8.59604030187376 17.6972243668261 0 0 -1
334 1 4 0 16.28530495825423 9.8273014231286 11.772541182708917 -1 0 0
239 3 4 -0.1268 18.003357183069287 4.520672479663769 11.27892919270711 -1 0 0
309 1 5 0.053 12.7276197617689 3.2928725560059915 15.828915844692801 0 0 0
131 1 1 0.027 13.402949481059455 8.549088047445153 18.774007843646658 0 0 -1
305 1 4 -0.1268 15.383354627997281 2.949753929702554 15.33770893554863 0 0 0
377 1 5 0.053 13.180019556594894 4.782360175968961 14.813383125628127 0 0 0
302 1 4 -0.1268 16.716282994172737 2.597151702028234 15.476191553937747 0 0 0
307 1 5 0.1268 14.881030474921703 3.468167467671203 16.169836438819097 0 0 0
251 1 3 0.08 14.94858548473462 8.848510931293186 19.126421766703672 0 0 -1
303 1 5 0.1268 17.074279465359137 2.737538941464819 16.46654516870496 0 0 0
248 1 5 0.053 15.32516802780578 9.680195262705304 18.523175049912556 0 0 -1
134 1 5 0.053 13.027310476511264 7.616315262167691 19.20598313312644 0 0 -1
337 1 1 -0.106 17.022339083898768 10.198405523210605 13.030604588739326 -1 0 0
417 2 4 0 11.958467807002583 9.731801805816195 14.04727063962094 0 0 0
412 2 4 -0.1268 14.031089437480517 9.676453367332334 15.35041456896283 0 0 0
338 1 5 0.053 16.311240965728373 10.028926592463009 13.87282236680818 -1 0 0
299 1 4 0 17.46527927287586 1.8846053037844892 14.532584997678574 0 0 0
455 2 4 -0.1268 12.901266209898917 10.305198695197694 14.944975850345193 0 0 0
301 1 4 -0.1268 15.490575037814638 1.9338237464998027 13.183722264181807 0 0 0
298 1 4 -0.1268 16.83235625657867 1.6205203837058253 13.336069796300825 0 0 0
300 1 5 0.1268 15.180042377077847 1.8379566423264024 12.182560209040858 0 0 0
411 2 5 0.1268 14.612617978396692 10.2728679057685 16.06075338474305 0 0 0
466 1 11 -0.5571 17.28979545166043 3.716815420812171 19.1971412137157 0 1 0
129 1 10 -0.1595 12.546148780029387 9.567044559164627 19.268643799040344 0 0 -1
292 3 5 0.053 13.546295465207878 4.282180048026202 11.327317404174627 -1 0 0
128 1 4 -0.1268 10.31002122664828 10.492246649652968 19.579008490478945 0 0 -1
121 3 1 0.027 15.298466498123583 5.653259906718777 10.60573117390998 -1 0 0
259 1 5 0.053 12.184843239403035 12.412836620989607 19.296096876532314 0 0 -1
424 1 4 0 13.62671719683907 17.064516797992454 11.066679842076244 0 0 0
192 1 5 0.1268 5.351121573038606 10.941661929976236 15.220216242958651 0 0 -1
247 1 2 0.08 7.981029270202409 1.7839811443412097 11.59478134844784 0 1 0
243 1 11 -0.5571 7.318255330632976 1.778799617719733 12.907981114795058 0 1 0
460 2 5 0.053 10.386442493971154 11.196357006273496 14.430118333430396 0 0 0
495 1 5 0.1268 2.6957871673965745 19.365680543619185 16.897012770242902 1 -1 0
189 1 5 0.053 6.676495606838368 11.182825741657307 17.99705492486828 0 0 -1
190 1 4 -0.1268 6.23501348327791 11.598280395434266 15.033657785127257 0 0 -1
82 2 5 0.053 4.304067958276514 15.135828731519606 19.202306292115484 0 0 0
404 3 4 -0.1268 4.082747314424848 1.5464785983307152 13.954366741628956 0 0 0
252 1 1 0.027 9.49823498046388 1.6907250218347265 11.919588611702428 0 1 0
86 2 2 0.08 4.348387347312743 13.003603592097555 18.680546485192565 0 0 0
409 3 5 0.1268 4.343499045625556 19.50068798962792 14.993801707958273 0 -1 0
25 1 4 -0.1268 2.864163446342805 12.576108103764268 10.722653548843821 1 -1 1
198 2 5 0.053 9.264041651582705 15.733371516588816 17.643575498075226 -1 0 0
397 3 4 -0.1268 3.7878077025691423 19.22405176171422 11.635927516321143 0 -1 0
79 1 2 0.08 8.333945861108003 15.80604435670213 11.06059110185796 0 0 -1
61 1 5 0.1268 5.2233733501257404 12.473635047119535 13.439273206419028 0 0 -1
400 3 4 0.0265 3.8870821574703798 18.735355694751423 12.951550418835943 0 -1 0
410 3 5 0.053 3.086516054647147 17.490817029586495 15.049987037376605 0 -1 0
408 3 5 0.053 3.193111518583771 15.904381863755056 14.358419946872875 0 -1 0
253 1 5 0.053 9.696331815199576 19.029384137520758 12.62216286644182 0 0 0
537 2 5 0.053 3.6195828605616662 12.248999335123498 16.80151964737936 0 0 0
90 2 5 0.053 3.522658085448818 14.037085787133849 16.958326352805507 0 0 0
186 1 4 0 7.255478211063567 11.621196006502265 15.997307210502893 0 0 -1
60 1 4 -0.1268 6.178818409371244 12.58570854467261 14.071103612428189 0 0 -1
541 3 5 0.053 7.095813367274025 16.077871115851895 15.84290946560877 0 -1 0
543 3 9 -0.266 5.652437186179584 17.5669663674389 16.045915525007928 0 -1 0
544 3 1 0.027 6.438815507920872 16.701047173745394 15.229136586319136 0 -1 0
538 3 5 0.053 4.612598539323354 15.73588003700627 16.087893146412974 0 -1 0
548 3 5 0.053 6.916237157715509 17.121934982653627 14.382482486964282 0 -1 0
55 1 1 0.027 8.46658280177056 14.778954270601666 12.227321428281003 0 0 -1
405 3 3 0.08 4.9527150875703025 16.49179937683744 15.376996775167873 0 -1 0
58 1 4 0.0265 7.316875911153417 13.322017110899424 13.722904232552866 0 0 -1
59 1 10 -0.1595 7.2024394951941 14.284177385612743 12.759762170514536 0 0 -1
182 1 4 -0.1268 8.3119631850015 12.456623123945642 15.79287654991095 0 0 -1
181 1 4 -0.1268 8.345854879039262 13.30077757135192 14.654084221879495 0 0 -1
406 3 1 0.027 3.7542006473524316 16.835110762479026 14.475463008200625 0 -1 0
402 3 10 -0.1595 3.8855186598267433 17.369428784110113 13.120063004920508 0 -1 0
51 1 5 0.1268 9.14632979485052 13.973284494994006 14.54415416087252 0 0 -1
178 1 5 0.1268 9.263887116972038 12.363848734069986 16.4465565197725 0 0 -1
81 1 5 0.053 7.984683340510045 16.67070842971245 11.583468776862794 0 0 -1
27 1 5 0.1268 3.7538457440209885 12.659623071124933 11.29330852452696 1 -1 1
496 1 5 0.1268 3.0786730912770928 17.630854967820945 18.37474381013289 1 -1 0
54 1 5 0.053 9.11679623641567 15.227929361617026 13.01686661581429 0 0 -1
200 2 5 0.053 9.14512138738879 17.203317297091495 15.517497049569798 -1 0 0
561 2 1 0.027 3.4124650408442765 13.059150419523782 17.486021105390677 0 0 0
197 2 3 0.08 10.089416096215425 17.166340148400224 16.085647978670632 -1 0 0
558 2 10 -0.1595 2.0168237295746585 13.070801222850308 17.84256255134264 0 0 0
536 2 5 0.1268 2.2638333817974887 13.606783532992942 15.18587082280414 0 0 0
199 2 9 -0.266 9.878356646130337 17.710580098608173 17.498081431267913 -1 0 0
196 2 1 0.027 10.135678729880208 16.312896198185626 17.301732075292858 -1 0 0
498 1 4 -0.1268 2.095600097793255 17.648143296706394 17.89988485685989 1 -1 0
52 1 5 0.053 9.042270681775456 13.957039765374205 11.752180059639452 0 0 -1
497 1 4 -0.1268 1.9496159325769173 18.60863760749542 16.918397788782706 1 -1 0
34 1 5 0.053 3.312513269548748 15.086554227765417 11.450875706730807 1 -1 1
88 2 5 0.053 5.427475020283227 13.095976724248091 18.360522959330588 0 0 0
316 2 5 0.053 6.940960495268005 17.40764047468526 19.2527411238144 0 -1 0
396 3 5 0.1268 3.637063914094246 18.548755825183488 10.761847643541632 0 -1 0
580 2 4 0 10.817147234261371 11.040935219466519 12.353226939121194 0 0 0
246 1 5 0.053 7.6959338385859795 19.15245720419472 10.960063914687154 0 0 0
395 2 5 0.1268 11.667814482850032 15.11013664411918 14.684440541979985 -1 0 0
398 2 5 0.053 11.007865821943598 18.83251141304562 15.163461965359415 -1 0 0
465 2 5 0.053 5.547558772193503 16.42279983195357 18.896693956465 0 -1 0
436 2 4 0 15.041220198604876 14.447431651930525 14.360804483056489 -1 0 0
434 2 1 -0.106 15.921301673066095 13.276168360209576 13.918356987497495 -1 0 0
62 1 5 0.053 15.071800819243304 17.935241352233515 17.781935650639994 0 0 -1
393 2 4 -0.1268 12.80588883776257 15.279830569295909 14.785183856215884 -1 0 0
295 1 1 -0.106 18.90465165731361 19.636642307664722 14.878810070003535 0 -1 0
574 2 5 0.1268 11.300694321265858 14.041045933878493 10.922389392165796 0 0 0
260 1 5 0.053 14.13264034592523 13.339322842487578 17.057053714324645 0 0 -1
264 1 5 0.053 11.84615393317131 12.507809757228337 17.528639256255484 0 0 -1
560 2 4 -0.1268 19.446467280203805 13.351601508496016 15.497581390913474 -1 0 0
392 1 4 -0.1268 16.888018737930608 9.335336410151033 10.67080160290345 -1 0 0
501 1 10 -0.1595 19.272046902888192 15.81991182988371 19.13446446707554 0 -1 0
339 1 5 0.1268 19.430350442973282 11.506530312667039 12.843158966992574 -1 0 0
293 1 5 0.053 19.24045964606331 19.098743476295525 13.984942558995884 0 -1 0
439 2 4 -0.1268 13.675472114551221 14.30422707521288 14.323339592816895 -1 0 0
36 1 5 0.1268 18.345996165002557 16.742486422774352 11.195281566973282 0 -1 1
391 1 5 0.1268 14.243159480635097 10.452581997518 12.379349753269118 -1 0 0
336 1 5 0.053 17.186187217071314 11.274169615446521 12.955705648015599 -1 0 0
296 1 5 0.1268 17.456740863261153 19.112512627352633 12.676621778156864 0 -1 0
31 1 1 -0.106 2.294350444832287 15.047802438774509 11.169849628479655 1 -1 1
110 1 5 0.053 12.637065942599154 17.402933354566542 18.38748154889211 0 0 -1
427 1 5 0.053 14.59303632773357 15.393219171010335 12.005321095947957 0 0 0
433 2 5 0.1268 16.5879929268444 15.874916920757144 14.777647855861852 -1 0 0
554 2 4 -0.1268 17.93569481622706 12.491083390845796 17.126265060514257 -1 0 0
266 1 5 0.1268 13.707934919477331 15.553230272563132 18.021356484229244 0 0 -1
104 1 5 0.053 17.19879434615919 17.81063683932866 19.495093735064128 0 -1 0
555 2 4 0 17.054301546555067 13.131442217939027 14.894050094896482 -1 0 0
454 2 5 0.1268 12.496174148970898 11.169174946588178 15.505407719353707 0 0 0
263 1 1 -0.159 12.38206181231425 12.966371786445972 18.397927318523056 0 0 -1
268 1 4 -0.1268 14.495043015631916 15.301481936474483 18.739855607177557 0 0 -1
261 1 5 0.053 14.353268773554783 11.914506428412018 18.147585888780622 0 0 -1
579 2 5 0.1268 11.832515971365499 12.902660922503495 12.999073245472797 0 0 0
111 1 4 0 15.18253523491654 16.3201171941923 19.3439869333693 0 0 -1
195 2 1 0.027 11.208668815491219 17.758316344449458 15.272135062072538 -1 0 0
437 2 5 0.1268 15.139295694137633 17.538294549873644 15.697460677995508 -1 0 0
499 1 4 0 19.031608161225456 18.693169310556147 16.0376469092678 0 -1 0
578 2 4 -0.1268 11.362673329223252 12.301802409726182 12.183478651566087 0 0 0
550 2 5 0.1268 15.891271148923462 12.15723567428368 16.43671316803532 -1 0 0
557 2 4 -0.1268 18.387920622774196 13.539037246800511 14.600035838040148 -1 0 0
435 2 4 -0.1268 15.496173485215525 15.64826615011425 14.844471122725771 -1 0 0
441 2 5 0.1268 13.366795544568753 13.289187261624631 14.062601319037478 -1 0 0
262 1 1 -0.106 13.91301559497061 12.952464127861962 18.13027934385462 0 0 -1
551 2 5 0.1268 17.672502155632376 12.186379554168814 18.15491211933735 -1 0 0
440 2 5 0.1268 18.605820456923222 13.939467841141271 13.614173583690356 -1 0 0
429 2 5 0.053 15.261984218909713 12.422663787808023 13.883227176136229 -1 0 0
83 1 5 0.053 13.029598347844313 19.09468263111955 18.881977372561842 0 0 -1
265 1 5 0.053 12.116965964451989 13.97685708394228 18.480597035824644 0 0 -1
500 1 4 0.0265 19.27955377358175 16.715900043601927 18.084801553557245 0 -1 0
556 2 4 0.0265 19.188350914606968 12.920839180739708 16.805859189561914 -1 0 0
35 1 5 0.053 1.6879516466621851 15.202361037540177 12.067496337389107 1 -1 1
89 1 1 -0.106 14.808640879111636 17.741121362756218 18.811281018613617 0 0 -1
577 2 4 -0.1268 11.235922423293479 12.945978805057882 10.996023956815888 0 0 0
553 2 4 -0.1268 16.880626286418853 12.601465148032492 16.185501338111834 -1 0 0
423 1 4 -0.1268 13.297561830375159 17.904194881118933 12.091568672997262 0 0 0
438 2 4 -0.1268 14.62682595289959 16.637039028355392 15.304230836763299 -1 0 0
422 1 5 0.1268 13.842142998037787 17.84404648076923 13.019027665972 0 0 0
267 1 4 0 14.625557499285668 13.936402581189439 19.089942032224677 0 0 -1
420 1 5 0.1268 12.025230634520486 19.35273487042948 12.936875483441755 0 0 0
421 1 4 -0.1268 12.227299756202523 18.82031147021352 11.965274436008412 0 0 0
503 1 4 -0.1268 18.21461536788743 16.696445098438204 17.14143285006098 0 -1 0
85 1 1 -0.159 13.276507014958009 18.02777915829558 19.017817570458288 0 0 -1
502 1 4 -0.1268 18.11887247831567 17.65702309940916 16.14213257364104 0 -1 0
463 1 5 0.1268 17.262661716319418 17.701428869387843 15.461233668993753 0 -1 0
194 2 5 0.053 11.1033729229434 15.899468055447448 17.64913268395625 -1 0 0
163 2 5 0.053 11.109648610406342 17.23405614533896 14.318757773683657 -1 0 0
431 2 5 0.053 16.25297179345494 13.414263148604137 12.864178515343632 -1 0 0
219 1 1 -0.106 14.737326519614953 16.000213640379425 11.127837758298824 0 0 0
43 1 2 0.08 5.3765243712201425 8.151929449250675 19.643594878538412 0 0 -1
221 1 5 0.053 15.743901171981683 16.537312231055058 11.2810517997819 0 0 0
215 1 5 0.1268 14.438808086822384 13.26591264596474 10.907412559837597 0 0 0
250 1 1 0.027 15.84934425376439 7.764321619276122 19.520544934387612 0 0 -1
559 2 11 -0.5571 4.138139522171446 11.782417746342583 19.309938977865148 0 0 0
103 1 5 0.053 15.524800420156273 6.6897059238944365 19.495701874409594 0 0 -1
335 1 5 0.1268 17.985227675493928 9.362098039140175 10.609411681655226 -1 0 0
462 1 4 0.0265 11.398892266854471 18.83742238829445 10.864908740011858 0 0 0
471 1 5 0.053 2.061269856858057 5.375093756170893 19.465923792604535 1 1 0
29 1 4 0 2.0162160728051877 13.713202984914645 10.605955393161295 1 -1 1
77 1 11 -0.5571 9.701070637886483 16.100378790989367 10.579844271415896 0 0 -1
225 1 5 0.053 15.34489098662115 18.526986818493107 19.376715323166106 0 0 -1
179 1 5 0.1268 8.47106929610201 11.674976273871286 19.518382058822727 0 0 -1
461 1 10 -0.1595 10.217910350885832 19.6283199101625 10.777855124405868 0 0 0
123 3 3 0.08 14.332525311214853 4.373131204605862 10.590773882490405 -1 0 0
489 1 5 0.053 18.77387087459577 9.389373184266603 19.484197852695594 -1 0 -1

Velocities

447 0.0015675242304848825 0.007824632751197198 0.0009986986361851323
351 0.0035839358522650275 -0.0014388368193315152 -0.006420946466645692
448 0.006566134590757868 -0.0027866958055940048 0.02927781874612248
446 0.007422573277225463 0.002090086931552899 -0.00037925117394727167
450 0.01014561680670534 -0.003196445852113972 0.006120523680075774
285 -0.0011566377449087279 -0.003972693798778731 -0.0008960052053660033
286 0.019271507653156945 0.004835879858437782 0.002911160426674684
349 0.0003339525366528775 0.006713399549539477 -0.00036792979387621956
345 0.005161372843317658 -0.006724435408398007 -0.005016511556638767
47 0.007337209799447108 -0.004679022804783921 0.0008658267135897011
45 -0.007756089422724665 0.024907284507200787 -0.014123007127870854
49 0.0017570585863435188 0.0016256663638950228 0.005910521691725417
50 0.014834832923346761 -0.016884269467987115 -0.002857163920539132
344 0.004029833319726441 0.0038407351543798306 -0.005784547819236431
347 -5.367106027601752e-05 0.0033440842959408692 0.005240483105358278
403 -0.010769406702858897 -0.00571621914024033 0.001123566645039075
401 -0.0047717230474375785 0.0022076514189494825 -0.022284716050301544
177 -0.005706346516327539 -0.0006006271836469349 -9.230107855055798e-05
341 -0.014801880314504825 0.013356405824220085 -0.01563166378009737
173 0.003490326211631997 -0.0033036268698838187 0.0026129652971689267
162 0.007143058706582647 0.0020258163541303897 0.006440768491322816
165 0.00814410441541649 0.0017275586673616051 -0.007365721113489792
41 -0.0009124534593128891 0.003517964314123547 0.005644492268941998
174 -0.0047056610695643255 0.001968426382858183 0.0038339402729565177
160 0.011604822251940025 0.02139261417150705 -0.01019819401231825
124 -0.005426265715592771 -0.0032061595388781627 0.009603148284437656
176 -0.0013631152608793353 -0.007046103424874246 0.0019952194338553075
161 -0.015606166425708775 -0.01365910796731526 0.00933277540385448
159 -0.02477774105722606 0.024651901192848224 0.011086899111395236
356 0.0026229892683176633 0.004447285624846874 0.0009541989519821463
354 -0.007250645814325813 -0.002952484705183046 0.0018841824909939624
346 0.007620809490943387 -0.019767363582979456 0.010458846992160226
283 -0.004339865555472338 -0.0019564525554001296 -0.002203029311679645
281 -0.001655989898820804 0.004716750301334547 0.0011786868824704968
171 -0.007697009567127444 0.010428442783086644 0.0009027159916194624
169 0.008968609445005934 -0.0030574955942449917 0.0006646069144154667
166 -0.011093767215618108 -0.008731211986608242 -0.00924066248155795
399 0.012996741607414826 -0.010713720697797462 0.005248698741606556
340 -0.0037426893861409074 -0.013232791161960597 0.003629327926960749
359 -0.00678517569679632 0.03178426242942386 -0.03408619345170893
73 0.013109983612036734 0.008089915069118677 0.0009524807472170167
139 0.00214920356179856 0.0012096994396335109 -0.0045192317198341474
142 -0.0015990718900569622 0.008667372032307823 0.008691355000552322
140 -0.004731970496478984 0.00562209164757214 0.002802345129138303
164 0.020427113748615815 -0.0054904483255792435 -0.00325188985022032
529 -0.009607332126791714 -0.0036642040687300775 0.0020825108128969335
144 0.003742733296597994 -0.018358055586543156 -0.002231928631918239
141 0.03357540252500921 0.032973905394146914 0.029999073325733906
39 -0.0035081738393909472 -0.0035942454521137135 -0.0029963113530599634
483 -0.018264428416162732 0.018847577601241623 0.009816549049229467
444 -0.01589940734434812 0.01181164986516462 -0.01769258163402175
357 0.006248758904397851 0.017047885424963063 0.0009786492491345466
138 0.04426339049145651 0.007992914081800497 -0.016267177317220653
127 -0.001904216555605673 0.01099560903975588 0.012472455538811265
238 -0.0014816652825370403 -0.002538497477380683 0.0017646186414440376
491 0.0018771016743054435 0.012907886341498778 0.002655138988136718
530 -0.004775238692083504 -0.022278316655080132 0.017518308831868033
230 -0.005657168148838609 0.03443433120509025 0.018273988602638645
232 -0.0002948353353311108 0.0046582560817410605 7.065255180701791e-05
56 0.0020256314757891047 -0.010135207083236834 0.003336399647530549
4 -0.0045301955857439185 0.0011404923516401607 -0.0043006898908618816
168 0.0031307196820915513 -0.002765361274323322 0.005717546341866499
222 -0.030318564667658685 0.005842468668496479 -0.003802147391385238
449 0.03552986637012114 0.02190974268011716 -0.009569728623329169
18 0.019677743824018306 -0.02686140451489315 -0.0041126950528990935
361 0.0014124867465085387 -0.00048543693461133803 0.0017062525556941549
485 0.0007559092504172558 -0.010545355702984467 -0.044674063990542676
407 -0.01550198146820188 -0.014400458438130141 -0.00834705544235534
254 0.002487444519502747 -0.005388500083626094 -0.005263340753771261
363 0.020591541626039562 0.015309292220163154 0.019139766806450766
507 0.004113507361505439 -0.02168894041930902 -0.02720373322942598
15 0.004146555107566377 -0.00032654935716442307 0.005896320219808734
376 0.004683909125949947 -0.018864762614827113 -0.0031490305438829254
143 0.004387248697026067 -0.0005929537905079552 -0.0009637759815302549
282 -0.011479277201833596 0.0043687543526350426 0.003341210889307798
532 -0.000277092080346652 -0.0022184379537259664 0.0052220519759696845
53 0.009644904943231563 -0.013357425281522168 0.024584539772305052
280 0.004255988647029456 -0.003545503242421872 0.004076873483541352
17 -0.0030343776678261906 0.002593747594831498 0.001960308167331272
271 -0.008846265235649148 0.003951670082470089 0.01941900947944932
508 0.01949319519715248 -0.003052582258187969 -0.006060732883453324
224 0.019959065442173417 0.003732030272017449 0.004741003262987461
487 -0.0023443031168805493 0.00473901352132171 0.0012487002888707662
234 0.003315906516863572 0.002548356580846874 0.002493155585097045
223 0.001724347824742265 -0.006108656622832652 -0.0012922643457941821
528 -0.0005049462174769606 -0.0012041980024410995 -0.003563367536823618
490 0.0025823136044043965 -0.012651315456954922 0.0001818665230966218
488 -0.017760027448547273 -0.0037843541970771035 -0.012953294809317806
533 0.010437682669206841 -0.016648216006639113 0.0014991466643556179
531 0.0055121405794910745 -0.0044396678947553345 -0.005427758611615434
527 -0.0004560062058968223 0.002063528203123962 0.0019249366226662841
227 0.024496987030313094 0.0195510640015726 -0.01011191669522335
291 -0.006574065146246598 -0.004216971464446124 -0.003002380671333713
249 0.023033342820069372 0.009796017830857795 -0.0005124510159399227
278 -0.01140979965515923 0.0007701583975485899 -0.00033041366832607953
277 0.0016693585737899493 -0.002528966860419555 -0.001633149258517435
116 0.003982994209927544 -0.0012623750743010458 -0.008600692700998815
270 0.01758723378815579 -0.029749558831806848 0.015522896834409772
269 -0.007958283236391181 0.00011303677027978059 -0.005222382304556765
115 -0.0150874927575188 -0.0034374853734255007 -0.029880922896721448
157 0.010857909281773472 -0.031056526923236766 -0.010921364130175262
276 -0.007260886179143712 0.009275145693825723 0.003500555468409636
355 0.008801585781233587 -0.006171726285269301 0.0074351643767007775
432 0.006585968446635286 -0.01169148879450078 -0.011569020178349971
113 0.0036417950272512167 -0.008920180756747125 -0.003587609905708855
117 -0.013387258092214053 0.011039791955023484 0.017104723824465987
274 0.009578566634618618 -0.0022832505249509244 0.00410086356310943
158 -0.011492281872756692 0.008796407300303614 0.010927539118422274
193 -0.0017042740883258215 -0.005764145166103056 -0.001518723662467277
275 0.012181948461008786 -0.015113409962986305 0.007557487265950456
379 0.007595643645191721 -0.003389471473189236 0.0014872776694700106
273 0.007442831730092828 -0.036066965150341294 -0.015695968576646048
428 0.04264144263401775 0.02039941178981443 0.007921207579257855
430 -0.003069346924814008 0.005184872093635615 -0.0029607458577250246
378 -0.002016001747344231 0.01680277271295403 0.021632098416499816
380 -0.004906938576853783 -0.0009281672662993138 0.006597835980355033
384 1.564967644559542e-05 0.00563179214267367 -0.005096479781782921
388 0.00784615694088008 -0.006892805621451828 0.002640307003311266
37 -0.00108305278395482 -0.003458944704865412 0.009040683531154286
387 -0.00863307844198568 0.004617518532088891 0.03485988222142638
370 0.00593193874382253 -0.0028058387501188934 -0.001929749190604505
118 0.0002933914710467123 -0.028436241766968295 -0.013863262923529263
474 -0.005046553209292775 -0.025529541097541023 -0.002003487493546355
494 -0.007499185673112902 -0.00316043718662392 0.00976128367813629
492 0.005773539643700761 -0.0013408241154647712 -0.005974133903594319
486 0.002216847674196147 -0.0033326095486153635 -0.00034428526736181064
472 0.0014850988934938351 0.0010086775840086445 0.009175290283454124
294 0.0039142383645591056 -0.0026654794158516523 0.004461612731565453
125 0.003626854073369855 -0.0022061504263031243 -0.0007852298842952764
11 -0.0062740541542724996 -0.0012115070964993846 0.0030767748109801945
241 0.002266628967050607 0.004541378264525272 -0.0028702737482281934
13 0.0007361585474662032 -0.00045659661739731494 0.006518604905863504
12 -0.00875907606904905 -0.0002646778761472353 -0.006759886480442289
493 0.03142758411263973 -0.005545544285801696 0.013115934739511835
297 0.011020632467573553 0.0127944925878467 -0.03430843745712668
14 0.00013169957626954173 -0.0020950983055888998 0.007208639717140585
10 0.005873486289664228 -0.0031467064178542664 -0.02670665479673676
9 -0.005074134827040329 0.0029648924884042647 -0.0029775738901089595
364 -0.009656142503146937 0.01168284723633191 -0.020731879275124643
112 -0.005766595915269058 0.005678371084474843 0.004644163251161083
329 0.021527636123671128 0.008761843069614762 -0.029975177136378633
279 0.012563762902429498 0.006153923658596187 0.006938568923038323
16 -0.027058215047026494 0.009744826686638028 0.014647985886789994
287 -0.004942909094331514 -5.0936087372736895e-05 -0.0033968189589752363
289 -0.004784907250858467 -0.024984476451625104 -0.013348183976680552
362 0.028126236803365737 0.008116208808153868 -0.020511252328434666
386 0.008398834012890724 -0.00398484313255689 0.004588176449060145
106 -0.0065752051328159655 -0.027823606611198825 -0.00197875459179108
145 0.013068836248970187 0.015694055402233113 0.015277723025869395
126 -0.02049056727521752 -0.015819643610845577 0.015591173154333764
366 0.00885039119110676 0.008476734202316323 0.004751630808601085
155 0.005838985198540861 -0.0013096184098350012 -0.006309658028180358
571 -0.005493271504545322 0.005919778324530506 0.0007490040787259552
147 0.012236050692908732 0.02047478492409871 0.0043184222294909876
149 0.004659030643536777 -0.003395448377999065 0.0037816612601315894
57 -0.021105520022694956 -0.015766695357580667 0.013296142503817684
78 0.0008127722417490721 -0.0080714024076604 0.003935786524627242
7 -0.0027279282524504743 -0.022306914453110938 0.008822222816492262
48 0.006808431721095742 -0.012748352191114707 -0.003942721753373908
552 -0.019321876755648795 0.002839908410133313 -0.025799220579127643
218 -0.0011902709867721631 0.006006790712199751 -0.0013006552571574877
360 0.01593584243540091 0.0004909963965752677 -0.0066530439347184875
319 -0.003931506227628409 -0.0011646472070873882 -0.003425705234660222
324 -0.01937226497845382 -0.0198673954251739 0.009273535567202711
257 0.0020260892588440287 0.0009746635027274735 -0.0004990121391952692
258 -0.019176335844796978 0.014220319888549977 -0.00779614672328099
452 0.010426460465288834 -0.0013332417247623976 -0.012709105242697671
44 -0.003786863551155607 -0.000980133937710267 -0.009329904184653015
509 -0.03154381698900592 -0.009602541013149998 0.03008203914117235
21 0.0030562114884663924 0.01771462943625124 0.020481356293382335
132 0.024454072574742462 0.014355055068785977 -0.000968436814263057
510 0.0008720599362653903 0.0044933920827048834 -0.00020592195358210276
511 0.015124041030540413 0.03293729474110176 0.016226827270851372
321 -0.00024435910164503834 0.002403455253687201 -0.004555737877778709
576 -0.0054320545156062 -0.002761496274385614 -0.010701459846047765
323 -0.0032556456811970312 0.00187120938405117 -0.0015098099223446718
572 0.0017221522096869967 -0.009607551385122459 0.0006916225417557417
150 2.6658948426926797e-06 -0.02141789330537146 -0.004246788724810021
546 -0.012378814267964645 0.009789212849588617 0.0022942373140942634
151 0.00228370380256851 -0.007586851963139635 -0.0097552851875633
545 -0.0009804040355087765 0.001470086924628924 -0.00684820367647191
539 -0.012963786779464487 0.008473495603529422 0.02255207679415592
98 -0.008723915335268782 0.03227137292189338 -0.00210492791127825
154 -0.019004902728094623 -0.001234314651477812 0.02297661246374727
156 -0.025566916543464064 0.028255534093080556 -0.0014576860360396183
451 -0.013991671351789905 0.0012529183784393274 0.02289514519598917
63 -0.002356601308826164 0.000962258304627926 -4.212159589355684e-05
152 -0.007621853209933074 -0.008680468066332535 -0.0078020452269645085
464 -0.01158487132252508 0.008025113461264529 -0.017703807564762166
65 -0.0011941027430946642 0.0035392021059130713 -0.002289853745530314
542 0.0030067706223566595 0.002312151354227743 0.003484606234992714
64 0.0006002578959715094 -0.0034738355789299433 0.0003648914037137552
67 0.001360058693123355 0.0029517608501656704 -0.00012258850504802773
69 0.0020272387713696745 -0.004300888749804991 0.0008595917789632449
70 -0.0012992483537153001 -0.004546829436597903 -0.007409680870146282
66 -0.004130745976714672 0.0011581543697733697 -0.0009412264196320646
72 -0.007777328146826847 2.717474388808522e-05 0.007974511417067362
68 -0.0030238347992413254 0.0019962807825671387 -0.0034134890630244134
74 0.012572799296326525 -0.01310777868574254 -0.008382663453687501
327 0.004575729368083953 -0.003576723184731687 -0.00036762560769628707
322 0.005214455537573167 -0.0012649996137941118 0.0003600231242332516
320 0.0051327033821624195 0.004598321802444078 0.005736870492005307
325 0.005188617200414138 0.0011050279611073198 0.0011482270694149115
317 0.0015799355056827378 -0.003968354753116203 0.0037917575181813487
326 -0.0002367252490085972 -0.006226002009665906 -0.004447709867114322
569 -0.005859819932397015 -0.0002753909246813575 -0.0026927954768121943
100 -0.0182389910793918 0.002415887112365576 0.007001238105167501
71 0.0020591864377672207 -0.005542408792215976 -0.0008896852085207928
101 0.023683764884960302 -0.031032808547106737 0.008957505021268361
20 0.010800989356702692 0.004257542858634655 0.010503083411503378
75 0.005492993164173692 0.005735490965111377 -0.010039393695204724
583 -0.009988655686808257 -0.03461552016940163 -0.013201361979139292
23 -0.0008012212037186304 -0.003558333035167919 0.00025326032911986233
22 -0.003942186168928707 0.006106922517728673 -0.0045112916219703335
506 -0.01914429689816101 -0.0012888976124343552 0.010672277561609869
547 -0.025146166902989046 -0.012716645959542546 -0.0030524977068893755
80 -0.011553911160337407 -0.017398247404598496 -0.013381628880297343
564 -0.000759391485453646 -0.004596118056677827 0.0013569303815066857
389 0.003466322736461621 0.034362153886132674 -0.02018494993410217
46 0.0017777299473746126 -0.015282042396450334 -0.0040474976457581194
504 -0.001081733374704536 -0.004102178108762122 0.001027419614458284
540 0.008384223198203786 0.007364933613802024 0.019703711829920097
375 -0.020942001407903938 0.015378842259294754 -0.0018200785078496897
453 -0.00041431068228470295 -0.0003466259481129625 0.007415339005636881
582 -0.005976983970513276 0.0005443697856573934 -0.004891023679475598
202 0.03069800658690657 0.013271084911840406 -0.008753411285404347
575 0.0005072041326017095 0.0010686312542947855 -0.0013232167580645158
204 -0.002224464931916675 0.0011932011505105396 -0.0037402904412210934
534 -0.002563599158504977 0.0015508621124745217 -0.00014854216050151837
567 0.0028031383758180674 0.002619481506461152 0.008167525180103717
256 -0.001632424140750558 -0.01502874147037223 -0.0011047622688598667
30 -0.0005506936940675162 -0.0039209472660727 -0.00021118001371385567
153 0.01665799924086897 0.027383028144857623 0.028883154377370403
33 0.009993473439130493 -0.0010968256085509172 -0.00037330429702327867
573 0.005110858660281395 -0.006167629097838401 0.002628755398926301
512 -0.00047608130240762026 -0.018153205473537517 -0.004872037223795649
381 0.010050518207050158 0.00647232742109116 -0.013741581725726634
105 -0.0026329757692962574 -0.002193218314112107 0.001655558976808112
205 -0.009696206072891516 -0.01026322111127851 -0.010405038641926918
87 0.003926394205588692 0.00973459445486463 0.020691933494273933
94 -0.009448504691070891 0.00030289987044058124 -0.0138617699539898
203 0.014159096298498241 0.009718033442098132 -0.0007000882267193062
216 -0.002090318908391134 0.00019932845431109284 0.0014314021986295293
8 -0.0027583489244881187 -0.0034492847604001985 -0.00014957897177873396
99 0.009506326108630203 0.0051166133387662025 0.003708364347413837
146 -0.0003968952599987495 0.0018924083670340574 0.0015015039778624485
184 0.019793344974716458 -0.004812927015542412 0.0016527868392760526
217 -4.3152898791749905e-05 -0.0015528651451115888 0.00461427022385614
3 -0.0012554264721404364 -0.007464865150866784 -0.0001912242670849812
570 -0.017626531164500973 0.022387452467785958 0.04176820547391118
93 -0.008102345636587061 -0.015354566576004309 -0.002109592946282306
5 -0.01992322181962235 0.01525436925633046 0.0016147358686367283
109 0.001278182968356632 0.004199106031774995 0.0024162681457324613
28 0.030154242042484996 -0.002495225193203579 -0.02142519064746347
97 0.0017987549121816187 -0.0034491745579481436 0.011395183516889796
6 0.006215001649888732 -0.013671398173965192 0.01375851282099808
91 0.002059675548045149 -0.0015931612561813906 -0.0011570184515883762
565 0.022730286580714777 -0.00036343939029034953 0.022138126894858664
568 0.0009070762105573782 0.004442708192500494 -0.005669642462368058
26 0.0009209891908722612 0.0043632088368798635 -0.011207104162588544
426 -0.017737490128236916 -0.011525734099858227 0.002262170301672123
32 -0.0032638287940397943 0.0029317158377816003 -0.0032832755084938577
382 0.00867855442166 -0.009090013023541347 0.0028357122951792645
188 -0.0003921890416980095 -0.0017899172633824814 0.0017759799118399608
385 0.0013319744711143726 -0.008991804685918254 -0.0004259163074538671
95 0.0006531934052933948 -0.0013042088358779227 0.0020468255688395453
368 0.0019904339981142417 0.0010172243355447911 -0.0015521042319407811
96 0.010726316392642 0.009359639733081711 -0.01963292827485636
108 0.0020686956937977915 0.0011496062369449878 0.0014618076642372425
369 -0.0008513682417227289 0.0016019887087020412 0.0021109636919189054
107 0.0009132881862165698 0.003639472861988628 0.0028152556868055296
19 -0.01877991865054341 -0.012029763535969592 -0.0007711452918386328
373 -0.01954816667418534 0.015340107852681441 -0.021779233964459
220 -0.003869140194683211 -0.006448733493813904 0.002586567650511473
367 0.005288600943798662 0.0029390136519788445 0.0014832786747673633
374 -0.0036188976944900074 0.003620007399288488 -0.0059488334719833055
288 -0.006251259336548072 0.0011141973197694238 -0.011742245083180594
383 0.001259600777585427 0.006428373160176685 0.0017090685351186655
148 0.002535563105705536 -0.0009839564382790884 0.0036369668497936956
38 -0.0035715782446467128 0.007101698572382571 -0.012830318029538131
332 -0.016460736168092675 -0.020454485678241187 -0.021587188168739155
2 0.0012005581686162167 -0.021671228603890178 -0.011194045963758946
535 0.020772010336009894 0.02194127842677461 0.01643231741653558
371 0.0032993075266251667 0.003394248316493704 0.0021994901472966793
328 -0.0003435867599161232 -0.001672699199801828 0.007341418541657417
372 -0.005380107538795996 0.004102998535052113 -0.0038228432927771804
255 0.0008615848003543424 0.007261951439504918 -0.001310975618648212
92 -0.0030590898069351477 -0.005370970991372236 0.0003059631513219381
1 -0.002083857661869628 0.006190953739007755 0.006245847390734922
365 0.02321976974378031 -0.008196799819381498 0.0034447552986478047
24 0.00512177505540087 -0.007536638885735179 -0.003438015270910325
566 0.016873162749726254 -0.031644688308114496 0.003954576874812287
425 -0.0036800632760457777 -0.0002630135408765092 0.006529080813849346
76 -0.023444737494335992 0.01844006510938246 -0.016661574162641767
42 0.027251657114353636 -0.02167338539419599 0.009225166336485624
119 -0.02494197885960116 0.009417095480149644 0.008542432147879316
84 -0.0026187327219788616 0.004464214391719333 0.007449877736180001
318 0.0020671434831338303 0.005765386449701701 0.0030050272219464486
584 -0.0252459681792789 0.016574739388305244 0.005972515981890767
470 0.007623497972670046 0.0029368186242655263 -0.0001075059379225979
585 0.004720951658439187 0.000544819456292721 -0.009150207177151613
516 0.003708993704504474 0.0028377505233220866 -0.004252272606247005
468 -0.01006078992700496 -0.0022140451212604596 0.012268756569970883
562 0.019864441804852095 0.007399407229893893 -0.02194852960571857
477 -0.005610252492431748 -0.0082674162302991 -0.00222701553334491
475 -0.00872658355047037 0.0024115388290632577 0.0032609566537213975
513 -0.0035157221398621026 0.00462237156158199 0.0036799153879815173
519 0.0032059546325372943 0.0017298829809058844 -0.0036075442861145126
521 0.003411388340708716 -0.00018024482767225382 -0.008147226009122679
520 0.0012241340722036784 -0.0036681191242324018 0.003171597492402527
358 -0.00025434081808510447 -0.002257896343361759 0.010741764062256218
515 -0.004868210884555721 0.001571370925145891 -0.003818006137696199
333 -0.003760693542376435 0.002877127149136027 0.009531647611662149
478 -0.00602804596374611 0.0018194698216455858 0.0003372819905426962
353 0.007327334284383455 -0.00945944524403183 -0.0009121990993122194
469 0.0002840905992655598 -0.0018549103518335798 0.001465969236947078
331 0.011591054542296293 0.002126861937265352 -0.006216033154776454
479 -0.0038669629732742514 -0.0021064895576383773 -0.00010545036426431938
522 0.009051385487706107 0.0025404427646153215 0.003189334586580235
514 -0.02033350678106717 -0.0045072180383368635 0.0040279198998432455
237 0.028774659408362775 0.02528593049773296 0.01948545301986794
242 -0.0009875967638961218 0.010951718733688658 0.013155200616017333
231 -0.000517957916535242 0.007276915651552941 -0.0013268069363914633
201 0.0014353190779336225 -0.0022084715719897486 0.00043858566612515673
191 0.011117363865286051 0.016686487286503893 -0.003963725602876358
136 0.0019787070671516134 -0.00089275255870106 -0.0017445356762891117
183 0.01206051002385384 -0.017523742842523116 0.00863014184104685
170 -0.01141927708934242 0.016253007335694042 -0.011696221321904357
228 0.008937441474961517 0.011085359568969659 -0.010289355143619333
229 0.007922607383292502 0.009619490570272192 0.0017072322846663744
480 0.003251993901741506 -0.003307205555181023 -0.008579904317128934
272 0.012660859180264394 -0.0022400029574177797 -0.00858362435527337
445 -0.005763721452723293 -0.00017028052070457218 0.00751827015296374
523 -0.004207596387182138 -0.00029280553306112095 0.0003507939697538899
563 0.0185453550625991 0.004163168511157084 -0.005910624794682828
185 0.0011572407546245702 6.309709420328888e-05 -0.0069258903877943735
314 -0.008206109435356044 -0.026250065257279746 -0.007753938461443448
526 -0.015739840241724656 0.022204003528211853 -0.010256281616629547
482 0.005014197076188802 0.007228078749326704 0.0011666640204790516
476 -0.01649571580237458 0.01054409678643652 0.031039947613714373
524 0.021511321214171972 0.00729049663771966 0.02477317797531795
518 -0.029459626845782936 0.0054164700120786615 -0.0036920707619397934
350 0.0002202467427998805 0.00037169718034807235 -0.004687919586705207
233 -0.0005507084726348208 -0.0009761742890351085 -0.0015299010505381966
549 -0.010957029212690084 0.004896557967534317 0.00463703446585625
290 0.0030079396021599003 -0.01314592663190915 -0.00479381492536142
352 0.006467935560683951 0.008785413154932045 -0.005757425840600533
517 0.007523003588173681 -0.013477096560003454 -0.002485308669823571
525 -0.01865121891393238 0.016348394016239456 0.004184824833543277
459 0.007884039795887615 0.006456692934135312 0.006733479431632054
457 0.0035161913232280326 -0.006202905341308276 0.0024573323190114882
226 -0.016494688958056027 0.024097735812900367 -0.0033619803122923258
187 0.0024764449555864988 0.0046751655802130835 0.0018728705306513083
467 -0.0007683356871356237 -0.009064059661146349 0.002688935577890597
581 -0.00021409521348480728 -0.001889026209969504 0.0015747747261815514
245 0.0025159338944981562 -0.019648915260687454 0.02816276709398297
244 0.0036183232306803035 -0.004138915650341804 0.002642571125524459
180 -0.006223006760231743 -0.0016726410204118377 -0.0018221527434666466
343 -2.856985037016956e-05 -0.004851681059725112 0.0013533502654952505
330 -0.007952111102844404 -0.00939763573031227 -0.0020759257920902672
394 -0.0038330617526867563 -0.0010597675580841376 -0.002998386520563013
315 0.021183442929569585 -0.005596252479206256 0.00861339876464791
175 -0.005764265881701165 0.027602101406058777 -0.017279980382197163
456 -0.0013891024908856758 -0.002996992738554959 -0.00033939312451878586
442 0.0037564004865540536 -0.004447209057152731 -0.0023124315227467454
172 0.012290665773508961 -0.02006316051762492 -0.004341696255027475
40 0.013551043430335752 -0.024434437504545558 0.01683361596345609
167 0.0014491895435311847 0.0074305962832225386 -0.01865094700470242
120 0.011380116684123268 0.005990826746152978 0.011005993353344559
311 0.0044856354677069955 -0.009585934267324778 0.0009703239266403951
308 0.0006512687414161778 -0.027088642897524662 -0.006663834413575585
458 0.01820155668381448 0.0004087636360515642 -0.011434884102298036
236 0.03561008795109654 0.022250575090725384 0.02407279375088688
235 0.002370024635934881 -0.0006798714091086127 -0.006478189379207981
505 -0.0011854641185103372 0.004691255386874795 -0.0032938592638644443
484 0.009776590160384561 0.0036000739355130005 0.005925828283983793
102 -0.015761191489219516 -0.00590483194127812 -0.01994997853315453
135 0.004137213782980202 -0.0012241339462868703 0.002333823451784496
481 0.03303556908907327 -0.01017195189475152 0.0014960950625132973
419 -0.001426629448489062 -0.0011601011619590308 0.008336271705283593
473 0.008030615464093149 0.001909078762179545 0.012097422465189524
443 -0.008549032356312566 0.005761670008323507 0.005120446357118741
212 0.03249126741671506 -0.010244885295298359 -0.024390136777633662
114 -0.0001503967677545043 0.031225818986041178 -0.02374251407491433
348 -0.005120786722923414 0.002671201282514575 0.002528867716381356
313 -0.006582917585975032 -0.003174021810442131 -0.0060009494809046505
130 -0.007238589028583303 -0.000274088830235321 -0.0008009488330567527
137 0.022926546101695783 0.024499321538547735 -0.013040345022192168
210 -0.0026270672634704224 -0.0007907362332302312 0.0029485443652622605
312 0.003358656630582569 -0.0030473335218441358 0.0013375308289357525
214 -0.0004865239792391849 0.01583242597983202 -0.015313330099067051
390 -9.282502155282491e-05 0.009658666423279694 -0.0021937577880296083
284 -0.012340841474421433 0.033745059595357015 -0.00602334918066023
122 -0.007531256882269514 -0.0154822136929466 0.0027308033909788157
342 -0.0005883705594843442 0.004612151995160009 -0.006576956371545006
418 0.0013749788473870455 0.0015189203401690078 0.001369253257175845
213 0.00045862396161314135 -0.001368783464160897 -0.004286981894830102
240 0.004271338613975874 0.0001600818247457684 -0.029482244576425804
310 0.006702221245865597 -0.0031773278627124013 0.002044282717602673
211 -1.7129520247497773e-05 -0.000497860440020182 0.0021970470745326705
208 -0.006164544070430993 0.004310487798447287 0.003689586606256371
414 0.0013786078009426486 0.007269671380938584 0.006708535795718308
416 0.013451338372478914 -0.011173147770880482 0.009031279185996298
415 -0.0004818677783070999 -0.003979554534073695 -0.002380169000747147
413 0.0007469164746137319 -0.003364369354995945 0.000608351647486582
206 0.008459177962412728 0.008776116893381277 0.00806704610971194
209 -0.0012778075901145067 -0.022050373167746672 0.012088812634500444
207 -0.016339558113120826 -0.010951157390454852 0.0005427794164705326
306 -0.0005403724894980942 0.0008573568487362022 0.003043750147159044
304 -0.002359826452117333 -0.0063128693406793845 -0.0058074121986837965
133 6.271947908583514e-05 -0.002960163445766309 0.01690761961497269
334 -0.0038317624642613484 -0.009262696237320614 -0.0036950505707537204
239 0.004533037677856294 -0.0015856456110591762 0.003065118195189676
309 -0.00046083034778528475 -0.0014692988058580565 -0.006464769243913223
131 -0.01028894383726734 -0.0036000387751329577 -0.004429501578497569
305 0.008415914622228958 -0.004024467436983357 0.010146273886361822
377 0.04002047580595019 -0.00699743940600821 0.03236620812907179
302 0.000799219266569022 -0.0029886600702165637 0.00395502945919371
307 0.03231429570852215 0.014248289643726401 -0.00540921526963987
251 -0.000813221797495529 0.002283893367117452 0.0032266470325757516
303 0.01846009798191983 -0.008515853942696446 0.0008430936950987077
248 0.010721103449916511 -0.021350191100251877 -0.02355766015329323
134 0.0057626487669132035 0.015263345816269439 -0.004601080019309726
337 0.001807731758584793 0.0032995582889505564 -0.00024200437954815447
417 -0.0023137363312745714 0.01094864801369405 -0.0016243509343411018
412 0.005715127095546119 0.001099357184309683 -0.0036547284233803667
338 -0.001040150467159116 0.021458095246379434 -0.00196853695968851
299 1.6225622974711185e-06 -0.004384204067044634 0.0047718793228447775
455 -0.008671751840578059 0.005367367898524625 -0.0067002439373499804
301 -0.00037098759300509634 0.00047949970418035366 -0.011579895995418175
298 -0.004544670908153887 -0.00045958770952109744 0.005238339926885493
300 -0.0030157980145718503 0.02810872827931076 -0.00815881135791722
411 -0.026878902916415075 0.013109929529657168 0.013477424544107735
466 -0.008009517074137228 -0.003013502706665189 0.000860786503858355
129 0.0030217072929796217 0.0016812388016277928 -0.0015159140572011337
292 -0.016676409597009008 0.0003683713697304521 -0.009102866534879817
128 -0.008597117370255623 0.0023348914581181996 -0.0012029709115834088
121 -0.0022468264208896933 0.00711087147954089 -0.0072035366950797056
259 -0.021117581995744122 0.015463114189935307 -0.0013726647204118135
424 -0.0014689166783425675 7.669837077051594e-05 -0.002564390961442204
192 0.01497077429760167 -0.017129992694199615 0.012114401985873983
247 0.008981431320690769 0.0038630692933644822 0.010533832120962936
243 -0.005372192061206855 0.0015265990279454847 -0.007599263473526772
460 -0.0019504495641255919 -0.014461896761692314 -0.03540339521765816
495 -0.012001700372971666 0.015204019871915367 -0.020369710403692495
189 -0.02239571460647314 -0.010324627645210986 -0.01388662419007232
190 0.0020566008268304557 -0.005076950657510659 -0.006442591118844352
82 -0.011414168422823473 0.02668900212648171 -0.003427772177877593
404 -0.001101460499541284 0.007510402791252726 0.001527171436890937
252 0.0020168580852128856 0.0009777776091518084 0.002506392604521688
86 -0.0011041082367279124 0.001382162910394223 -0.004462105564374064
409 0.0064713158131332795 0.015291423608035917 -0.0017333706746038464
25 0.0026475029993183992 0.0035479040438507964 0.0024939806195819446
198 -0.01620179539407019 0.004392138877845636 -0.0016974427668610499
397 -0.001196190308615735 -0.005296568904571069 -1.91530595495217e-05
79 0.003126874715052116 -0.0019316181552944218 0.0047974318147719274
61 0.017406044567297854 -0.005384199373241826 0.028505321663368978
400 -0.00731325274746231 -0.0042969297934776956 0.00542343856728807
410 0.002133801915723912 0.02480022263046822 0.005741249755564777
408 0.0029547990757639027 0.01605633356290266 0.0006177669132669077
253 -0.0016112628737254692 0.015048817561802643 -0.01783017915071576
537 0.013100290402831729 -0.010805195176816131 0.018422028283241486
90 -0.0032734741579160927 0.023125657622479937 0.03284549638380634
186 -0.00042782874564098206 -0.0057600515536689965 -0.0038987719226728987
60 -0.008045823740436516 -0.0005205986659850565 0.0004001745780125005
541 0.0078083369260507594 0.01974849997897912 -0.003217455068061072
543 -0.001665062587323206 0.006507082528543105 -0.002985221434443671
544 -0.002082466267311111 -7.936363967204853e-05 -0.0020608637444125143
538 0.024983483942563018 0.013112810804745693 0.024138900060544168
548 0.0022114131637651527 0.020883603490596737 -0.005787163998604971
55 0.0003076922026688261 -0.002732517915543688 -0.0004635141706080114
405 -0.006468498966485534 -0.0029507953292315548 -0.00316163170950382
58 0.001241064195299877 -0.0020464465842055077 -0.0022291785447733836
59 -0.0023333073131092215 0.0006024052459040929 -0.003878251729033335
182 0.004851707206495599 0.0036558881438767885 -0.006690327992660983
181 -0.00380661740267549 0.00020688871666750202 0.001856124849628103
406 0.018422351431821405 0.0008752706939410671 0.003139828636755379
402 -0.008185362735315501 0.003439740681663485 -0.002258201346382921
51 -0.016918193066777755 -0.015360265039013294 -0.0008298863522569655
178 0.0009101407144073303 0.012626692066463005 0.0008314771608957608
81 0.03624502034021127 -0.022459776567669322 0.00462329599235933
27 0.003996417151990104 0.0052028168127893825 0.024851646540978958
496 0.002592817006392425 0.011769159486159891 -0.014866732717673295
54 0.0007749597885607292 -0.012831173590255091 0.0049922798854854945
200 0.0012719528606777266 -0.010138026187954662 -0.0014784456483826038
561 0.005792295540484843 -0.001937091300414294 0.0056646565401438755
197 -0.001904823273618783 0.0002928247246613713 -0.0017688336781880318
558 -0.005585617741633973 0.002185450020164437 -0.0038054581470666655
536 -0.05967543821721122 -0.0037812923266971 -0.01799429061844441
199 0.008150048429481633 0.004290498863188907 0.0008261936326457299
196 -0.008222500451918118 -0.006231458839805085 -0.0033278208397326666
498 -0.0022122696206770074 0.0008293855528807923 -0.007507960967843924
52 0.010478208543036837 0.019690339845472582 0.01118457719473517
497 -0.006869487020858448 -0.0027914069143456627 0.005472947568288291
34 0.021349564911911287 -0.019525083163992353 -0.010486376800315758
88 -0.031049433533650708 -0.008654785993713951 -0.03316945652239693
316 0.012253058784204646 -0.0016400683012548322 -0.023163916386329
396 -0.029310747911063584 0.007041085577837654 -0.028156975541698957
580 -0.0025476860932645362 0.000868367170803672 -0.0030308523822959958
246 0.012721645868329662 0.022066604822848696 -0.0187408878139108
395 0.010630226950697345 0.0009083187155589835 0.01913283529508574
398 -0.0074094916566901535 0.027422611865701867 -0.010151197311976983
465 0.005715213552498577 -0.0007881116230723261 -0.00881728879352747
436 -0.000513749591551431 0.0013441855615353006 -0.0028383346274373097
434 0.00024253577013275932 0.010802277390400832 -0.0018924060034327629
62 0.006592029986066926 -0.010715040214563964 -0.009960228313592534
393 -0.0033550718327107344 0.0008420399345564225 0.0011902069142272445
295 0.0062174582922240205 0.009380778249832657 -0.0036233561702169958
574 0.028058334152475887 -0.02406134992966001 -0.00046909525623797224
260 0.005924602046830577 -0.0033662254835207703 -0.007419153254703083
264 0.026414257559302694 0.0010978659336958985 -0.01152782824989307
560 -0.00026075623105662447 -0.010583524863584395 -0.005195026354239552
392 -7.341899104825878e-05 -0.0005879470468922744 -0.0048551617100595175
501 0.003608608839391121 -0.0035843811216108826 -0.0016058902014193409
339 -0.030677643079624277 0.008234463791066883 0.01350308358899595
293 0.0041642117942266915 0.007049265226966083 0.020375077625832842
439 -0.0036329844861613244 0.005547928760694698 0.0011822960721520972
36 -0.009524714009280589 0.005244582545536184 0.002155204694404197
391 -0.01494381667951226 -0.02858314405607347 -0.003136375991060925
336 0.011171059639287951 0.013657247249240561 0.0009127473594812956
296 0.029348838797986755 -0.014080056872169861 0.0025798817490411056
31 -0.0026418049853630756 0.0017915665461321162 -0.0018563069860835831
110 0.006867884716460494 -0.00775683557549482 0.020278605841811813
427 0.010572898238246095 0.015428436459037803 0.04043712553255579
433 0.01507889143454159 0.020079111412500236 0.00022117440153165721
554 -0.006093454976988596 -0.0065914354417549986 -0.007637139222463403
266 0.00526303016706163 -0.02107950914330517 0.01636944310763579
104 -0.011154547883673836 -0.0006308327901624692 -0.0005436590503078711
555 0.002992689396131761 -0.005139208520611126 -0.005166724871958836
454 0.0025842090893262197 0.00504407871243144 -0.022821623731083544
263 0.0012473794742263412 0.0029445387929521857 0.006239801856526952
268 -0.0006476533022285116 -0.001520567577831637 -0.002770813003154423
261 0.0054299677261676615 0.030333342463063066 0.0018805325788688349
579 -0.020154229891884708 0.03609933010589489 -0.016000232056722796
111 -0.009314512980659164 -0.003020448594639902 0.0021299559614287385
195 -0.0062633270184833355 -0.0021647825538852364 -0.003150883004651167
437 -0.004549838178912271 0.008911098750163408 -0.011232173342667264
499 0.004042652372232522 0.00021579944892894285 0.0012548179489199503
578 0.0033801598636818463 -0.0040924827584125295 -0.0008958030070820144
550 0.003876378926432618 0.014357203098299845 -0.00037224050556249576
557 -0.0022509957432137826 -0.000608967315539113 -4.3663249472666936e-05
435 -0.004029008207016315 5.272033943071714e-05 0.005034109027743514
441 -0.023506624575272972 0.016535598141898613 -0.009500211940438518
262 -0.011096571283476298 0.0019898772822533554 0.0010597875077666353
551 -0.005714430120090318 0.016435866174169988 0.020453509403115914
440 0.009531303229607088 -0.012210577824815043 -0.03099782003193225
429 -0.013221039784160213 0.007989286550232538 0.009901526883517964
83 0.012238825530685414 -0.014421935927453236 -0.0019843347784615157
265 0.0029980472051717405 0.003503375204080231 -0.00553042357299884
500 0.00434054894018004 0.00529533516287976 -0.009471906427620599
556 -0.0005356758627391637 -0.0067447118638202215 -0.0003392926052426237
35 -0.007515892233628129 -0.025855738701916597 0.028871911875502008
89 -0.0003071858286773491 -0.0034659576120792263 0.0003626274044977177
577 -0.000779017221991602 0.0011872566046057429 -0.00027146914692448293
553 0.000572983638294378 0.0015943208721449777 0.0042428715006303476
423 0.005952865535997041 0.0036206153473255912 -0.0008484413996116506
438 0.00042573755842346945 0.00256757833586811 0.002227135377727631
422 0.016382618477261128 -0.006724075553640189 -0.026367120528444282
267 -0.006247258677602712 -0.00018113235822471652 0.004945475394898314
420 0.0012623301909054602 0.00271712433113398 0.022992620101791438
421 -0.00121668141785814 0.0045943751386780885 0.00041563182436383123
503 0.0014638494192588123 0.0018225554750220785 0.006361535000192507
85 2.267892264198284e-05 -0.0006950781806028899 0.000764121899804706
502 0.0038211796624002905 -0.0006820026440507511 0.004807523696329155
463 -0.009729485239039739 -0.031604328330162156 0.01428303876233213
194 0.023762802292829757 -0.00042396648342247914 0.010814622675778082
163 0.021434603088248814 0.016016443251695236 -0.026856126577463196
431 -0.00010419764431619055 0.013820006416580932 0.014125695650214775
219 -0.00313703489842039 0.0014460154949149757 -0.0012372713346129678
43 0.0010138741248746264 -0.010256403863822027 0.0009980445702875394
221 0.02251379519046468 -0.008790903461673839 0.023151091842733923
215 0.013835603632110656 -0.028058543004098945 0.002504832852837182
250 -5.57644034801634e-05 0.007720244910954107 0.0076667451188971005
559 -0.0033751819301547606 -0.004846438623553928 -0.004923070407789358
103 -0.01949884291295671 -0.012791920572857994 0.0006658607750073971
335 -0.010902920965848112 0.005861127431525692 -0.0036391005062039504
462 -0.007753733102740967 0.00629086924989309 0.0009340987089010787
471 -0.00023206167377644196 0.004277770348979739 0.014068040915046707
29 0.0014789430918673418 0.005515057415178279 0.007085150321736287
77 -0.003021982339947715 -0.00023210320740209953 0.004831187147795571
225 0.002824229472180007 0.0030876722532041105 -0.025663035665796505
179 0.001815489179826941 0.021195155400300068 -0.012496801078079885
461 0.002175287404630395 -0.004638021298778568 0.0012171798850267638
123 -0.001767413105998845 -0.002117807938394187 0.000367126374226927
489 0.01731312873315626 0.020308294313751765 -0.03016684725049502

Bonds

1 4 447 281
2 5 447 446
3 5 447 450
4 5 447 448
5 15 351 173
6 17 286 285
7 13 349 354
8 4 345 349
9 1 345 403
10 5 345 346
11 5 345 340
12 13 47 174
13 14 47 45
14 13 49 47
15 14 49 50
16 13 344 349
17 14 344 341
18 13 347 344
19 13 347 351
20 5 403 401
21 5 403 407
22 5 403 399
23 13 177 49
24 13 177 124
25 1 162 165
26 5 162 160
27 5 162 161
28 5 162 159
29 4 165 347
30 5 165 164
31 5 165 166
32 6 41 285
33 2 41 43
34 5 41 40
35 5 41 42
36 16 174 169
37 13 174 176
38 14 124 127
39 13 176 124
40 14 176 120
41 13 356 351
42 13 354 356
43 15 354 357
44 13 283 281
45 15 283 285
46 13 281 278
47 17 171 173
48 17 359 357
49 18 73 139
50 8 142 143
51 2 142 140
52 5 142 144
53 5 142 141
54 10 140 139
55 9 140 138
56 16 238 241
57 13 238 234
58 13 238 239
59 13 232 233
60 14 232 230
61 4 56 15
62 4 56 177
63 5 56 132
64 5 56 57
65 10 4 1
66 9 4 5
67 8 168 169
68 2 168 43
69 5 168 172
70 5 168 167
71 18 449 39
72 4 361 356
73 5 361 363
74 5 361 360
75 5 361 362
76 13 15 13
77 4 282 280
78 1 282 287
79 5 282 279
80 5 282 483
81 8 532 534
82 2 532 531
83 5 532 530
84 5 532 508
85 13 280 283
86 13 17 15
87 14 17 18
88 8 487 484
89 3 487 490
90 5 487 485
91 5 487 491
92 13 234 232
93 14 234 118
94 6 223 357
95 2 223 379
96 5 223 224
97 5 223 222
98 2 528 531
99 6 528 116
100 5 528 507
101 5 528 529
102 12 490 486
103 11 490 488
104 10 531 527
105 9 531 533
106 18 227 527
107 15 278 116
108 13 277 280
109 14 277 275
110 6 269 116
111 2 269 472
112 5 269 270
113 5 269 271
114 13 276 277
115 13 276 278
116 18 355 193
117 1 113 274
118 5 113 115
119 5 113 158
120 5 113 157
121 4 274 276
122 5 274 117
123 5 274 273
124 10 379 193
125 9 379 378
126 8 430 380
127 2 430 379
128 5 430 428
129 5 430 432
130 16 384 380
131 13 384 388
132 13 388 392
133 14 388 387
134 18 37 370
135 3 492 490
136 7 492 486
137 5 492 493
138 5 492 494
139 10 472 466
140 9 472 474
141 7 294 291
142 3 294 123
143 5 294 297
144 5 294 249
145 14 11 10
146 13 13 11
147 14 13 53
148 16 12 9
149 13 12 14
150 13 12 11
151 13 14 17
152 14 14 16
153 13 112 91
154 18 329 564
155 5 287 289
156 5 287 288
157 5 287 489
158 13 386 384
159 14 386 382
160 8 571 573
161 2 571 568
162 5 571 570
163 5 571 566
164 13 149 25
165 14 149 147
166 6 78 542
167 2 78 79
168 5 78 76
169 5 78 80
170 13 218 425
171 13 218 216
172 4 319 321
173 1 319 510
174 5 319 316
175 5 319 465
176 6 257 72
177 2 257 140
178 5 257 254
179 5 257 258
180 5 510 583
181 5 510 509
182 5 510 511
183 13 321 320
184 13 323 321
185 14 323 324
186 5 545 576
187 5 545 572
188 5 545 546
189 17 156 327
190 4 63 64
191 1 63 545
192 5 63 98
193 5 63 539
194 4 152 322
195 5 152 154
196 5 152 151
197 5 152 150
198 17 464 317
199 13 65 67
200 15 65 542
201 13 64 65
202 13 67 70
203 4 69 67
204 5 69 46
205 5 69 44
206 5 69 48
207 15 70 72
208 13 66 64
209 14 66 100
210 13 68 66
211 13 68 70
212 17 74 72
213 13 322 325
214 13 320 322
215 15 320 317
216 15 325 327
217 13 326 323
218 13 326 325
219 6 569 327
220 2 569 568
221 5 569 567
222 5 569 451
223 4 71 68
224 5 71 75
225 5 71 101
226 13 23 30
227 14 23 21
228 13 22 23
229 14 22 20
230 17 547 542
231 8 504 501
232 2 504 108
233 5 504 506
234 5 504 582
235 18 540 77
236 13 453 575
237 14 453 452
238 16 575 573
239 13 575 577
240 1 204 71
241 5 204 203
242 5 204 202
243 5 204 205
244 13 30 33
245 17 153 155
246 13 33 32
247 14 33 36
248 6 105 95
249 2 105 108
250 5 105 106
251 5 105 104
252 14 216 215
253 8 8 9
254 2 8 4
255 5 8 7
256 5 8 6
257 16 146 143
258 13 146 149
259 13 217 424
260 14 217 220
261 2 3 4
262 6 3 95
263 5 3 99
264 5 3 2
265 13 109 112
266 15 109 155
267 18 97 1
268 15 91 95
269 10 568 564
270 9 568 565
271 16 26 534
272 13 26 22
273 13 26 32
274 14 32 535
275 13 188 216
276 14 188 184
277 10 368 370
278 9 368 366
279 18 96 107
280 10 108 107
281 9 108 19
282 8 367 369
283 2 367 368
284 5 367 365
285 5 367 364
286 13 374 371
287 14 374 376
288 1 383 328
289 5 383 512
290 5 383 381
291 5 383 389
292 13 148 146
293 14 148 145
294 16 371 369
295 13 371 188
296 4 328 326
297 5 328 385
298 5 328 332
299 6 372 155
300 2 372 368
301 5 372 373
302 5 372 375
303 13 255 217
304 14 255 256
305 4 92 112
306 5 92 93
307 5 92 94
308 5 92 38
309 13 24 148
310 14 24 28
311 13 425 374
312 14 425 426
313 6 84 317
314 2 84 86
315 5 84 82
316 5 84 552
317 18 318 559
318 13 470 585
319 14 470 468
320 13 585 516
321 14 585 584
322 13 516 333
323 13 477 479
324 14 477 562
325 13 475 477
326 13 475 478
327 12 521 519
328 11 521 525
329 3 520 521
330 8 520 358
331 5 520 518
332 5 520 524
333 4 515 516
334 4 515 475
335 5 515 513
336 5 515 514
337 13 333 331
338 14 333 272
339 14 478 476
340 16 353 358
341 13 353 350
342 13 353 352
343 16 469 467
344 13 469 470
345 13 469 331
346 14 331 330
347 13 479 482
348 14 479 563
349 13 231 201
350 13 231 445
351 13 201 404
352 14 201 237
353 13 136 135
354 14 136 191
355 4 229 233
356 4 229 231
357 5 229 228
358 5 229 226
359 13 480 478
360 14 480 481
361 14 445 444
362 7 523 519
363 3 523 521
364 5 523 522
365 5 523 526
366 13 185 136
367 13 185 180
368 16 482 484
369 13 482 480
370 13 350 343
371 14 350 517
372 13 233 235
373 14 352 290
374 4 187 186
375 4 187 185
376 5 187 189
377 5 187 183
378 4 581 417
379 4 581 580
380 5 581 460
381 5 581 549
382 6 244 173
383 2 244 247
384 5 244 245
385 5 244 242
386 14 180 179
387 13 343 342
388 14 343 339
389 18 175 243
390 13 456 453
391 14 456 457
392 16 442 394
393 13 442 438
394 13 442 393
395 7 311 313
396 3 311 312
397 5 311 308
398 5 311 314
399 13 235 239
400 14 235 236
401 13 135 130
402 14 135 137
403 8 473 467
404 2 473 472
405 5 473 471
406 5 473 443
407 18 114 466
408 13 348 352
409 14 348 284
410 16 130 129
411 13 130 128
412 7 210 213
413 3 210 211
414 5 210 207
415 5 210 212
416 12 312 313
417 11 312 315
418 13 390 386
419 14 390 391
420 13 342 348
421 13 418 417
422 14 418 419
423 3 310 312
424 8 310 306
425 5 310 309
426 5 310 377
427 12 211 213
428 11 211 214
429 3 208 211
430 8 208 413
431 5 208 206
432 5 208 209
433 16 414 413
434 13 414 415
435 13 414 412
436 13 415 418
437 14 415 416
438 16 304 306
439 13 304 301
440 13 304 305
441 13 334 390
442 13 334 392
443 14 239 240
444 8 131 129
445 3 131 251
446 5 131 134
447 5 131 133
448 14 305 307
449 13 302 305
450 14 302 303
451 12 251 125
452 11 251 248
453 4 337 342
454 4 337 334
455 5 337 338
456 5 337 336
457 13 417 455
458 14 412 411
459 13 299 302
460 13 455 412
461 14 455 454
462 13 301 298
463 14 301 300
464 13 298 299
465 14 298 296
466 13 128 180
467 14 128 126
468 3 121 123
469 8 121 241
470 5 121 119
471 5 121 122
472 13 424 423
473 10 247 243
474 9 247 246
475 13 190 186
476 14 190 192
477 13 404 400
478 14 404 409
479 8 252 461
480 2 252 247
481 5 252 459
482 5 252 253
483 10 86 559
484 9 86 88
485 14 25 27
486 13 397 445
487 14 397 396
488 10 79 77
489 9 79 81
490 16 400 402
491 13 400 397
492 13 186 182
493 13 60 190
494 14 60 61
495 3 544 405
496 7 544 543
497 5 544 548
498 5 544 541
499 8 55 59
500 2 55 79
501 5 55 52
502 5 55 54
503 12 405 543
504 11 405 538
505 16 58 59
506 13 58 60
507 13 58 181
508 13 182 181
509 14 182 178
510 14 181 51
511 8 406 402
512 3 406 405
513 5 406 410
514 5 406 408
515 8 561 558
516 2 561 86
517 5 561 90
518 5 561 537
519 12 197 199
520 11 197 200
521 7 196 199
522 3 196 197
523 5 196 198
524 5 196 194
525 13 498 497
526 14 498 496
527 14 497 495
528 13 580 456
529 13 580 578
530 13 436 439
531 4 434 436
532 4 434 555
533 5 434 431
534 5 434 429
535 14 393 395
536 4 295 299
537 4 295 499
538 5 295 293
539 5 295 458
540 13 560 557
541 14 560 536
542 14 392 335
543 13 439 393
544 14 439 441
545 4 31 30
546 4 31 29
547 5 31 35
548 5 31 34
549 13 554 556
550 14 554 551
551 13 555 553
552 13 555 557
553 5 263 264
554 5 263 259
555 5 263 265
556 13 268 267
557 14 268 266
558 13 111 268
559 13 111 91
560 3 195 197
561 8 195 394
562 5 195 163
563 5 195 398
564 13 499 502
565 13 499 497
566 14 578 579
567 14 557 440
568 13 435 436
569 14 435 433
570 4 262 267
571 1 262 263
572 5 262 261
573 5 262 260
574 16 500 501
575 13 500 498
576 16 556 558
577 13 556 560
578 4 89 111
579 5 89 225
580 5 89 62
581 13 577 578
582 14 577 574
583 13 553 554
584 14 553 550
585 13 423 421
586 14 423 422
587 13 438 435
588 14 438 437
589 13 267 109
590 14 421 420
591 13 503 500
592 14 503 505
593 1 85 89
594 5 85 110
595 5 85 83
596 5 85 87
597 13 502 503
598 14 502 463
599 4 219 424
600 4 219 218
601 5 219 221
602 5 219 427
603 10 43 39
604 9 43 170
605 3 250 251
606 7 250 125
607 5 250 103
608 5 250 102
609 16 462 461
610 13 462 255
611 13 462 421
612 13 29 24
613 13 29 25
614 12 123 291
615 11 123 292

Angles

1 23 281 447 446
2 23 281 447 450
3 23 281 447 448
4 29 446 447 450
5 29 446 447 448
6 29 450 447 448
7 24 347 351 356
8 26 356 351 173
9 26 347 351 173
10 11 41 285 283
11 28 283 285 286
12 12 41 285 286
13 9 345 349 344
14 24 344 349 354
15 9 345 349 354
16 1 403 345 349
17 23 349 345 346
18 23 349 345 340
19 2 403 345 346
20 29 346 345 340
21 2 403 345 340
22 24 49 47 174
23 25 49 47 45
24 25 174 47 45
25 24 177 49 47
26 25 177 49 50
27 25 47 49 50
28 24 347 344 349
29 25 347 344 341
30 25 349 344 341
31 9 165 347 344
32 9 165 347 351
33 24 344 347 351
34 2 345 403 401
35 2 345 403 407
36 2 345 403 399
37 29 401 403 407
38 29 401 403 399
39 29 407 403 399
40 9 56 177 49
41 9 56 177 124
42 24 49 177 124
43 11 244 173 351
44 28 351 173 171
45 12 244 173 171
46 2 165 162 160
47 29 160 162 161
48 29 160 162 159
49 2 165 162 161
50 29 161 162 159
51 2 165 162 159
52 1 162 165 347
53 2 162 165 164
54 2 162 165 166
55 23 347 165 164
56 29 164 165 166
57 23 347 165 166
58 16 43 41 285
59 30 40 41 285
60 30 42 41 285
61 15 43 41 40
62 29 40 41 42
63 15 43 41 42
64 27 47 174 169
65 24 47 174 176
66 27 176 174 169
67 24 177 124 176
68 25 177 124 127
69 25 176 124 127
70 24 174 176 124
71 25 174 176 120
72 25 124 176 120
73 9 361 356 354
74 24 354 356 351
75 9 361 356 351
76 24 349 354 356
77 26 356 354 357
78 26 349 354 357
79 24 280 283 281
80 26 281 283 285
81 26 280 283 285
82 9 447 281 283
83 24 283 281 278
84 9 447 281 278
85 14 168 169 174
86 18 140 139 73
87 17 140 142 143
88 15 140 142 144
89 15 140 142 141
90 32 144 142 143
91 29 144 142 141
92 32 141 142 143
93 3 257 140 142
94 5 257 140 139
95 4 257 140 138
96 4 142 140 138
97 33 138 140 139
98 5 142 140 139
99 18 43 39 449
100 11 223 357 354
101 28 354 357 359
102 12 223 357 359
103 27 234 238 241
104 27 239 238 241
105 24 234 238 239
106 24 234 232 233
107 25 234 232 230
108 25 233 232 230
109 22 15 56 177
110 23 15 56 132
111 23 15 56 57
112 23 177 56 132
113 29 132 56 57
114 23 177 56 57
115 3 3 4 8
116 5 3 4 1
117 4 3 4 5
118 4 8 4 5
119 33 5 4 1
120 5 8 4 1
121 17 43 168 169
122 15 43 168 172
123 15 43 168 167
124 32 172 168 169
125 29 172 168 167
126 32 167 168 169
127 23 356 361 363
128 23 356 361 360
129 23 356 361 362
130 29 363 361 360
131 29 363 361 362
132 29 360 361 362
133 9 56 15 17
134 24 17 15 13
135 9 56 15 13
136 14 142 143 146
137 1 287 282 280
138 23 280 282 279
139 23 280 282 483
140 2 287 282 279
141 29 279 282 483
142 2 287 282 483
143 17 531 532 534
144 15 531 532 530
145 15 531 532 508
146 32 530 532 534
147 29 530 532 508
148 32 508 532 534
149 9 282 280 277
150 24 277 280 283
151 9 282 280 283
152 24 14 17 15
153 25 14 17 18
154 25 15 17 18
155 21 490 487 484
156 32 485 487 484
157 32 491 487 484
158 19 490 487 485
159 29 485 487 491
160 19 490 487 491
161 24 238 234 232
162 25 238 234 118
163 25 232 234 118
164 16 379 223 357
165 30 224 223 357
166 30 222 223 357
167 15 379 223 224
168 29 224 223 222
169 15 379 223 222
170 16 531 528 116
171 30 507 528 116
172 30 529 528 116
173 15 531 528 507
174 29 507 528 529
175 15 531 528 529
176 6 487 490 492
177 8 487 490 486
178 7 487 490 488
179 7 492 490 488
180 34 488 490 486
181 8 492 490 486
182 3 528 531 532
183 5 528 531 527
184 4 528 531 533
185 4 532 531 533
186 33 533 531 527
187 5 532 531 527
188 18 531 527 227
189 13 294 291 123
190 24 276 278 281
191 26 276 278 116
192 26 281 278 116
193 24 276 277 280
194 25 276 277 275
195 25 280 277 275
196 11 528 116 278
197 11 269 116 278
198 10 528 116 269
199 16 472 269 116
200 30 270 269 116
201 30 271 269 116
202 15 472 269 270
203 29 270 269 271
204 15 472 269 271
205 9 274 276 277
206 9 274 276 278
207 24 277 276 278
208 2 274 113 115
209 29 115 113 158
210 29 115 113 157
211 2 274 113 158
212 29 158 113 157
213 2 274 113 157
214 1 113 274 276
215 2 113 274 117
216 2 113 274 273
217 23 276 274 117
218 29 117 274 273
219 23 276 274 273
220 18 379 193 355
221 3 223 379 430
222 5 223 379 193
223 4 223 379 378
224 4 430 379 378
225 33 378 379 193
226 5 430 379 193
227 17 379 430 380
228 15 379 430 428
229 15 379 430 432
230 32 428 430 380
231 29 428 430 432
232 32 432 430 380
233 14 430 380 384
234 27 386 384 380
235 24 386 384 388
236 27 388 384 380
237 24 384 388 392
238 25 384 388 387
239 25 392 388 387
240 18 368 370 37
241 20 490 492 486
242 19 490 492 493
243 19 490 492 494
244 31 493 492 486
245 29 493 492 494
246 31 494 492 486
247 13 492 486 490
248 3 269 472 473
249 5 269 472 466
250 4 269 472 474
251 4 473 472 474
252 33 474 472 466
253 5 473 472 466
254 31 297 294 291
255 19 123 294 297
256 29 297 294 249
257 31 249 294 291
258 19 123 294 249
259 20 123 294 291
260 13 250 125 251
261 24 12 11 13
262 25 12 11 10
263 25 13 11 10
264 14 121 241 238
265 24 15 13 11
266 25 15 13 53
267 25 11 13 53
268 27 14 12 9
269 27 11 12 9
270 24 14 12 11
271 24 12 14 17
272 25 12 14 16
273 25 17 14 16
274 14 8 9 12
275 9 92 112 109
276 24 109 112 91
277 9 92 112 91
278 2 282 287 289
279 2 282 287 288
280 2 282 287 489
281 29 289 287 288
282 29 289 287 489
283 29 288 287 489
284 24 390 386 384
285 25 390 386 382
286 25 384 386 382
287 11 372 155 109
288 28 109 155 153
289 12 372 155 153
290 17 568 571 573
291 15 568 571 570
292 15 568 571 566
293 32 570 571 573
294 29 570 571 566
295 32 566 571 573
296 24 146 149 25
297 25 146 149 147
298 25 25 149 147
299 16 79 78 542
300 30 76 78 542
301 30 80 78 542
302 15 79 78 76
303 29 76 78 80
304 15 79 78 80
305 9 219 218 425
306 9 219 218 216
307 24 425 218 216
308 1 510 319 321
309 23 321 319 316
310 23 321 319 465
311 2 510 319 316
312 29 316 319 465
313 2 510 319 465
314 16 140 257 72
315 30 254 257 72
316 30 258 257 72
317 15 140 257 254
318 29 254 257 258
319 15 140 257 258
320 2 319 510 583
321 2 319 510 509
322 2 319 510 511
323 29 583 510 509
324 29 583 510 511
325 29 509 510 511
326 9 319 321 323
327 24 323 321 320
328 9 319 321 320
329 24 326 323 321
330 25 326 323 324
331 25 321 323 324
332 2 63 545 576
333 2 63 545 572
334 2 63 545 546
335 29 576 545 572
336 29 576 545 546
337 29 572 545 546
338 1 545 63 64
339 23 64 63 98
340 23 64 63 539
341 2 545 63 98
342 29 98 63 539
343 2 545 63 539
344 23 322 152 154
345 23 322 152 151
346 23 322 152 150
347 29 154 152 151
348 29 154 152 150
349 29 151 152 150
350 24 64 65 67
351 26 67 65 542
352 26 64 65 542
353 11 78 542 65
354 28 65 542 547
355 12 78 542 547
356 9 63 64 66
357 24 66 64 65
358 9 63 64 65
359 9 69 67 65
360 24 65 67 70
361 9 69 67 70
362 23 67 69 46
363 23 67 69 44
364 23 67 69 48
365 29 46 69 44
366 29 46 69 48
367 29 44 69 48
368 24 68 70 67
369 26 68 70 72
370 26 67 70 72
371 24 68 66 64
372 25 68 66 100
373 25 64 66 100
374 11 257 72 70
375 28 70 72 74
376 12 257 72 74
377 9 71 68 66
378 9 71 68 70
379 24 66 68 70
380 11 569 327 325
381 28 325 327 156
382 12 569 327 156
383 9 152 322 320
384 24 320 322 325
385 9 152 322 325
386 24 321 320 322
387 26 322 320 317
388 26 321 320 317
389 24 326 325 322
390 26 326 325 327
391 26 322 325 327
392 11 84 317 320
393 28 320 317 464
394 12 84 317 464
395 9 328 326 323
396 9 328 326 325
397 24 323 326 325
398 16 568 569 327
399 30 567 569 327
400 30 451 569 327
401 15 568 569 567
402 29 567 569 451
403 15 568 569 451
404 1 204 71 68
405 2 204 71 75
406 2 204 71 101
407 23 68 71 75
408 29 75 71 101
409 23 68 71 101
410 24 22 23 30
411 25 22 23 21
412 25 30 23 21
413 24 26 22 23
414 25 26 22 20
415 25 23 22 20
416 18 568 564 329
417 17 108 504 501
418 15 108 504 506
419 15 108 504 582
420 32 506 504 501
421 29 506 504 582
422 32 582 504 501
423 24 456 453 575
424 25 456 453 452
425 25 575 453 452
426 27 453 575 573
427 24 453 575 577
428 27 577 575 573
429 2 71 204 203
430 29 203 204 202
431 29 203 204 205
432 2 71 204 202
433 29 202 204 205
434 2 71 204 205
435 14 532 534 26
436 9 31 30 23
437 24 23 30 33
438 9 31 30 33
439 24 30 33 32
440 25 30 33 36
441 25 32 33 36
442 14 571 573 575
443 16 108 105 95
444 30 106 105 95
445 30 104 105 95
446 15 108 105 106
447 29 106 105 104
448 15 108 105 104
449 24 218 216 188
450 25 218 216 215
451 25 188 216 215
452 17 4 8 9
453 15 4 8 7
454 15 4 8 6
455 32 7 8 9
456 29 7 8 6
457 32 6 8 9
458 27 148 146 143
459 24 148 146 149
460 27 149 146 143
461 24 255 217 424
462 25 255 217 220
463 25 424 217 220
464 16 4 3 95
465 30 99 3 95
466 30 2 3 95
467 15 4 3 99
468 29 99 3 2
469 15 4 3 2
470 24 267 109 112
471 26 267 109 155
472 26 112 109 155
473 24 111 91 112
474 26 111 91 95
475 26 112 91 95
476 3 569 568 571
477 5 569 568 564
478 4 569 568 565
479 4 571 568 565
480 33 565 568 564
481 5 571 568 564
482 27 22 26 534
483 27 32 26 534
484 24 22 26 32
485 24 26 32 33
486 25 26 32 535
487 25 33 32 535
488 24 371 188 216
489 25 371 188 184
490 25 216 188 184
491 11 3 95 91
492 11 105 95 91
493 10 3 95 105
494 3 372 368 367
495 5 372 368 370
496 4 372 368 366
497 4 367 368 366
498 33 366 368 370
499 5 367 368 370
500 3 105 108 504
501 5 105 108 107
502 4 105 108 19
503 4 504 108 19
504 33 19 108 107
505 5 504 108 107
506 14 367 369 371
507 18 108 107 96
508 17 368 367 369
509 15 368 367 365
510 15 368 367 364
511 32 365 367 369
512 29 365 367 364
513 32 364 367 369
514 24 425 374 371
515 25 425 374 376
516 25 371 374 376
517 2 328 383 512
518 29 512 383 381
519 29 512 383 389
520 2 328 383 381
521 29 381 383 389
522 2 328 383 389
523 24 24 148 146
524 25 24 148 145
525 25 146 148 145
526 27 374 371 369
527 24 374 371 188
528 27 188 371 369
529 1 383 328 326
530 2 383 328 385
531 2 383 328 332
532 23 326 328 385
533 29 385 328 332
534 23 326 328 332
535 16 368 372 155
536 30 373 372 155
537 30 375 372 155
538 15 368 372 373
539 29 373 372 375
540 15 368 372 375
541 24 462 255 217
542 25 462 255 256
543 25 217 255 256
544 23 112 92 93
545 23 112 92 94
546 23 112 92 38
547 29 93 92 94
548 29 93 92 38
549 29 94 92 38
550 18 4 1 97
551 24 29 24 148
552 25 29 24 28
553 25 148 24 28
554 24 218 425 374
555 25 218 425 426
556 25 374 425 426
557 16 86 84 317
558 30 82 84 317
559 30 552 84 317
560 15 86 84 82
561 29 82 84 552
562 15 86 84 552
563 24 469 470 585
564 25 469 470 468
565 25 585 470 468
566 24 470 585 516
567 25 470 585 584
568 25 516 585 584
569 9 515 516 585
570 24 585 516 333
571 9 515 516 333
572 24 475 477 479
573 25 475 477 562
574 25 479 477 562
575 9 515 475 477
576 9 515 475 478
577 24 477 475 478
578 13 523 519 521
579 6 523 521 520
580 8 523 521 519
581 7 523 521 525
582 7 520 521 525
583 34 525 521 519
584 8 520 521 519
585 21 521 520 358
586 19 521 520 518
587 19 521 520 524
588 32 518 520 358
589 29 518 520 524
590 32 524 520 358
591 14 520 358 353
592 22 516 515 475
593 23 516 515 513
594 23 516 515 514
595 23 475 515 513
596 29 513 515 514
597 23 475 515 514
598 24 516 333 331
599 25 516 333 272
600 25 331 333 272
601 24 475 478 480
602 25 475 478 476
603 25 480 478 476
604 27 350 353 358
605 27 352 353 358
606 24 350 353 352
607 27 470 469 467
608 27 331 469 467
609 24 470 469 331
610 24 469 331 333
611 25 469 331 330
612 25 333 331 330
613 24 477 479 482
614 25 477 479 563
615 25 482 479 563
616 9 229 231 201
617 9 229 231 445
618 24 201 231 445
619 24 231 201 404
620 25 231 201 237
621 25 404 201 237
622 24 185 136 135
623 25 185 136 191
624 25 135 136 191
625 22 233 229 231
626 23 233 229 228
627 23 233 229 226
628 23 231 229 228
629 29 228 229 226
630 23 231 229 226
631 24 482 480 478
632 25 482 480 481
633 25 478 480 481
634 24 231 445 397
635 25 231 445 444
636 25 397 445 444
637 31 522 523 519
638 19 521 523 522
639 29 522 523 526
640 31 526 523 519
641 19 521 523 526
642 20 521 523 519
643 9 187 185 136
644 9 187 185 180
645 24 136 185 180
646 27 479 482 484
647 24 479 482 480
648 27 480 482 484
649 24 353 350 343
650 25 353 350 517
651 25 343 350 517
652 9 229 233 232
653 24 232 233 235
654 9 229 233 235
655 24 353 352 348
656 25 353 352 290
657 25 348 352 290
658 22 186 187 185
659 23 186 187 189
660 23 186 187 183
661 23 185 187 189
662 29 189 187 183
663 23 185 187 183
664 14 473 467 469
665 22 417 581 580
666 23 417 581 460
667 23 417 581 549
668 23 580 581 460
669 29 460 581 549
670 23 580 581 549
671 16 247 244 173
672 30 245 244 173
673 30 242 244 173
674 15 247 244 245
675 29 245 244 242
676 15 247 244 242
677 24 185 180 128
678 25 185 180 179
679 25 128 180 179
680 24 350 343 342
681 25 350 343 339
682 25 342 343 339
683 14 195 394 442
684 24 580 456 453
685 25 580 456 457
686 25 453 456 457
687 27 438 442 394
688 27 393 442 394
689 24 438 442 393
690 31 308 311 313
691 19 312 311 308
692 29 308 311 314
693 31 314 311 313
694 19 312 311 314
695 20 312 311 313
696 24 233 235 239
697 25 233 235 236
698 25 239 235 236
699 14 487 484 482
700 24 136 135 130
701 25 136 135 137
702 25 130 135 137
703 17 472 473 467
704 15 472 473 471
705 15 472 473 443
706 32 471 473 467
707 29 471 473 443
708 32 443 473 467
709 24 342 348 352
710 25 342 348 284
711 25 352 348 284
712 13 311 313 312
713 27 135 130 129
714 24 135 130 128
715 27 128 130 129
716 31 207 210 213
717 19 211 210 207
718 29 207 210 212
719 31 212 210 213
720 19 211 210 212
721 20 211 210 213
722 6 311 312 310
723 8 311 312 313
724 7 311 312 315
725 7 310 312 315
726 34 315 312 313
727 8 310 312 313
728 24 334 390 386
729 25 334 390 391
730 25 386 390 391
731 9 337 342 343
732 24 343 342 348
733 9 337 342 348
734 24 415 418 417
735 25 415 418 419
736 25 417 418 419
737 13 210 213 211
738 21 312 310 306
739 19 312 310 309
740 19 312 310 377
741 32 309 310 306
742 29 309 310 377
743 32 377 310 306
744 6 210 211 208
745 8 210 211 213
746 7 210 211 214
747 7 208 211 214
748 34 214 211 213
749 8 208 211 213
750 21 211 208 413
751 19 211 208 206
752 19 211 208 209
753 32 206 208 413
754 29 206 208 209
755 32 209 208 413
756 27 415 414 413
757 27 412 414 413
758 24 415 414 412
759 24 414 415 418
760 25 414 415 416
761 25 418 415 416
762 14 208 413 414
763 14 310 306 304
764 27 301 304 306
765 27 305 304 306
766 24 301 304 305
767 9 337 334 390
768 9 337 334 392
769 24 390 334 392
770 24 238 239 235
771 25 238 239 240
772 25 235 239 240
773 21 251 131 129
774 32 134 131 129
775 32 133 131 129
776 19 251 131 134
777 29 134 131 133
778 19 251 131 133
779 24 304 305 302
780 25 304 305 307
781 25 302 305 307
782 24 299 302 305
783 25 299 302 303
784 25 305 302 303
785 6 131 251 250
786 8 131 251 125
787 7 131 251 248
788 7 250 251 248
789 34 248 251 125
790 8 250 251 125
791 22 342 337 334
792 23 342 337 338
793 23 342 337 336
794 23 334 337 338
795 29 338 337 336
796 23 334 337 336
797 9 581 417 418
798 24 418 417 455
799 9 581 417 455
800 24 414 412 455
801 25 414 412 411
802 25 455 412 411
803 9 295 299 298
804 24 298 299 302
805 9 295 299 302
806 24 417 455 412
807 25 417 455 454
808 25 412 455 454
809 24 304 301 298
810 25 304 301 300
811 25 298 301 300
812 24 301 298 299
813 25 301 298 296
814 25 299 298 296
815 18 472 466 114
816 14 131 129 130
817 24 130 128 180
818 25 130 128 126
819 25 180 128 126
820 21 123 121 241
821 19 123 121 119
822 19 123 121 122
823 32 119 121 241
824 29 119 121 122
825 32 122 121 241
826 9 219 424 217
827 24 217 424 423
828 9 219 424 423
829 3 244 247 252
830 5 244 247 243
831 4 244 247 246
832 4 252 247 246
833 33 246 247 243
834 5 252 247 243
835 18 247 243 175
836 24 60 190 186
837 25 60 190 192
838 25 186 190 192
839 24 201 404 400
840 25 201 404 409
841 25 400 404 409
842 17 247 252 461
843 15 247 252 459
844 15 247 252 253
845 32 459 252 461
846 29 459 252 253
847 32 253 252 461
848 3 84 86 561
849 5 84 86 559
850 4 84 86 88
851 4 561 86 88
852 33 88 86 559
853 5 561 86 559
854 24 29 25 149
855 25 29 25 27
856 25 149 25 27
857 24 400 397 445
858 25 400 397 396
859 25 445 397 396
860 3 78 79 55
861 5 78 79 77
862 4 78 79 81
863 4 55 79 81
864 33 81 79 77
865 5 55 79 77
866 27 404 400 402
867 24 404 400 397
868 27 397 400 402
869 9 187 186 190
870 24 190 186 182
871 9 187 186 182
872 24 58 60 190
873 25 58 60 61
874 25 190 60 61
875 13 544 543 405
876 20 405 544 543
877 19 405 544 548
878 19 405 544 541
879 31 548 544 543
880 29 548 544 541
881 31 541 544 543
882 17 79 55 59
883 15 79 55 52
884 15 79 55 54
885 32 52 55 59
886 29 52 55 54
887 32 54 55 59
888 6 406 405 544
889 8 406 405 543
890 7 406 405 538
891 7 544 405 538
892 34 538 405 543
893 8 544 405 543
894 27 60 58 59
895 27 181 58 59
896 24 60 58 181
897 14 55 59 58
898 24 186 182 181
899 25 186 182 178
900 25 181 182 178
901 24 58 181 182
902 25 58 181 51
903 25 182 181 51
904 21 405 406 402
905 32 410 406 402
906 32 408 406 402
907 19 405 406 410
908 29 410 406 408
909 19 405 406 408
910 14 406 402 400
911 17 86 561 558
912 15 86 561 90
913 15 86 561 537
914 32 90 561 558
915 29 90 561 537
916 32 537 561 558
917 6 196 197 195
918 8 196 197 199
919 7 196 197 200
920 7 195 197 200
921 34 200 197 199
922 8 195 197 199
923 14 561 558 556
924 13 196 199 197
925 31 198 196 199
926 19 197 196 198
927 29 198 196 194
928 31 194 196 199
929 19 197 196 194
930 20 197 196 199
931 24 500 498 497
932 25 500 498 496
933 25 497 498 496
934 24 499 497 498
935 25 499 497 495
936 25 498 497 495
937 9 581 580 456
938 9 581 580 578
939 24 456 580 578
940 9 434 436 435
941 24 435 436 439
942 9 434 436 439
943 22 436 434 555
944 23 436 434 431
945 23 436 434 429
946 23 555 434 431
947 29 431 434 429
948 23 555 434 429
949 24 442 393 439
950 25 442 393 395
951 25 439 393 395
952 22 299 295 499
953 23 299 295 293
954 23 299 295 458
955 23 499 295 293
956 29 293 295 458
957 23 499 295 458
958 24 556 560 557
959 25 556 560 536
960 25 557 560 536
961 24 334 392 388
962 25 334 392 335
963 25 388 392 335
964 14 504 501 500
965 24 436 439 393
966 25 436 439 441
967 25 393 439 441
968 22 30 31 29
969 23 30 31 35
970 23 30 31 34
971 23 29 31 35
972 29 35 31 34
973 23 29 31 34
974 24 553 554 556
975 25 553 554 551
976 25 556 554 551
977 9 434 555 553
978 9 434 555 557
979 24 553 555 557
980 2 262 263 264
981 2 262 263 259
982 2 262 263 265
983 29 264 263 259
984 29 264 263 265
985 29 259 263 265
986 24 111 268 267
987 25 111 268 266
988 25 267 268 266
989 9 89 111 268
990 9 89 111 91
991 24 268 111 91
992 21 197 195 394
993 19 197 195 163
994 19 197 195 398
995 32 163 195 394
996 29 163 195 398
997 32 398 195 394
998 9 295 499 502
999 9 295 499 497
1000 24 502 499 497
1001 24 580 578 577
1002 25 580 578 579
1003 25 577 578 579
1004 24 555 557 560
1005 25 555 557 440
1006 25 560 557 440
1007 24 438 435 436
1008 25 438 435 433
1009 25 436 435 433
1010 1 263 262 267
1011 23 267 262 261
1012 23 267 262 260
1013 2 263 262 261
1014 29 261 262 260
1015 2 263 262 260
1016 27 503 500 501
1017 24 503 500 498
1018 27 498 500 501
1019 27 554 556 558
1020 24 554 556 560
1021 27 560 556 558
1022 1 85 89 111
1023 2 85 89 225
1024 2 85 89 62
1025 23 111 89 225
1026 29 225 89 62
1027 23 111 89 62
1028 24 575 577 578
1029 25 575 577 574
1030 25 578 577 574
1031 24 555 553 554
1032 25 555 553 550
1033 25 554 553 550
1034 24 424 423 421
1035 25 424 423 422
1036 25 421 423 422
1037 24 442 438 435
1038 25 442 438 437
1039 25 435 438 437
1040 9 262 267 268
1041 24 268 267 109
1042 9 262 267 109
1043 24 462 421 423
1044 25 462 421 420
1045 25 423 421 420
1046 24 502 503 500
1047 25 502 503 505
1048 25 500 503 505
1049 2 89 85 110
1050 29 110 85 83
1051 29 110 85 87
1052 2 89 85 83
1053 29 83 85 87
1054 2 89 85 87
1055 24 499 502 503
1056 25 499 502 463
1057 25 503 502 463
1058 22 424 219 218
1059 23 424 219 221
1060 23 424 219 427
1061 23 218 219 221
1062 29 221 219 427
1063 23 218 219 427
1064 3 41 43 168
1065 5 41 43 39
1066 4 41 43 170
1067 4 168 43 170
1068 33 170 43 39
1069 5 168 43 39
1070 20 251 250 125
1071 19 251 250 103
1072 19 251 250 102
1073 31 103 250 125
1074 29 103 250 102
1075 31 102 250 125
1076 18 86 559 318
1077 27 255 462 461
1078 27 421 462 461
1079 24 255 462 421
1080 9 31 29 24
1081 9 31 29 25
1082 24 24 29 25
1083 18 79 77 540
1084 14 252 461 462
1085 6 294 123 121
1086 8 294 123 291
1087 7 294 123 292
1088 7 121 123 292
1089 34 292 123 291
1090 8 121 123 291

Dihedrals

1 26 347 351 356 354
2 30 356 351 173 171
3 30 347 351 173 171
4 15 41 285 283 281
5 31 283 285 41 40
6 31 283 285 41 42
7 15 41 285 283 280
8 10 345 349 344 347
9 25 344 349 345 346
10 25 344 349 345 340
11 26 344 349 354 356
12 11 345 349 344 341
13 27 354 349 344 341
14 25 354 349 345 346
15 25 354 349 345 340
16 10 345 349 354 356
17 12 345 349 354 357
18 28 344 349 354 357
19 1 403 345 349 344
20 23 349 345 403 401
21 23 349 345 403 407
22 23 349 345 403 399
23 1 403 345 349 354
24 33 346 345 403 401
25 33 346 345 403 407
26 33 346 345 403 399
27 33 340 345 403 401
28 33 340 345 403 407
29 33 340 345 403 399
30 29 49 47 174 169
31 26 49 47 174 176
32 27 174 47 49 50
33 45 45 47 174 169
34 26 177 49 47 174
35 27 177 49 47 45
36 44 50 49 47 45
37 26 47 49 177 124
38 26 347 344 349 354
39 26 349 344 347 351
40 10 165 347 344 349
41 11 165 347 344 341
42 10 165 347 351 356
43 25 344 347 165 164
44 25 351 347 165 164
45 25 344 347 165 166
46 25 351 347 165 166
47 26 344 347 351 356
48 27 351 347 344 341
49 12 165 347 351 173
50 28 344 347 351 173
51 10 56 177 49 47
52 11 56 177 49 50
53 10 56 177 124 176
54 11 56 177 124 127
55 25 49 177 56 132
56 25 124 177 56 132
57 25 49 177 56 57
58 25 124 177 56 57
59 26 49 177 124 176
60 27 49 177 124 127
61 27 124 177 49 50
62 15 244 173 351 356
63 31 351 173 244 245
64 31 351 173 244 242
65 15 244 173 351 347
66 33 160 162 165 164
67 33 160 162 165 166
68 33 161 162 165 164
69 33 161 162 165 166
70 33 159 162 165 164
71 33 159 162 165 166
72 1 162 165 347 344
73 1 162 165 347 351
74 23 347 165 162 160
75 23 347 165 162 161
76 23 347 165 162 159
77 18 43 41 285 283
78 46 285 41 43 39
79 19 43 41 285 286
80 38 40 41 285 286
81 38 42 41 285 286
82 35 40 41 43 39
83 34 40 41 43 170
84 35 42 41 43 39
85 34 42 41 43 170
86 26 47 174 176 124
87 27 47 174 176 120
88 27 176 174 47 45
89 26 177 124 176 174
90 27 177 124 176 120
91 27 174 176 124 127
92 45 120 176 174 169
93 44 120 176 124 127
94 29 124 176 174 169
95 10 361 356 351 347
96 10 361 356 354 349
97 25 354 356 361 363
98 25 354 356 361 360
99 25 354 356 361 362
100 25 351 356 361 363
101 25 351 356 361 360
102 25 351 356 361 362
103 12 361 356 351 173
104 28 354 356 351 173
105 12 361 356 354 357
106 28 351 356 354 357
107 26 349 354 356 351
108 30 356 354 357 359
109 30 349 354 357 359
110 26 280 283 281 278
111 30 281 283 285 286
112 30 280 283 285 286
113 10 447 281 278 276
114 10 447 281 283 280
115 25 283 281 447 446
116 25 283 281 447 450
117 25 283 281 447 448
118 25 278 281 447 446
119 25 278 281 447 450
120 25 278 281 447 448
121 12 447 281 283 285
122 28 278 281 283 285
123 12 447 281 278 116
124 28 283 281 278 116
125 17 168 169 174 47
126 17 168 169 174 176
127 32 174 169 168 167
128 32 174 169 168 172
129 20 140 142 143 146
130 34 144 142 140 138
131 34 141 142 140 138
132 48 143 142 140 139
133 35 144 142 140 139
134 35 141 142 140 139
135 3 142 140 257 72
136 39 138 140 257 72
137 4 257 140 142 143
138 2 257 140 142 144
139 2 257 140 142 141
140 5 257 140 139 73
141 2 142 140 257 254
142 2 142 140 257 258
143 40 138 140 142 143
144 41 138 140 139 73
145 5 142 140 139 73
146 15 223 357 354 356
147 31 354 357 223 224
148 31 354 357 223 222
149 15 223 357 354 349
150 26 234 238 239 235
151 27 234 238 239 240
152 27 239 238 234 118
153 26 234 232 233 235
154 27 233 232 234 118
155 24 177 56 15 17
156 24 15 56 177 49
157 24 15 56 177 124
158 24 177 56 15 13
159 4 3 4 8 9
160 2 3 4 8 7
161 2 3 4 8 6
162 40 5 4 8 9
163 3 8 4 3 95
164 39 5 4 3 95
165 5 8 4 1 97
166 41 5 4 1 97
167 2 8 4 3 2
168 5 3 4 1 97
169 2 8 4 3 99
170 20 43 168 169 174
171 34 172 168 43 170
172 34 167 168 43 170
173 48 169 168 43 39
174 35 172 168 43 39
175 35 167 168 43 39
176 10 56 15 17 14
177 25 17 15 56 132
178 25 17 15 56 57
179 26 17 15 13 11
180 27 17 15 13 53
181 11 56 15 17 18
182 27 13 15 17 18
183 25 13 15 56 132
184 25 13 15 56 57
185 11 56 15 13 53
186 10 56 15 13 11
187 17 142 143 146 148
188 17 142 143 146 149
189 32 146 143 142 141
190 32 146 143 142 144
191 1 287 282 280 277
192 23 280 282 287 289
193 23 280 282 287 288
194 23 280 282 287 489
195 1 287 282 280 283
196 33 279 282 287 289
197 33 279 282 287 288
198 33 279 282 287 489
199 33 483 282 287 289
200 33 483 282 287 288
201 33 483 282 287 489
202 20 531 532 534 26
203 34 530 532 531 533
204 34 508 532 531 533
205 48 534 532 531 527
206 35 530 532 531 527
207 35 508 532 531 527
208 10 282 280 277 276
209 25 277 280 282 279
210 25 277 280 282 483
211 26 277 280 283 281
212 11 282 280 277 275
213 27 283 280 277 275
214 25 283 280 282 279
215 25 283 280 282 483
216 10 282 280 283 281
217 12 282 280 283 285
218 28 277 280 283 285
219 26 14 17 15 13
220 27 15 17 14 16
221 21 490 487 484 482
222 37 485 487 490 486
223 36 485 487 490 488
224 37 491 487 490 486
225 36 491 487 490 488
226 29 232 234 238 241
227 45 118 234 238 241
228 26 238 234 232 233
229 27 238 234 232 230
230 44 118 234 232 230
231 26 232 234 238 239
232 18 379 223 357 354
233 46 357 223 379 193
234 19 379 223 357 359
235 38 224 223 357 359
236 38 222 223 357 359
237 35 224 223 379 193
238 34 224 223 379 378
239 35 222 223 379 193
240 34 222 223 379 378
241 18 531 528 116 278
242 46 116 528 531 527
243 35 507 528 531 527
244 34 507 528 531 533
245 35 529 528 531 527
246 34 529 528 531 533
247 8 492 490 487 484
248 47 486 490 487 484
249 43 488 490 487 484
250 7 487 490 492 486
251 6 487 490 492 493
252 6 487 490 492 494
253 9 487 490 486 492
254 6 492 490 487 485
255 6 492 490 487 491
256 42 488 490 492 486
257 4 528 531 532 534
258 2 528 531 532 530
259 2 528 531 532 508
260 40 533 531 532 534
261 3 532 531 528 116
262 39 533 531 528 116
263 5 532 531 527 227
264 41 533 531 527 227
265 2 532 531 528 529
266 5 528 531 527 227
267 2 532 531 528 507
268 16 294 291 123 292
269 22 123 291 294 297
270 22 123 291 294 249
271 26 276 278 281 283
272 26 276 277 280 283
273 26 280 277 276 278
274 15 528 116 278 276
275 15 269 116 278 276
276 15 528 116 278 281
277 15 269 116 278 281
278 31 278 116 528 507
279 31 278 116 528 529
280 31 278 116 269 270
281 31 278 116 269 271
282 13 528 116 269 472
283 14 528 116 269 270
284 14 528 116 269 271
285 14 269 116 528 507
286 14 269 116 528 529
287 13 269 116 528 531
288 18 472 269 116 278
289 46 116 269 472 466
290 35 270 269 472 466
291 34 270 269 472 474
292 35 271 269 472 466
293 34 271 269 472 474
294 10 274 276 277 280
295 11 274 276 277 275
296 10 274 276 278 281
297 25 277 276 274 117
298 25 278 276 274 117
299 25 277 276 274 273
300 25 278 276 274 273
301 26 277 276 278 281
302 27 278 276 277 275
303 28 277 276 278 116
304 12 274 276 278 116
305 33 115 113 274 117
306 33 115 113 274 273
307 33 158 113 274 117
308 33 158 113 274 273
309 33 157 113 274 117
310 33 157 113 274 273
311 1 113 274 276 277
312 1 113 274 276 278
313 23 276 274 113 115
314 23 276 274 113 158
315 23 276 274 113 157
316 3 430 379 223 357
317 39 378 379 223 357
318 4 223 379 430 380
319 2 223 379 430 428
320 2 223 379 430 432
321 5 223 379 193 355
322 2 430 379 223 224
323 2 430 379 223 222
324 40 378 379 430 380
325 41 378 379 193 355
326 5 430 379 193 355
327 20 379 430 380 384
328 34 428 430 379 378
329 34 432 430 379 378
330 48 380 430 379 193
331 35 428 430 379 193
332 35 432 430 379 193
333 17 430 380 384 386
334 17 430 380 384 388
335 32 384 380 430 432
336 32 384 380 430 428
337 26 386 384 388 392
338 27 386 384 388 387
339 27 388 384 386 382
340 27 384 388 392 335
341 45 387 388 384 380
342 44 387 388 392 335
343 29 392 388 384 380
344 36 493 492 490 488
345 36 494 492 490 488
346 37 493 492 490 486
347 37 494 492 490 486
348 22 490 486 492 493
349 22 490 486 492 494
350 16 492 486 490 488
351 3 473 472 269 116
352 39 474 472 269 116
353 4 269 472 473 467
354 2 269 472 473 471
355 2 269 472 473 443
356 5 269 472 466 114
357 2 473 472 269 270
358 2 473 472 269 271
359 40 474 472 473 467
360 41 474 472 466 114
361 5 473 472 466 114
362 37 297 294 123 291
363 36 297 294 123 292
364 37 249 294 123 291
365 36 249 294 123 292
366 22 251 125 250 103
367 22 251 125 250 102
368 16 250 125 251 248
369 29 13 11 12 9
370 45 10 11 12 9
371 26 12 11 13 15
372 27 12 11 13 53
373 17 121 241 238 234
374 17 121 241 238 239
375 32 238 241 121 119
376 32 238 241 121 122
377 27 15 13 11 10
378 44 53 13 11 10
379 26 14 12 11 13
380 27 14 12 11 10
381 27 11 12 14 16
382 29 17 14 12 9
383 45 16 14 12 9
384 26 12 14 17 15
385 27 12 14 17 18
386 44 16 14 17 18
387 26 17 14 12 11
388 17 8 9 12 14
389 17 8 9 12 11
390 32 12 9 8 6
391 32 12 9 8 7
392 10 92 112 91 111
393 10 92 112 109 267
394 25 109 112 92 93
395 25 109 112 92 94
396 25 109 112 92 38
397 25 91 112 92 93
398 25 91 112 92 94
399 25 91 112 92 38
400 12 92 112 91 95
401 28 109 112 91 95
402 12 92 112 109 155
403 28 91 112 109 155
404 29 390 386 384 380
405 26 390 386 384 388
406 27 384 386 390 391
407 45 382 386 384 380
408 15 372 155 109 267
409 31 109 155 372 373
410 31 109 155 372 375
411 15 372 155 109 112
412 20 568 571 573 575
413 34 570 571 568 565
414 34 566 571 568 565
415 48 573 571 568 564
416 35 570 571 568 564
417 35 566 571 568 564
418 27 146 149 25 27
419 45 147 149 146 143
420 44 147 149 25 27
421 29 25 149 146 143
422 18 79 78 542 65
423 46 542 78 79 77
424 19 79 78 542 547
425 38 76 78 542 547
426 38 80 78 542 547
427 35 76 78 79 77
428 34 76 78 79 81
429 35 80 78 79 77
430 34 80 78 79 81
431 10 219 218 425 374
432 11 219 218 425 426
433 10 219 218 216 188
434 11 219 218 216 215
435 25 425 218 219 221
436 25 216 218 219 221
437 25 425 218 219 427
438 25 216 218 219 427
439 26 425 218 216 188
440 27 425 218 216 215
441 27 216 218 425 426
442 1 510 319 321 323
443 23 321 319 510 583
444 23 321 319 510 509
445 23 321 319 510 511
446 1 510 319 321 320
447 33 316 319 510 583
448 33 316 319 510 509
449 33 316 319 510 511
450 33 465 319 510 583
451 33 465 319 510 509
452 33 465 319 510 511
453 18 140 257 72 70
454 46 72 257 140 139
455 19 140 257 72 74
456 38 254 257 72 74
457 38 258 257 72 74
458 35 254 257 140 139
459 34 254 257 140 138
460 35 258 257 140 139
461 34 258 257 140 138
462 10 319 321 323 326
463 25 323 321 319 316
464 25 323 321 319 465
465 26 323 321 320 322
466 11 319 321 323 324
467 27 320 321 323 324
468 25 320 321 319 316
469 25 320 321 319 465
470 10 319 321 320 322
471 12 319 321 320 317
472 28 323 321 320 317
473 26 326 323 321 320
474 26 321 323 326 325
475 1 545 63 64 66
476 23 64 63 545 576
477 23 64 63 545 572
478 23 64 63 545 546
479 1 545 63 64 65
480 33 98 63 545 576
481 33 98 63 545 572
482 33 98 63 545 546
483 33 539 63 545 576
484 33 539 63 545 572
485 33 539 63 545 546
486 26 64 65 67 70
487 30 67 65 542 547
488 30 64 65 542 547
489 15 78 542 65 67
490 31 65 542 78 76
491 31 65 542 78 80
492 15 78 542 65 64
493 10 63 64 66 68
494 25 66 64 63 98
495 25 66 64 63 539
496 26 66 64 65 67
497 11 63 64 66 100
498 27 65 64 66 100
499 25 65 64 63 98
500 25 65 64 63 539
501 10 63 64 65 67
502 12 63 64 65 542
503 28 66 64 65 542
504 10 69 67 70 68
505 10 69 67 65 64
506 25 65 67 69 46
507 25 65 67 69 44
508 25 65 67 69 48
509 25 70 67 69 46
510 25 70 67 69 44
511 25 70 67 69 48
512 12 69 67 70 72
513 28 65 67 70 72
514 12 69 67 65 542
515 28 70 67 65 542
516 26 68 70 67 65
517 30 68 70 72 74
518 30 67 70 72 74
519 26 68 66 64 65
520 26 64 66 68 70
521 15 257 72 70 68
522 31 70 72 257 254
523 31 70 72 257 258
524 15 257 72 70 67
525 10 71 68 66 64
526 11 71 68 66 100
527 10 71 68 70 67
528 25 66 68 71 75
529 25 70 68 71 75
530 25 66 68 71 101
531 25 70 68 71 101
532 26 66 68 70 67
533 27 70 68 66 100
534 12 71 68 70 72
535 28 66 68 70 72
536 15 569 327 325 326
537 31 325 327 569 567
538 31 325 327 569 451
539 15 569 327 325 322
540 10 152 322 325 326
541 10 152 322 320 321
542 25 320 322 152 154
543 25 320 322 152 151
544 25 320 322 152 150
545 25 325 322 152 154
546 25 325 322 152 151
547 25 325 322 152 150
548 12 152 322 320 317
549 28 325 322 320 317
550 12 152 322 325 327
551 28 320 322 325 327
552 26 321 320 322 325
553 30 322 320 317 464
554 30 321 320 317 464
555 26 326 325 322 320
556 30 326 325 327 156
557 30 322 325 327 156
558 15 84 317 320 322
559 31 320 317 84 82
560 31 320 317 84 552
561 15 84 317 320 321
562 10 328 326 323 321
563 11 328 326 323 324
564 10 328 326 325 322
565 25 323 326 328 385
566 25 325 326 328 385
567 25 323 326 328 332
568 25 325 326 328 332
569 26 323 326 325 322
570 27 325 326 323 324
571 12 328 326 325 327
572 28 323 326 325 327
573 18 568 569 327 325
574 46 327 569 568 564
575 19 568 569 327 156
576 38 567 569 327 156
577 38 451 569 327 156
578 35 567 569 568 564
579 34 567 569 568 565
580 35 451 569 568 564
581 34 451 569 568 565
582 1 204 71 68 66
583 1 204 71 68 70
584 23 68 71 204 203
585 23 68 71 204 202
586 23 68 71 204 205
587 26 22 23 30 33
588 27 30 23 22 20
589 29 23 22 26 534
590 45 20 22 26 534
591 26 26 22 23 30
592 27 26 22 23 21
593 44 20 22 23 21
594 26 23 22 26 32
595 20 108 504 501 500
596 34 506 504 108 19
597 34 582 504 108 19
598 48 501 504 108 107
599 35 506 504 108 107
600 35 582 504 108 107
601 29 456 453 575 573
602 26 456 453 575 577
603 27 575 453 456 457
604 45 452 453 575 573
605 26 453 575 577 578
606 27 453 575 577 574
607 27 577 575 453 452
608 33 203 204 71 75
609 33 203 204 71 101
610 33 202 204 71 75
611 33 202 204 71 101
612 33 205 204 71 75
613 33 205 204 71 101
614 17 532 534 26 22
615 17 532 534 26 32
616 32 26 534 532 508
617 32 26 534 532 530
618 10 31 30 23 22
619 25 23 30 31 35
620 25 23 30 31 34
621 26 23 30 33 32
622 27 23 30 33 36
623 11 31 30 23 21
624 27 33 30 23 21
625 25 33 30 31 35
626 25 33 30 31 34
627 11 31 30 33 36
628 10 31 30 33 32
629 27 30 33 32 535
630 44 36 33 32 535
631 17 571 573 575 453
632 17 571 573 575 577
633 32 575 573 571 566
634 32 575 573 571 570
635 18 108 105 95 91
636 46 95 105 108 107
637 35 106 105 108 107
638 34 106 105 108 19
639 35 104 105 108 107
640 34 104 105 108 19
641 26 218 216 188 371
642 27 218 216 188 184
643 20 4 8 9 12
644 34 7 8 4 5
645 34 6 8 4 5
646 48 9 8 4 1
647 35 7 8 4 1
648 35 6 8 4 1
649 26 148 146 149 25
650 27 148 146 149 147
651 27 149 146 148 145
652 26 255 217 424 423
653 27 424 217 255 256
654 18 4 3 95 91
655 46 95 3 4 1
656 35 99 3 4 1
657 34 99 3 4 5
658 35 2 3 4 1
659 34 2 3 4 5
660 26 267 109 112 91
661 30 267 109 155 153
662 30 112 109 155 153
663 26 111 91 112 109
664 3 571 568 569 327
665 39 565 568 569 327
666 4 569 568 571 573
667 2 569 568 571 570
668 2 569 568 571 566
669 5 569 568 564 329
670 2 571 568 569 567
671 2 571 568 569 451
672 40 565 568 571 573
673 41 565 568 564 329
674 5 571 568 564 329
675 26 22 26 32 33
676 27 22 26 32 535
677 27 32 26 22 20
678 29 33 32 26 534
679 45 535 32 26 534
680 26 26 32 33 30
681 27 26 32 33 36
682 27 371 188 216 215
683 45 184 188 371 369
684 44 184 188 216 215
685 29 216 188 371 369
686 15 3 95 91 111
687 15 105 95 91 111
688 15 3 95 91 112
689 15 105 95 91 112
690 31 91 95 3 99
691 31 91 95 3 2
692 31 91 95 105 106
693 31 91 95 105 104
694 13 3 95 105 108
695 14 3 95 105 106
696 14 3 95 105 104
697 14 105 95 3 99
698 14 105 95 3 2
699 13 105 95 3 4
700 3 367 368 372 155
701 39 366 368 372 155
702 4 372 368 367 369
703 2 372 368 367 365
704 2 372 368 367 364
705 5 372 368 370 37
706 2 367 368 372 373
707 2 367 368 372 375
708 40 366 368 367 369
709 41 366 368 370 37
710 5 367 368 370 37
711 3 504 108 105 95
712 39 19 108 105 95
713 4 105 108 504 501
714 2 105 108 504 506
715 2 105 108 504 582
716 5 105 108 107 96
717 2 504 108 105 106
718 2 504 108 105 104
719 40 19 108 504 501
720 41 19 108 107 96
721 5 504 108 107 96
722 17 367 369 371 374
723 17 367 369 371 188
724 32 371 369 367 364
725 32 371 369 367 365
726 20 368 367 369 371
727 34 365 367 368 366
728 34 364 367 368 366
729 48 369 367 368 370
730 35 365 367 368 370
731 35 364 367 368 370
732 29 425 374 371 369
733 26 425 374 371 188
734 27 371 374 425 426
735 45 376 374 371 369
736 33 512 383 328 385
737 33 512 383 328 332
738 33 381 383 328 385
739 33 381 383 328 332
740 33 389 383 328 385
741 33 389 383 328 332
742 29 24 148 146 143
743 26 24 148 146 149
744 27 146 148 24 28
745 45 145 148 146 143
746 26 374 371 188 216
747 27 374 371 188 184
748 27 188 371 374 376
749 1 383 328 326 323
750 1 383 328 326 325
751 23 326 328 383 512
752 23 326 328 383 381
753 23 326 328 383 389
754 18 368 372 155 109
755 46 155 372 368 370
756 19 368 372 155 153
757 38 373 372 155 153
758 38 375 372 155 153
759 35 373 372 368 370
760 34 373 372 368 366
761 35 375 372 368 370
762 34 375 372 368 366
763 29 217 255 462 461
764 45 256 255 462 461
765 26 462 255 217 424
766 27 462 255 217 220
767 44 256 255 217 220
768 26 217 255 462 421
769 26 29 24 148 146
770 27 29 24 148 145
771 44 28 24 148 145
772 26 148 24 29 25
773 26 218 425 374 371
774 27 218 425 374 376
775 44 426 425 374 376
776 26 374 425 218 216
777 18 86 84 317 320
778 46 317 84 86 559
779 19 86 84 317 464
780 38 82 84 317 464
781 38 552 84 317 464
782 35 82 84 86 559
783 34 82 84 86 88
784 35 552 84 86 559
785 34 552 84 86 88
786 29 585 470 469 467
787 45 468 470 469 467
788 26 469 470 585 516
789 27 469 470 585 584
790 44 468 470 585 584
791 26 585 470 469 331
792 26 470 585 516 333
793 27 516 585 470 468
794 10 515 516 585 470
795 25 585 516 515 513
796 25 585 516 515 514
797 26 585 516 333 331
798 27 585 516 333 272
799 11 515 516 585 584
800 27 333 516 585 584
801 25 333 516 515 513
802 25 333 516 515 514
803 11 515 516 333 272
804 10 515 516 333 331
805 26 475 477 479 482
806 27 475 477 479 563
807 44 562 477 479 563
808 26 479 477 475 478
809 10 515 475 477 479
810 11 515 475 477 562
811 10 515 475 478 480
812 11 515 475 478 476
813 25 477 475 515 513
814 25 478 475 515 513
815 25 477 475 515 514
816 25 478 475 515 514
817 26 477 475 478 480
818 27 477 475 478 476
819 27 478 475 477 562
820 16 523 519 521 525
821 22 521 519 523 522
822 22 521 519 523 526
823 9 520 521 519 523
824 8 523 521 520 358
825 6 523 521 520 518
826 6 523 521 520 524
827 6 520 521 523 522
828 6 520 521 523 526
829 42 525 521 523 519
830 43 525 521 520 358
831 47 519 521 520 358
832 7 520 521 523 519
833 21 521 520 358 353
834 36 518 520 521 525
835 36 524 520 521 525
836 37 518 520 521 519
837 37 524 520 521 519
838 17 520 358 353 350
839 17 520 358 353 352
840 32 353 358 520 518
841 32 353 358 520 524
842 24 475 515 516 585
843 24 516 515 475 477
844 24 516 515 475 478
845 24 475 515 516 333
846 27 516 333 331 330
847 44 272 333 331 330
848 26 475 478 480 482
849 27 475 478 480 481
850 26 350 353 352 348
851 27 350 353 352 290
852 27 352 353 350 517
853 26 470 469 331 333
854 27 470 469 331 330
855 27 331 469 470 468
856 29 333 331 469 467
857 45 330 331 469 467
858 26 469 331 333 516
859 27 469 331 333 272
860 29 477 479 482 484
861 26 477 479 482 480
862 27 482 479 477 562
863 45 563 479 482 484
864 10 229 231 201 404
865 11 229 231 201 237
866 10 229 231 445 397
867 11 229 231 445 444
868 25 201 231 229 228
869 25 445 231 229 228
870 25 201 231 229 226
871 25 445 231 229 226
872 26 201 231 445 397
873 27 201 231 445 444
874 27 445 231 201 237
875 26 231 201 404 400
876 27 231 201 404 409
877 44 237 201 404 409
878 26 404 201 231 445
879 26 185 136 135 130
880 27 185 136 135 137
881 44 191 136 135 137
882 26 135 136 185 180
883 24 231 229 233 232
884 24 233 229 231 201
885 24 233 229 231 445
886 24 231 229 233 235
887 27 482 480 478 476
888 45 481 480 482 484
889 44 481 480 478 476
890 29 478 480 482 484
891 26 231 445 397 400
892 27 231 445 397 396
893 37 522 523 521 519
894 36 522 523 521 525
895 37 526 523 521 519
896 36 526 523 521 525
897 10 187 185 136 135
898 11 187 185 136 191
899 10 187 185 180 128
900 11 187 185 180 179
901 25 136 185 187 189
902 25 180 185 187 189
903 25 136 185 187 183
904 25 180 185 187 183
905 26 136 185 180 128
906 27 136 185 180 179
907 27 180 185 136 191
908 26 479 482 480 478
909 27 479 482 480 481
910 27 480 482 479 563
911 29 343 350 353 358
912 45 517 350 353 358
913 26 353 350 343 342
914 27 353 350 343 339
915 44 517 350 343 339
916 26 343 350 353 352
917 10 229 233 232 234
918 25 232 233 229 228
919 25 232 233 229 226
920 26 232 233 235 239
921 27 232 233 235 236
922 11 229 233 232 230
923 27 235 233 232 230
924 25 235 233 229 228
925 25 235 233 229 226
926 11 229 233 235 236
927 10 229 233 235 239
928 29 348 352 353 358
929 45 290 352 353 358
930 26 353 352 348 342
931 27 353 352 348 284
932 24 185 187 186 190
933 24 186 187 185 136
934 24 186 187 185 180
935 24 185 187 186 182
936 17 473 467 469 470
937 17 473 467 469 331
938 32 469 467 473 443
939 32 469 467 473 471
940 24 580 581 417 418
941 24 417 581 580 456
942 24 417 581 580 578
943 24 580 581 417 455
944 18 247 244 173 351
945 46 173 244 247 243
946 19 247 244 173 171
947 38 245 244 173 171
948 38 242 244 173 171
949 35 245 244 247 243
950 34 245 244 247 246
951 35 242 244 247 243
952 34 242 244 247 246
953 26 185 180 128 130
954 27 185 180 128 126
955 26 350 343 342 348
956 27 342 343 350 517
957 17 195 394 442 438
958 17 195 394 442 393
959 32 442 394 195 163
960 32 442 394 195 398
961 26 580 456 453 575
962 27 580 456 453 452
963 44 457 456 453 452
964 26 453 456 580 578
965 26 438 442 393 439
966 27 438 442 393 395
967 27 393 442 438 437
968 37 308 311 312 313
969 36 308 311 312 315
970 37 314 311 312 313
971 36 314 311 312 315
972 27 233 235 239 240
973 44 236 235 239 240
974 17 487 484 482 479
975 32 482 484 487 485
976 32 482 484 487 491
977 17 487 484 482 480
978 29 136 135 130 129
979 26 136 135 130 128
980 27 130 135 136 191
981 45 137 135 130 129
982 20 472 473 467 469
983 34 471 473 472 474
984 34 443 473 472 474
985 48 467 473 472 466
986 35 471 473 472 466
987 35 443 473 472 466
988 27 342 348 352 290
989 44 284 348 352 290
990 16 311 313 312 315
991 22 312 313 311 308
992 22 312 313 311 314
993 26 135 130 128 180
994 27 135 130 128 126
995 27 128 130 135 137
996 37 207 210 211 213
997 36 207 210 211 214
998 37 212 210 211 213
999 36 212 210 211 214
1000 9 310 312 313 311
1001 8 311 312 310 306
1002 6 311 312 310 309
1003 6 311 312 310 377
1004 6 310 312 311 308
1005 6 310 312 311 314
1006 42 315 312 311 313
1007 43 315 312 310 306
1008 47 313 312 310 306
1009 7 310 312 311 313
1010 26 334 390 386 384
1011 27 334 390 386 382
1012 44 391 390 386 382
1013 26 386 390 334 392
1014 10 337 342 343 350
1015 25 343 342 337 338
1016 25 343 342 337 336
1017 26 343 342 348 352
1018 27 343 342 348 284
1019 11 337 342 343 339
1020 27 348 342 343 339
1021 25 348 342 337 338
1022 25 348 342 337 336
1023 11 337 342 348 284
1024 10 337 342 348 352
1025 26 415 418 417 455
1026 27 417 418 415 416
1027 16 210 213 211 214
1028 22 211 213 210 207
1029 22 211 213 210 212
1030 21 312 310 306 304
1031 36 309 310 312 315
1032 36 377 310 312 315
1033 37 309 310 312 313
1034 37 377 310 312 313
1035 9 208 211 213 210
1036 8 210 211 208 413
1037 6 210 211 208 206
1038 6 210 211 208 209
1039 6 208 211 210 207
1040 6 208 211 210 212
1041 42 214 211 210 213
1042 43 214 211 208 413
1043 47 213 211 208 413
1044 7 208 211 210 213
1045 21 211 208 413 414
1046 36 206 208 211 214
1047 36 209 208 211 214
1048 37 206 208 211 213
1049 37 209 208 211 213
1050 26 415 414 412 455
1051 27 415 414 412 411
1052 27 412 414 415 416
1053 29 418 415 414 413
1054 45 416 415 414 413
1055 26 414 415 418 417
1056 27 414 415 418 419
1057 44 416 415 418 419
1058 26 418 415 414 412
1059 17 208 413 414 415
1060 17 208 413 414 412
1061 32 414 413 208 206
1062 32 414 413 208 209
1063 17 310 306 304 301
1064 17 310 306 304 305
1065 32 304 306 310 309
1066 32 304 306 310 377
1067 26 301 304 305 302
1068 27 301 304 305 307
1069 27 305 304 301 300
1070 10 337 334 390 386
1071 11 337 334 390 391
1072 10 337 334 392 388
1073 11 337 334 392 335
1074 25 390 334 337 338
1075 25 392 334 337 338
1076 25 390 334 337 336
1077 25 392 334 337 336
1078 26 390 334 392 388
1079 27 390 334 392 335
1080 27 392 334 390 391
1081 29 235 239 238 241
1082 45 240 239 238 241
1083 26 238 239 235 233
1084 27 238 239 235 236
1085 21 251 131 129 130
1086 37 134 131 251 125
1087 36 134 131 251 248
1088 37 133 131 251 125
1089 36 133 131 251 248
1090 29 302 305 304 306
1091 45 307 305 304 306
1092 26 304 305 302 299
1093 27 304 305 302 303
1094 27 299 302 305 307
1095 44 303 302 305 307
1096 8 250 251 131 129
1097 47 125 251 131 129
1098 43 248 251 131 129
1099 7 131 251 250 125
1100 6 131 251 250 103
1101 6 131 251 250 102
1102 9 131 251 125 250
1103 6 250 251 131 134
1104 6 250 251 131 133
1105 42 248 251 250 125
1106 24 334 337 342 343
1107 24 342 337 334 390
1108 24 342 337 334 392
1109 24 334 337 342 348
1110 10 581 417 418 415
1111 25 418 417 581 460
1112 25 418 417 581 549
1113 26 418 417 455 412
1114 27 418 417 455 454
1115 11 581 417 418 419
1116 27 455 417 418 419
1117 25 455 417 581 460
1118 25 455 417 581 549
1119 11 581 417 455 454
1120 10 581 417 455 412
1121 29 455 412 414 413
1122 45 411 412 414 413
1123 26 414 412 455 417
1124 27 414 412 455 454
1125 10 295 299 298 301
1126 25 298 299 295 293
1127 25 298 299 295 458
1128 26 298 299 302 305
1129 27 298 299 302 303
1130 11 295 299 298 296
1131 27 302 299 298 296
1132 25 302 299 295 293
1133 25 302 299 295 458
1134 11 295 299 302 303
1135 10 295 299 302 305
1136 27 417 455 412 411
1137 44 454 455 412 411
1138 29 298 301 304 306
1139 45 300 301 304 306
1140 26 304 301 298 299
1141 27 304 301 298 296
1142 44 300 301 298 296
1143 26 298 301 304 305
1144 26 301 298 299 302
1145 27 299 298 301 300
1146 17 131 129 130 135
1147 32 130 129 131 134
1148 32 130 129 131 133
1149 17 131 129 130 128
1150 27 130 128 180 179
1151 45 126 128 130 129
1152 44 126 128 180 179
1153 29 180 128 130 129
1154 21 123 121 241 238
1155 36 119 121 123 292
1156 36 122 121 123 292
1157 37 119 121 123 291
1158 37 122 121 123 291
1159 10 219 424 217 255
1160 25 217 424 219 221
1161 25 217 424 219 427
1162 26 217 424 423 421
1163 27 217 424 423 422
1164 11 219 424 217 220
1165 27 423 424 217 220
1166 25 423 424 219 221
1167 25 423 424 219 427
1168 11 219 424 423 422
1169 10 219 424 423 421
1170 3 252 247 244 173
1171 39 246 247 244 173
1172 4 244 247 252 461
1173 2 244 247 252 459
1174 2 244 247 252 253
1175 5 244 247 243 175
1176 2 252 247 244 245
1177 2 252 247 244 242
1178 40 246 247 252 461
1179 41 246 247 243 175
1180 5 252 247 243 175
1181 26 60 190 186 182
1182 27 186 190 60 61
1183 29 201 404 400 402
1184 26 201 404 400 397
1185 27 400 404 201 237
1186 45 409 404 400 402
1187 20 247 252 461 462
1188 34 459 252 247 246
1189 34 253 252 247 246
1190 48 461 252 247 243
1191 35 459 252 247 243
1192 35 253 252 247 243
1193 3 561 86 84 317
1194 39 88 86 84 317
1195 4 84 86 561 558
1196 2 84 86 561 90
1197 2 84 86 561 537
1198 5 84 86 559 318
1199 2 561 86 84 82
1200 2 561 86 84 552
1201 40 88 86 561 558
1202 41 88 86 559 318
1203 5 561 86 559 318
1204 26 29 25 149 146
1205 27 29 25 149 147
1206 27 400 397 445 444
1207 45 396 397 400 402
1208 44 396 397 445 444
1209 29 445 397 400 402
1210 3 55 79 78 542
1211 39 81 79 78 542
1212 4 78 79 55 59
1213 2 78 79 55 52
1214 2 78 79 55 54
1215 5 78 79 77 540
1216 2 55 79 78 76
1217 2 55 79 78 80
1218 40 81 79 55 59
1219 41 81 79 77 540
1220 5 55 79 77 540
1221 26 404 400 397 445
1222 27 404 400 397 396
1223 27 397 400 404 409
1224 10 187 186 190 60
1225 25 190 186 187 189
1226 25 190 186 187 183
1227 26 190 186 182 181
1228 27 190 186 182 178
1229 11 187 186 190 192
1230 27 182 186 190 192
1231 25 182 186 187 189
1232 25 182 186 187 183
1233 11 187 186 182 178
1234 10 187 186 182 181
1235 29 190 60 58 59
1236 45 61 60 58 59
1237 26 58 60 190 186
1238 27 58 60 190 192
1239 44 61 60 190 192
1240 26 190 60 58 181
1241 22 405 543 544 548
1242 22 405 543 544 541
1243 16 544 543 405 538
1244 36 548 544 405 538
1245 36 541 544 405 538
1246 37 548 544 405 543
1247 37 541 544 405 543
1248 20 79 55 59 58
1249 34 52 55 79 81
1250 34 54 55 79 81
1251 48 59 55 79 77
1252 35 52 55 79 77
1253 35 54 55 79 77
1254 8 544 405 406 402
1255 47 543 405 406 402
1256 43 538 405 406 402
1257 7 406 405 544 543
1258 6 406 405 544 548
1259 6 406 405 544 541
1260 9 406 405 543 544
1261 6 544 405 406 410
1262 6 544 405 406 408
1263 42 538 405 544 543
1264 26 60 58 181 182
1265 27 60 58 181 51
1266 27 181 58 60 61
1267 17 55 59 58 60
1268 17 55 59 58 181
1269 32 58 59 55 54
1270 32 58 59 55 52
1271 27 186 182 181 51
1272 44 178 182 181 51
1273 29 182 181 58 59
1274 45 51 181 58 59
1275 26 58 181 182 186
1276 27 58 181 182 178
1277 21 405 406 402 400
1278 37 410 406 405 543
1279 36 410 406 405 538
1280 37 408 406 405 543
1281 36 408 406 405 538
1282 17 406 402 400 404
1283 32 400 402 406 410
1284 32 400 402 406 408
1285 17 406 402 400 397
1286 20 86 561 558 556
1287 34 90 561 86 88
1288 34 537 561 86 88
1289 48 558 561 86 559
1290 35 90 561 86 559
1291 35 537 561 86 559
1292 9 195 197 199 196
1293 8 196 197 195 394
1294 6 196 197 195 163
1295 6 196 197 195 398
1296 6 195 197 196 198
1297 6 195 197 196 194
1298 42 200 197 196 199
1299 43 200 197 195 394
1300 47 199 197 195 394
1301 7 195 197 196 199
1302 17 561 558 556 554
1303 17 561 558 556 560
1304 32 556 558 561 537
1305 32 556 558 561 90
1306 16 196 199 197 200
1307 22 197 199 196 198
1308 22 197 199 196 194
1309 37 198 196 197 199
1310 36 198 196 197 200
1311 37 194 196 197 199
1312 36 194 196 197 200
1313 27 500 498 497 495
1314 45 496 498 500 501
1315 44 496 498 497 495
1316 29 497 498 500 501
1317 26 499 497 498 500
1318 27 499 497 498 496
1319 10 581 580 456 453
1320 11 581 580 456 457
1321 10 581 580 578 577
1322 11 581 580 578 579
1323 25 456 580 581 460
1324 25 578 580 581 460
1325 25 456 580 581 549
1326 25 578 580 581 549
1327 26 456 580 578 577
1328 27 456 580 578 579
1329 27 578 580 456 457
1330 10 434 436 435 438
1331 25 435 436 434 431
1332 25 435 436 434 429
1333 26 435 436 439 393
1334 27 435 436 439 441
1335 11 434 436 435 433
1336 27 439 436 435 433
1337 25 439 436 434 431
1338 25 439 436 434 429
1339 11 434 436 439 441
1340 10 434 436 439 393
1341 24 555 434 436 435
1342 24 436 434 555 553
1343 24 436 434 555 557
1344 24 555 434 436 439
1345 29 439 393 442 394
1346 45 395 393 442 394
1347 26 442 393 439 436
1348 27 442 393 439 441
1349 24 499 295 299 298
1350 24 299 295 499 502
1351 24 299 295 499 497
1352 24 499 295 299 302
1353 27 556 560 557 440
1354 45 536 560 556 558
1355 44 536 560 557 440
1356 29 557 560 556 558
1357 26 334 392 388 384
1358 27 334 392 388 387
1359 17 504 501 500 503
1360 17 504 501 500 498
1361 32 500 501 504 582
1362 32 500 501 504 506
1363 27 436 439 393 395
1364 44 441 439 393 395
1365 24 29 31 30 23
1366 24 30 31 29 24
1367 24 30 31 29 25
1368 24 29 31 30 33
1369 29 553 554 556 558
1370 26 553 554 556 560
1371 27 556 554 553 550
1372 45 551 554 556 558
1373 10 434 555 553 554
1374 11 434 555 553 550
1375 10 434 555 557 560
1376 11 434 555 557 440
1377 25 553 555 434 431
1378 25 557 555 434 431
1379 25 553 555 434 429
1380 25 557 555 434 429
1381 26 553 555 557 560
1382 27 553 555 557 440
1383 27 557 555 553 550
1384 26 111 268 267 109
1385 26 267 268 111 91
1386 10 89 111 268 267
1387 11 89 111 268 266
1388 10 89 111 91 112
1389 25 268 111 89 225
1390 25 91 111 89 225
1391 25 268 111 89 62
1392 25 91 111 89 62
1393 26 268 111 91 112
1394 27 91 111 268 266
1395 28 268 111 91 95
1396 12 89 111 91 95
1397 21 197 195 394 442
1398 36 163 195 197 200
1399 36 398 195 197 200
1400 37 163 195 197 199
1401 37 398 195 197 199
1402 10 295 499 502 503
1403 11 295 499 502 463
1404 10 295 499 497 498
1405 11 295 499 497 495
1406 25 502 499 295 293
1407 25 497 499 295 293
1408 25 502 499 295 458
1409 25 497 499 295 458
1410 26 502 499 497 498
1411 27 502 499 497 495
1412 27 497 499 502 463
1413 26 580 578 577 575
1414 27 580 578 577 574
1415 26 555 557 560 556
1416 27 555 557 560 536
1417 26 438 435 436 439
1418 27 436 435 438 437
1419 1 263 262 267 268
1420 23 267 262 263 264
1421 23 267 262 263 259
1422 23 267 262 263 265
1423 1 263 262 267 109
1424 33 261 262 263 264
1425 33 261 262 263 259
1426 33 261 262 263 265
1427 33 260 262 263 264
1428 33 260 262 263 259
1429 33 260 262 263 265
1430 26 503 500 498 497
1431 27 503 500 498 496
1432 27 498 500 503 505
1433 26 554 556 560 557
1434 27 554 556 560 536
1435 27 560 556 554 551
1436 1 85 89 111 268
1437 1 85 89 111 91
1438 23 111 89 85 110
1439 23 111 89 85 83
1440 23 111 89 85 87
1441 27 575 577 578 579
1442 45 574 577 575 573
1443 44 574 577 578 579
1444 29 578 577 575 573
1445 26 555 553 554 556
1446 27 555 553 554 551
1447 44 550 553 554 551
1448 26 554 553 555 557
1449 27 424 423 421 420
1450 44 422 423 421 420
1451 29 435 438 442 394
1452 45 437 438 442 394
1453 26 442 438 435 436
1454 27 442 438 435 433
1455 44 437 438 435 433
1456 26 435 438 442 393
1457 10 262 267 268 111
1458 25 268 267 262 261
1459 25 268 267 262 260
1460 26 268 267 109 112
1461 11 262 267 268 266
1462 27 109 267 268 266
1463 25 109 267 262 261
1464 25 109 267 262 260
1465 10 262 267 109 112
1466 12 262 267 109 155
1467 28 268 267 109 155
1468 29 423 421 462 461
1469 45 420 421 462 461
1470 26 462 421 423 424
1471 27 462 421 423 422
1472 29 502 503 500 501
1473 26 502 503 500 498
1474 27 500 503 502 463
1475 45 505 503 500 501
1476 33 110 85 89 225
1477 33 110 85 89 62
1478 33 83 85 89 225
1479 33 83 85 89 62
1480 33 87 85 89 225
1481 33 87 85 89 62
1482 26 499 502 503 500
1483 27 499 502 503 505
1484 44 463 502 503 505
1485 26 503 502 499 497
1486 24 218 219 424 217
1487 24 424 219 218 425
1488 24 424 219 218 216
1489 24 218 219 424 423
1490 3 168 43 41 285
1491 39 170 43 41 285
1492 4 41 43 168 169
1493 2 41 43 168 172
1494 2 41 43 168 167
1495 5 41 43 39 449
1496 2 168 43 41 40
1497 2 168 43 41 42
1498 40 170 43 168 169
1499 41 170 43 39 449
1500 5 168 43 39 449
1501 36 103 250 251 248
1502 36 102 250 251 248
1503 37 103 250 251 125
1504 37 102 250 251 125
1505 26 255 462 421 423
1506 27 255 462 421 420
1507 27 421 462 255 256
1508 10 31 29 24 148
1509 11 31 29 24 28
1510 10 31 29 25 149
1511 11 31 29 25 27
1512 25 24 29 31 35
1513 25 25 29 31 35
1514 25 24 29 31 34
1515 25 25 29 31 34
1516 26 24 29 25 149
1517 27 24 29 25 27
1518 27 25 29 24 28
1519 17 252 461 462 255
1520 17 252 461 462 421
1521 32 462 461 252 253
1522 32 462 461 252 459
1523 9 121 123 291 294
1524 8 294 123 121 241
1525 6 294 123 121 119
1526 6 294 123 121 122
1527 6 121 123 294 297
1528 6 121 123 294 249
1529 42 292 123 294 291
1530 43 292 123 121 241
1531 47 291 123 121 241
1532 7 121 123 294 291

Impropers

1 13 281 447 446 450
2 13 281 447 446 448
3 13 281 447 450 448
4 14 446 447 450 448
5 26 347 351 356 173
6 29 41 285 286 283
7 24 345 349 354 344
8 2 403 345 346 349
9 2 403 345 340 349
10 13 349 345 346 340
11 3 403 345 346 340
12 25 49 47 174 45
13 25 177 49 47 50
14 25 347 344 349 341
15 24 165 347 344 351
16 3 345 403 401 407
17 3 345 403 401 399
18 3 345 403 407 399
19 14 401 403 407 399
20 24 56 177 49 124
21 29 244 173 171 351
22 3 165 162 160 161
23 3 165 162 160 159
24 3 165 162 161 159
25 14 160 162 161 159
26 1 162 165 347 164
27 1 162 165 347 166
28 3 162 165 164 166
29 13 347 165 164 166
30 5 43 41 40 285
31 5 43 41 42 285
32 15 40 41 42 285
33 4 43 41 40 42
34 27 176 174 47 169
35 25 176 124 177 127
36 25 174 176 124 120
37 24 361 356 351 354
38 26 349 354 356 357
39 26 280 283 281 285
40 24 447 281 278 283
41 6 140 142 143 144
42 6 140 142 143 141
43 4 140 142 144 141
44 17 144 142 141 143
45 19 257 140 142 139
46 18 257 140 142 138
47 20 257 140 139 138
48 20 142 140 139 138
49 29 223 357 359 354
50 27 234 238 239 241
51 25 234 232 233 230
52 12 15 56 177 132
53 12 15 56 177 57
54 13 15 56 132 57
55 13 177 56 132 57
56 19 3 4 8 1
57 18 3 4 8 5
58 20 3 4 1 5
59 20 8 4 1 5
60 6 43 168 169 172
61 6 43 168 169 167
62 4 43 168 172 167
63 17 172 168 167 169
64 13 356 361 363 360
65 13 356 361 363 362
66 13 356 361 360 362
67 14 363 361 360 362
68 24 56 15 13 17
69 2 287 282 279 280
70 2 287 282 483 280
71 13 280 282 279 483
72 3 287 282 279 483
73 6 531 532 534 530
74 6 531 532 534 508
75 4 531 532 530 508
76 17 530 532 508 534
77 24 282 280 283 277
78 25 14 17 15 18
79 9 490 487 485 484
80 9 490 487 491 484
81 17 485 487 491 484
82 7 490 487 485 491
83 25 238 234 232 118
84 5 379 223 224 357
85 5 379 223 222 357
86 15 224 223 222 357
87 4 379 223 224 222
88 5 531 528 507 116
89 5 531 528 529 116
90 15 507 528 529 116
91 4 531 528 507 529
92 22 487 490 492 486
93 21 487 490 492 488
94 23 487 490 486 488
95 23 492 490 486 488
96 19 528 531 532 527
97 18 528 531 532 533
98 20 528 531 527 533
99 20 532 531 527 533
100 26 276 278 281 116
101 25 276 277 280 275
102 28 528 116 269 278
103 5 472 269 270 116
104 5 472 269 271 116
105 15 270 269 271 116
106 4 472 269 270 271
107 24 274 276 277 278
108 3 274 113 115 158
109 3 274 113 115 157
110 3 274 113 158 157
111 14 115 113 158 157
112 1 113 274 276 117
113 1 113 274 276 273
114 3 113 274 117 273
115 13 276 274 117 273
116 19 223 379 430 193
117 18 223 379 430 378
118 20 223 379 193 378
119 20 430 379 193 378
120 6 379 430 380 428
121 6 379 430 380 432
122 4 379 430 428 432
123 17 428 430 432 380
124 27 388 384 386 380
125 25 384 388 392 387
126 10 490 492 486 493
127 10 490 492 486 494
128 7 490 492 493 494
129 16 493 492 494 486
130 19 269 472 473 466
131 18 269 472 473 474
132 20 269 472 466 474
133 20 473 472 466 474
134 8 123 294 297 291
135 8 123 294 249 291
136 16 297 294 249 291
137 7 123 294 297 249
138 25 13 11 12 10
139 25 15 13 11 53
140 27 14 12 11 9
141 25 12 14 17 16
142 24 92 112 91 109
143 3 282 287 289 288
144 3 282 287 289 489
145 3 282 287 288 489
146 14 289 287 288 489
147 25 390 386 384 382
148 29 372 155 153 109
149 6 568 571 573 570
150 6 568 571 573 566
151 4 568 571 570 566
152 17 570 571 566 573
153 25 146 149 25 147
154 5 79 78 76 542
155 5 79 78 80 542
156 15 76 78 80 542
157 4 79 78 76 80
158 24 219 218 425 216
159 2 510 319 316 321
160 2 510 319 465 321
161 13 321 319 316 465
162 3 510 319 316 465
163 5 140 257 254 72
164 5 140 257 258 72
165 15 254 257 258 72
166 4 140 257 254 258
167 3 319 510 583 509
168 3 319 510 583 511
169 3 319 510 509 511
170 14 583 510 509 511
171 24 319 321 320 323
172 25 326 323 321 324
173 3 63 545 576 572
174 3 63 545 576 546
175 3 63 545 572 546
176 14 576 545 572 546
177 2 545 63 98 64
178 2 545 63 539 64
179 13 64 63 98 539
180 3 545 63 98 539
181 13 322 152 154 151
182 13 322 152 154 150
183 13 322 152 151 150
184 14 154 152 151 150
185 26 64 65 67 542
186 29 78 542 547 65
187 24 63 64 65 66
188 24 69 67 70 65
189 13 67 69 46 44
190 13 67 69 46 48
191 13 67 69 44 48
192 14 46 69 44 48
193 26 67 70 68 72
194 25 68 66 64 100
195 29 257 72 74 70
196 24 71 68 66 70
197 29 569 327 156 325
198 24 152 322 325 320
199 26 321 320 322 317
200 26 322 325 326 327
201 29 84 317 464 320
202 24 328 326 323 325
203 5 568 569 567 327
204 5 568 569 451 327
205 15 567 569 451 327
206 4 568 569 567 451
207 1 204 71 68 75
208 1 204 71 68 101
209 3 204 71 75 101
210 13 68 71 75 101
211 25 22 23 30 21
212 25 26 22 23 20
213 6 108 504 501 506
214 6 108 504 501 582
215 4 108 504 506 582
216 17 506 504 582 501
217 25 456 453 575 452
218 27 577 575 453 573
219 3 71 204 203 202
220 3 71 204 203 205
221 3 71 204 202 205
222 14 203 204 202 205
223 24 31 30 33 23
224 25 30 33 32 36
225 5 108 105 106 95
226 5 108 105 104 95
227 15 106 105 104 95
228 4 108 105 106 104
229 25 188 216 218 215
230 6 4 8 9 7
231 6 4 8 9 6
232 4 4 8 7 6
233 17 7 8 6 9
234 27 149 146 148 143
235 25 255 217 424 220
236 5 4 3 99 95
237 5 4 3 2 95
238 15 99 3 2 95
239 4 4 3 99 2
240 26 112 109 267 155
241 26 111 91 112 95
242 19 569 568 571 564
243 18 569 568 571 565
244 20 569 568 564 565
245 20 571 568 564 565
246 27 22 26 32 534
247 25 33 32 26 535
248 25 371 188 216 184
249 28 3 95 105 91
250 19 372 368 367 370
251 18 372 368 367 366
252 20 372 368 370 366
253 20 367 368 370 366
254 19 105 108 504 107
255 18 105 108 504 19
256 20 105 108 107 19
257 20 504 108 107 19
258 6 368 367 369 365
259 6 368 367 369 364
260 4 368 367 365 364
261 17 365 367 364 369
262 25 425 374 371 376
263 3 328 383 512 381
264 3 328 383 512 389
265 3 328 383 381 389
266 14 512 383 381 389
267 25 24 148 146 145
268 27 188 371 374 369
269 1 383 328 326 385
270 1 383 328 326 332
271 3 383 328 385 332
272 13 326 328 385 332
273 5 368 372 373 155
274 5 368 372 375 155
275 15 373 372 375 155
276 4 368 372 373 375
277 25 462 255 217 256
278 13 112 92 93 94
279 13 112 92 93 38
280 13 112 92 94 38
281 14 93 92 94 38
282 25 29 24 148 28
283 25 218 425 374 426
284 5 86 84 82 317
285 5 86 84 552 317
286 15 82 84 552 317
287 4 86 84 82 552
288 25 469 470 585 468
289 25 470 585 516 584
290 24 515 516 333 585
291 25 475 477 479 562
292 24 515 475 477 478
293 22 523 521 520 519
294 21 523 521 520 525
295 23 523 521 519 525
296 23 520 521 519 525
297 11 521 520 358 518
298 11 521 520 358 524
299 7 521 520 518 524
300 17 518 520 524 358
301 12 516 515 475 513
302 12 516 515 475 514
303 13 516 515 513 514
304 13 475 515 513 514
305 25 516 333 331 272
306 25 480 478 475 476
307 27 350 353 352 358
308 27 470 469 331 467
309 25 333 331 469 330
310 25 477 479 482 563
311 24 229 231 201 445
312 25 231 201 404 237
313 25 185 136 135 191
314 12 233 229 231 228
315 12 233 229 231 226
316 13 233 229 228 226
317 13 231 229 228 226
318 25 482 480 478 481
319 25 397 445 231 444
320 8 521 523 522 519
321 8 521 523 526 519
322 16 522 523 526 519
323 7 521 523 522 526
324 24 187 185 136 180
325 27 480 482 479 484
326 25 353 350 343 517
327 24 229 233 235 232
328 25 348 352 353 290
329 12 186 187 185 189
330 12 186 187 185 183
331 13 186 187 189 183
332 13 185 187 189 183
333 12 417 581 580 460
334 12 417 581 580 549
335 13 417 581 460 549
336 13 580 581 460 549
337 5 247 244 245 173
338 5 247 244 242 173
339 15 245 244 242 173
340 4 247 244 245 242
341 25 128 180 185 179
342 25 350 343 342 339
343 25 580 456 453 457
344 27 438 442 393 394
345 8 312 311 308 313
346 8 312 311 314 313
347 16 308 311 314 313
348 7 312 311 308 314
349 25 233 235 239 236
350 25 136 135 130 137
351 6 472 473 467 471
352 6 472 473 467 443
353 4 472 473 471 443
354 17 471 473 443 467
355 25 342 348 352 284
356 27 128 130 135 129
357 8 211 210 207 213
358 8 211 210 212 213
359 16 207 210 212 213
360 7 211 210 207 212
361 22 311 312 310 313
362 21 311 312 310 315
363 23 311 312 313 315
364 23 310 312 313 315
365 25 334 390 386 391
366 24 337 342 348 343
367 25 415 418 417 419
368 11 312 310 306 309
369 11 312 310 306 377
370 7 312 310 309 377
371 17 309 310 377 306
372 22 210 211 208 213
373 21 210 211 208 214
374 23 210 211 213 214
375 23 208 211 213 214
376 11 211 208 413 206
377 11 211 208 413 209
378 7 211 208 206 209
379 17 206 208 209 413
380 27 415 414 412 413
381 25 414 415 418 416
382 27 301 304 305 306
383 24 337 334 390 392
384 25 235 239 238 240
385 9 251 131 134 129
386 9 251 131 133 129
387 17 134 131 133 129
388 7 251 131 134 133
389 25 302 305 304 307
390 25 299 302 305 303
391 22 131 251 250 125
392 21 131 251 250 248
393 23 131 251 125 248
394 23 250 251 125 248
395 12 342 337 334 338
396 12 342 337 334 336
397 13 342 337 338 336
398 13 334 337 338 336
399 24 581 417 455 418
400 25 455 412 414 411
401 24 295 299 302 298
402 25 417 455 412 454
403 25 304 301 298 300
404 25 301 298 299 296
405 25 130 128 180 126
406 11 123 121 241 119
407 11 123 121 241 122
408 7 123 121 119 122
409 17 119 121 122 241
410 24 219 424 423 217
411 19 244 247 252 243
412 18 244 247 252 246
413 20 244 247 243 246
414 20 252 247 243 246
415 25 60 190 186 192
416 25 201 404 400 409
417 6 247 252 461 459
418 6 247 252 461 253
419 4 247 252 459 253
420 17 459 252 253 461
421 19 84 86 561 559
422 18 84 86 561 88
423 20 84 86 559 88
424 20 561 86 559 88
425 25 149 25 29 27
426 25 400 397 445 396
427 19 78 79 55 77
428 18 78 79 55 81
429 20 78 79 77 81
430 20 55 79 77 81
431 27 397 400 404 402
432 24 187 186 182 190
433 25 58 60 190 61
434 10 405 544 543 548
435 10 405 544 543 541
436 7 405 544 548 541
437 16 548 544 541 543
438 6 79 55 59 52
439 6 79 55 59 54
440 4 79 55 52 54
441 17 52 55 54 59
442 22 406 405 544 543
443 21 406 405 544 538
444 23 406 405 543 538
445 23 544 405 543 538
446 27 60 58 181 59
447 25 186 182 181 178
448 25 182 181 58 51
449 9 405 406 410 402
450 9 405 406 408 402
451 17 410 406 408 402
452 7 405 406 410 408
453 6 86 561 558 90
454 6 86 561 558 537
455 4 86 561 90 537
456 17 90 561 537 558
457 22 196 197 195 199
458 21 196 197 195 200
459 23 196 197 199 200
460 23 195 197 199 200
461 8 197 196 198 199
462 8 197 196 194 199
463 16 198 196 194 199
464 7 197 196 198 194
465 25 500 498 497 496
466 25 498 497 499 495
467 24 581 580 456 578
468 24 434 436 439 435
469 12 436 434 555 431
470 12 436 434 555 429
471 13 436 434 431 429
472 13 555 434 431 429
473 25 439 393 442 395
474 12 299 295 499 293
475 12 299 295 499 458
476 13 299 295 293 458
477 13 499 295 293 458
478 25 556 560 557 536
479 25 388 392 334 335
480 25 436 439 393 441
481 12 30 31 29 35
482 12 30 31 29 34
483 13 30 31 35 34
484 13 29 31 35 34
485 25 553 554 556 551
486 24 434 555 553 557
487 3 262 263 264 259
488 3 262 263 264 265
489 3 262 263 259 265
490 14 264 263 259 265
491 25 111 268 267 266
492 24 89 111 268 91
493 11 197 195 394 163
494 11 197 195 394 398
495 7 197 195 163 398
496 17 163 195 398 394
497 24 295 499 502 497
498 25 577 578 580 579
499 25 560 557 555 440
500 25 438 435 436 433
501 2 263 262 261 267
502 2 263 262 260 267
503 13 267 262 261 260
504 3 263 262 261 260
505 27 498 500 503 501
506 27 560 556 554 558
507 1 85 89 111 225
508 1 85 89 111 62
509 3 85 89 225 62
510 13 111 89 225 62
511 25 575 577 578 574
512 25 555 553 554 550
513 25 424 423 421 422
514 25 442 438 435 437
515 24 262 267 109 268
516 25 423 421 462 420
517 25 502 503 500 505
518 3 89 85 110 83
519 3 89 85 110 87
520 3 89 85 83 87
521 14 110 85 83 87
522 25 499 502 503 463
523 12 424 219 218 221
524 12 424 219 218 427
525 13 424 219 221 427
526 13 218 219 221 427
527 19 41 43 168 39
528 18 41 43 168 170
529 20 41 43 39 170
530 20 168 43 39 170
531 10 251 250 125 103
532 10 251 250 125 102
533 7 251 250 103 102
534 16 103 250 102 125
535 27 255 462 421 461
536 24 31 29 24 25
537 22 294 123 121 291
538 21 294 123 121 292
539 23 294 123 291 292
540 23 121 123 291 292
