LAMMPS data file via write_data, version 4 Jul 2026, timestep = 3190000, units = real

585 atoms
11 atom types
615 bonds
18 bond types
1090 angles
35 angle types
1538 dihedrals
48 dihedral types
540 impropers
30 improper types

1.4436792875591848 19.710099722437256 xlo xhi
1.4436792875591848 19.710099722437256 ylo yhi
1.4436792875591848 19.710099722437256 zlo zhi

Masses

1 12.01115
2 12.01115
3 12.01115
4 12.01115
5 1.00797
6 1.00797
7 1.00797
8 14.0067
9 15.9994
10 15.9994
11 15.9994

Pair Coeffs # lj/class2/coul/long

1 0.054 4.01
2 0.054 4.01
3 0.054 4.01
4 0.064 4.01
5 0.02 2.995
6 0.013 1.098
7 0.013 1.098
8 0.065 4.07
9 0.24 3.535
10 0.24 3.535
11 0.24 3.535

Bond Coeffs # class2

1 1.53 299.67 -501.77 679.81
2 1.53 299.67 -501.77 679.81
3 1.53 299.67 -501.77 679.81
4 1.501 321.902 -521.821 572.163
5 1.101 345 -691.89 844.6
6 1.457 365.805 -699.637 998.484
7 1.42 400.395 -835.195 1313.01
8 1.42 400.395 -835.195 1313.01
9 1.101 345 -691.89 844.6
10 1.42 400.395 -835.195 1313.01
11 1.101 345 -691.89 844.6
12 1.42 400.395 -835.195 1313.01
13 1.417 470.836 -627.618 1327.63
14 1.0982 372.825 -803.453 894.317
15 1.412 257.775 0 0
16 1.3768 428.88 -738.235 1114.97
17 1.006 466.74 -1073.6 1251.11
18 0.965 532.506 -1282.9 2004.77

Angle Coeffs # class2

1 108.4 43.9594 -8.3924 -9.3379
2 110.77 41.453 -10.604 5.129
3 112.67 39.516 -7.443 -9.5583
4 110.77 41.453 -10.604 5.129
5 111.27 54.5381 -8.3642 -13.0838
6 112.67 39.516 -7.443 -9.5583
7 110.77 41.453 -10.604 5.129
8 111.27 54.5381 -8.3642 -13.0838
9 120.05 44.7148 -22.7352 0
10 112.444 47.2337 -10.6612 -10.2062
11 109 80 0 0
12 110.954 50.8652 -4.4522 -10.0298
13 104.5 35.7454 -10.0067 -6.2729
14 102.969 38.9739 -6.2595 -8.171
15 110.77 41.453 -10.604 5.129
16 111.91 60.7147 -13.3366 -13.0785
17 111.27 54.5381 -8.3642 -13.0838
18 105.8 52.7061 -12.109 -9.8681
19 110.77 41.453 -10.604 5.129
20 111.27 54.5381 -8.3642 -13.0838
21 111.27 54.5381 -8.3642 -13.0838
22 111 44.3234 -9.4454 0
23 111 44.3234 -9.4454 0
24 118.9 61.0226 -34.9931 0
25 117.94 35.1558 -12.4682 0
26 120 102 0 0
27 123.42 73.6781 -21.6787 0
28 110 41.6 0 0
29 107.66 39.641 -12.921 -2.4318
30 110.62 51.3137 -6.7198 -2.6003
31 108.728 58.5446 -10.8088 -12.4006
32 108.728 58.5446 -10.8088 -12.4006
33 108.728 58.5446 -10.8088 -12.4006
34 108.728 58.5446 -10.8088 -12.4006
35 107.067 45.252 -7.5558 -9.512

BondBond Coeffs

1 0 1.53 1.501
2 3.3872 1.53 1.101
3 0 1.53 1.53
4 3.3872 1.53 1.101
5 11.4318 1.53 1.42
6 0 1.53 1.53
7 3.3872 1.53 1.101
8 11.4318 1.53 1.42
9 12.0676 1.501 1.417
10 -2.1113 1.457 1.457
11 0 1.457 1.412
12 -6.4168 1.457 1.006
13 -7.1131 1.42 1.42
14 0 1.42 1.3768
15 3.3872 1.53 1.101
16 4.6217 1.53 1.457
17 11.4318 1.53 1.42
18 -9.6879 1.42 0.965
19 3.3872 1.53 1.101
20 11.4318 1.53 1.42
21 11.4318 1.53 1.42
22 0 1.501 1.501
23 2.9168 1.501 1.101
24 68.2856 1.417 1.417
25 1.0795 1.417 1.0982
26 0 1.417 1.412
27 48.4754 1.417 1.3768
28 0 1.412 1.006
29 5.3316 1.101 1.101
30 12.426 1.101 1.457
31 23.1979 1.101 1.42
32 23.1979 1.101 1.42
33 23.1979 1.101 1.42
34 23.1979 1.101 1.42
35 -1.8749 1.006 1.006

BondAngle Coeffs

1 0 0 1.53 1.501
2 20.754 11.421 1.53 1.101
3 8.016 8.016 1.53 1.53
4 20.754 11.421 1.53 1.101
5 2.6868 20.4033 1.53 1.42
6 8.016 8.016 1.53 1.53
7 20.754 11.421 1.53 1.101
8 2.6868 20.4033 1.53 1.42
9 47.0579 31.0771 1.501 1.417
10 -7.2229 -7.2229 1.457 1.457
11 0 0 1.457 1.412
12 31.8096 20.5799 1.457 1.006
13 -2.8112 -2.8112 1.42 1.42
14 0 0 1.42 1.3768
15 20.754 11.421 1.53 1.101
16 6.0876 16.5702 1.53 1.457
17 2.6868 20.4033 1.53 1.42
18 28.58 18.9277 1.42 0.965
19 20.754 11.421 1.53 1.101
20 2.6868 20.4033 1.53 1.42
21 2.6868 20.4033 1.53 1.42
22 0 0 1.501 1.501
23 26.4608 11.7717 1.501 1.101
24 28.8708 28.8708 1.417 1.417
25 20.0033 24.2183 1.417 1.0982
26 0 0 1.417 1.412
27 58.479 107.681 1.417 1.3768
28 0 0 1.412 1.006
29 18.103 18.103 1.101 1.101
30 13.4582 42.4332 1.101 1.457
31 4.6189 55.327 1.101 1.42
32 4.6189 55.327 1.101 1.42
33 4.6189 55.327 1.101 1.42
34 4.6189 55.327 1.101 1.42
35 28.0322 28.0322 1.006 1.006

Dihedral Coeffs # class2

1 -0.2802 0 -0.0678 0 -0.0122 0
2 0 0 0.0316 0 -0.1681 0
3 0.1764 0 0.1766 0 -0.5206 0
4 0.7137 0 0.266 0 -0.2545 0
5 -0.6732 0 -0.4778 0 -0.167 0
6 0 0 0.0316 0 -0.1681 0
7 0.7137 0 0.266 0 -0.2545 0
8 0.7137 0 0.266 0 -0.2545 0
9 -0.5203 0 -0.3028 0 -0.345 0
10 0 0 4.4072 0 0 0
11 0 0 1.559 0 0 0
12 0 0 3 0 0 0
13 -0.1406 0 0.4168 0 0.015 0
14 0.1904 0 -0.1342 0 -0.246 0
15 0 0 2.25 0 0 0
16 0.5302 0 0 0 -0.3966 0
17 0 0 1.5 0 0 0
18 0 0 0 0 0.05 180
19 -1.1506 0 -0.6344 0 -0.1845 0
20 0 0 0 0 0.13 180
21 0 0 0 0 0.13 180
22 0.5302 0 0 0 -0.3966 0
23 -0.0228 0 0.028 0 -0.1863 0
24 -0.2802 0 -0.0678 0 -0.0122 0
25 -0.2801 0 -0.0678 0 -0.0122 0
26 8.3667 0 1.1932 0 0 0
27 0 0 3.9661 0 0 0
28 0 0 3 0 0 0
29 0 0 4.8498 0 0 0
30 0 0 2.25 0 0 0
31 0 0 0 0 0.05 180
32 0.9513 0 0.1155 0 0.072 0
33 -0.1432 0 0.0617 0 -0.1083 0
34 -0.1432 0 0.0617 0 -0.1083 0
35 -0.1435 0 0.253 0 -0.0905 0
36 -0.1432 0 0.0617 0 -0.1083 0
37 -0.1435 0 0.253 0 -0.0905 0
38 -0.5187 0 -0.4837 0 -0.1692 0
39 -0.2428 0 0.4065 0 -0.3079 0
40 -0.1435 0 0.253 0 -0.0905 0
41 0.1863 0 -0.4338 0 -0.2121 0
42 -0.1435 0 0.253 0 -0.0905 0
43 -0.1435 0 0.253 0 -0.0905 0
44 0 0 1.8769 0 0 0
45 0 0 1.7234 0 0 0
46 0 0 0 0 0.158 180
47 -0.182 0 -0.1084 0 -0.7047 0
48 -0.182 0 -0.1084 0 -0.7047 0

AngleAngleTorsion Coeffs

1 0 108.4 120.05
2 -16.164 112.67 110.77
3 -27.3953 112.67 111.91
4 -29.042 112.67 111.27
5 -12.1038 111.27 105.8
6 -16.164 112.67 110.77
7 -29.042 112.67 111.27
8 -29.042 112.67 111.27
9 -19.0059 111.27 104.5
10 -14.4097 120.05 118.9
11 4.4444 120.05 117.94
12 0 120.05 120
13 -24.3818 112.444 111.91
14 -12.5567 112.444 110.62
15 0 109 120
16 -16.4438 104.5 108.728
17 0 102.969 123.42
18 0 111.91 109
19 -7.5499 111.91 110.954
20 0 111.27 102.969
21 0 111.27 102.969
22 -16.4438 104.5 108.728
23 0 108.4 110.77
24 0 111 120.05
25 -5.8888 120.05 111
26 0 118.9 118.9
27 -4.8141 118.9 117.94
28 0 118.9 120
29 -21.0247 118.9 123.42
30 0 120 110
31 0 109 110.62
32 0 102.969 108.728
33 -12.564 110.77 110.77
34 -12.564 110.77 110.77
35 -20.2006 110.77 111.27
36 -12.564 110.77 110.77
37 -20.2006 110.77 111.27
38 -10.4258 110.62 110.954
39 -15.7572 110.77 111.91
40 -20.2006 110.77 111.27
41 -10.5093 108.728 105.8
42 -20.2006 110.77 111.27
43 -20.2006 110.77 111.27
44 0.3598 117.94 117.94
45 4.2296 117.94 123.42
46 0 111.91 111.27
47 -14.0484 111.27 111.27
48 -14.0484 111.27 111.27

EndBondTorsion Coeffs

1 0 0 0 0 0 0 1.53 1.417
2 0.2486 0.2422 -0.0925 0.0814 0.0591 0.2219 1.53 1.101
3 0.1032 0.5896 -0.4836 0.0579 -0.0043 -0.1906 1.53 1.457
4 -0.319 0.4411 -0.7174 1.1538 0.8409 -0.9138 1.53 1.42
5 -0.58 0.9004 0 0 0.5343 0.9025 1.53 0.965
6 0.2486 0.2422 -0.0925 0.0814 0.0591 0.2219 1.53 1.101
7 -0.319 0.4411 -0.7174 1.1538 0.8409 -0.9138 1.53 1.42
8 -0.319 0.4411 -0.7174 1.1538 0.8409 -0.9138 1.53 1.42
9 -0.2456 1.0517 -0.7795 0.4741 1.2635 0.5576 1.53 1.42
10 0 0.2421 0 0 -0.6918 0 1.501 1.417
11 0 -1.797 0 0 -0.4879 0 1.501 1.0982
12 0 0 0 0 0 0 1.501 1.412
13 -0.0128 -0.0495 -0.1079 0.0997 -0.0046 -0.2657 1.457 1.53
14 0.0628 0.0873 -0.0882 -0.5892 0.714 0.3505 1.457 1.101
15 0 0 0 0 0 0 1.457 1.417
16 -0.162 0.1564 -1.1408 -0.6054 1.3339 0.9648 1.42 1.101
17 0 0 0 0 0 0 1.42 1.417
18 0 0 0 0 0 0 1.53 1.412
19 -0.9466 0.9356 -0.5542 0.057 0.0625 0.4112 1.53 1.006
20 0 0 0 0 0 0 1.53 1.3768
21 0 0 0 0 0 0 1.53 1.3768
22 -0.162 0.1564 -1.1408 -0.6054 1.3339 0.9648 1.42 1.101
23 0 0 0 0 0 0 1.501 1.101
24 0 0 0 0 0 0 1.501 1.417
25 -0.5835 1.122 0.3978 1.3997 0.7756 0 1.417 1.101
26 -0.1185 6.3204 0 -0.1185 6.3204 0 1.417 1.417
27 0 -6.8958 0 0 -0.4669 0 1.417 1.0982
28 0 0 0 0 0 0 1.417 1.412
29 0 0.2655 0 0 4.8905 0 1.417 1.3768
30 0 0 0 0 0 0 1.417 1.006
31 0 0 0 0 0 0 1.412 1.101
32 0 0 0 0 0 0 1.3768 1.101
33 0.213 0.312 0.0777 0.213 0.312 0.0777 1.101 1.101
34 0.213 0.312 0.0777 0.213 0.312 0.0777 1.101 1.101
35 0.9681 0.9551 0.0436 0.5903 0.6669 0.8584 1.101 1.42
36 0.213 0.312 0.0777 0.213 0.312 0.0777 1.101 1.101
37 0.9681 0.9551 0.0436 0.5903 0.6669 0.8584 1.101 1.42
38 -1.1685 0.9266 -0.0993 0.085 0.3061 0.2104 1.101 1.006
39 0.196 0.7056 0.112 0.1022 0.209 0.6433 1.101 1.457
40 0.9681 0.9551 0.0436 0.5903 0.6669 0.8584 1.101 1.42
41 -1.7554 1.3145 0.2263 0.2493 0.6803 0 1.101 0.965
42 0.9681 0.9551 0.0436 0.5903 0.6669 0.8584 1.101 1.42
43 0.9681 0.9551 0.0436 0.5903 0.6669 0.8584 1.101 1.42
44 0 -0.689 0 0 -0.689 0 1.0982 1.0982
45 0 -1.5867 0 0 4.2641 0 1.0982 1.3768
46 0 0 0 0 0 0 1.457 1.42
47 1.0165 0.7553 -0.4609 1.0165 0.7553 -0.4609 1.42 1.42
48 1.0165 0.7553 -0.4609 1.0165 0.7553 -0.4609 1.42 1.42

MiddleBondTorsion Coeffs

1 0 0 0 1.501
2 -14.879 -3.6581 -0.3138 1.53
3 -15.4174 -7.3055 -1.0749 1.53
4 -21.8842 -7.6764 -0.6868 1.53
5 1.2472 0 0.7485 1.42
6 -14.879 -3.6581 -0.3138 1.53
7 -21.8842 -7.6764 -0.6868 1.53
8 -21.8842 -7.6764 -0.6868 1.53
9 -5.9288 -2.7007 -0.3175 1.42
10 0 9.1792 0 1.417
11 0 3.9421 0 1.417
12 0 0 0 1.417
13 -8.0036 -7.7321 -3.064 1.457
14 -6.4529 -6.8122 -1.1632 1.457
15 0 0 0 1.412
16 -6.8007 -4.6546 -1.4101 1.42
17 0 0 0 1.3768
18 0 0 0 1.457
19 -2.2208 0.5479 -0.3527 1.457
20 0 0 0 1.42
21 0 0 0 1.42
22 -6.8007 -4.6546 -1.4101 1.42
23 0 0 0 1.53
24 0 0 0 1.501
25 -5.5679 1.4083 0.301 1.501
26 27.5989 -2.312 0 1.417
27 0 -1.1521 0 1.417
28 0 0 0 1.417
29 0 4.8255 0 1.417
30 0 0 0 1.412
31 0 0 0 1.457
32 0 0 0 1.42
33 -14.261 -0.5322 -0.4864 1.53
34 -14.261 -0.5322 -0.4864 1.53
35 -16.7975 -1.2296 -0.275 1.53
36 -14.261 -0.5322 -0.4864 1.53
37 -16.7975 -1.2296 -0.275 1.53
38 -3.4611 1.6996 -0.6007 1.457
39 -10.4959 -0.7647 -0.0545 1.53
40 -16.7975 -1.2296 -0.275 1.53
41 0 0.9241 -0.5889 1.42
42 -16.7975 -1.2296 -0.275 1.53
43 -16.7975 -1.2296 -0.275 1.53
44 0 4.8228 0 1.417
45 0 5.5432 0 1.417
46 0 0 0 1.53
47 -17.2585 -3.6157 -0.8364 1.53
48 -17.2585 -3.6157 -0.8364 1.53

BondBond13 Coeffs

1 0 1.53 1.417
2 0 1.53 1.101
3 0 1.53 1.457
4 0 1.53 1.42
5 0 1.53 0.965
6 0 1.53 1.101
7 0 1.53 1.42
8 0 1.53 1.42
9 0 1.53 1.42
10 2.5085 1.501 1.417
11 0.8743 1.501 1.0982
12 0 1.501 1.412
13 0 1.457 1.53
14 0 1.457 1.101
15 0 1.457 1.417
16 0 1.42 1.101
17 0 1.42 1.417
18 0 1.53 1.412
19 0 1.53 1.006
20 0 1.53 1.3768
21 0 1.53 1.3768
22 0 1.42 1.101
23 0 1.501 1.101
24 0 1.501 1.417
25 -3.4826 1.417 1.101
26 53 1.417 1.417
27 -6.2741 1.417 1.0982
28 0 1.417 1.412
29 -2.2436 1.417 1.3768
30 0 1.417 1.006
31 0 1.412 1.101
32 0 1.3768 1.101
33 0 1.101 1.101
34 0 1.101 1.101
35 0 1.101 1.42
36 0 1.101 1.101
37 0 1.101 1.42
38 0 1.101 1.006
39 0 1.101 1.457
40 0 1.101 1.42
41 0 1.101 0.965
42 0 1.101 1.42
43 0 1.101 1.42
44 -1.7077 1.0982 1.0982
45 2.0517 1.0982 1.3768
46 0 1.457 1.42
47 0 1.42 1.42
48 0 1.42 1.42

AngleTorsion Coeffs

1 0 0 0 0 0 0 108.4 120.05
2 -0.2454 0 -0.1136 0.3113 0.4516 -0.1988 112.67 110.77
3 -1.9225 -1.345 0.221 2.0125 0.944 -2.7612 112.67 111.91
4 0.5623 -0.3041 -0.4015 0.9672 -0.7566 -1.2331 112.67 111.27
5 -3.5903 2.5225 0.4888 0.8726 -0.3577 0.3888 111.27 105.8
6 -0.2454 0 -0.1136 0.3113 0.4516 -0.1988 112.67 110.77
7 0.5623 -0.3041 -0.4015 0.9672 -0.7566 -1.2331 112.67 111.27
8 0.5623 -0.3041 -0.4015 0.9672 -0.7566 -1.2331 112.67 111.27
9 -2.7466 1.4877 -0.8955 0.5676 0.945 0.0703 111.27 104.5
10 0 -4.4683 0 0 3.8987 0 120.05 118.9
11 0 -0.1242 0 0 3.4601 0 120.05 117.94
12 0 0 0 0 0 0 120.05 120
13 1.2031 1.3645 -0.7071 -2.7883 1.5193 1.4796 112.444 111.91
14 -1.3582 0.1465 -0.5729 -2.6321 0.9353 -0.8398 112.444 110.62
15 0 0 0 0 0 0 109 120
16 -0.7777 0.434 -0.6653 -1.8234 1.6393 0.5144 104.5 108.728
17 0 0 0 0 0 0 102.969 123.42
18 0 0 0 0 0 0 111.91 109
19 -3.343 4.4558 -0.0346 0.2873 -0.8072 -0.096 111.91 110.954
20 0 0 0 0 0 0 111.27 102.969
21 0 0 0 0 0 0 111.27 102.969
22 -0.7777 0.434 -0.6653 -1.8234 1.6393 0.5144 104.5 108.728
23 0 0 0 0 0 0 108.4 110.77
24 0 0 0 0 0 0 111 120.05
25 0.2251 0.6548 0.1237 4.6266 0.1632 0.0461 120.05 111
26 1.9767 1.0239 0 1.9767 1.0239 0 118.9 118.9
27 0 2.5014 0 0 2.7147 0 118.9 117.94
28 0 0 0 0 0 0 118.9 120
29 0 10.0155 0 0 1.7404 0 118.9 123.42
30 0 0 0 0 0 0 120 110
31 0 0 0 0 0 0 109 110.62
32 0 0 0 0 0 0 102.969 108.728
33 -0.8085 0.5569 -0.2466 -0.8085 0.5569 -0.2466 110.77 110.77
34 -0.8085 0.5569 -0.2466 -0.8085 0.5569 -0.2466 110.77 110.77
35 2.3668 2.492 -1.0122 -0.1892 0.4918 0.7273 110.77 111.27
36 -0.8085 0.5569 -0.2466 -0.8085 0.5569 -0.2466 110.77 110.77
37 2.3668 2.492 -1.0122 -0.1892 0.4918 0.7273 110.77 111.27
38 -3.9582 2.0063 0.3213 -0.4294 -0.4442 -0.6141 110.62 110.954
39 0.5111 1.6328 -1.0155 -1.1075 0.282 0.8318 110.77 111.91
40 2.3668 2.492 -1.0122 -0.1892 0.4918 0.7273 110.77 111.27
41 -3.406 1.6396 0.0737 0 -0.281 -0.5944 108.728 105.8
42 2.3668 2.492 -1.0122 -0.1892 0.4918 0.7273 110.77 111.27
43 2.3668 2.492 -1.0122 -0.1892 0.4918 0.7273 110.77 111.27
44 0 2.4501 0 0 2.4501 0 117.94 117.94
45 0 1.8729 0 0 2.5706 0 117.94 123.42
46 0 0 0 0 0 0 111.91 111.27
47 0.5511 0.9737 -0.6673 0.5511 0.9737 -0.6673 111.27 111.27
48 0.5511 0.9737 -0.6673 0.5511 0.9737 -0.6673 111.27 111.27

Improper Coeffs # class2

1 0 0
2 0 0
3 0 0
4 0 0
5 0 0
6 0 0
7 0 0
8 0 0
9 0 0
10 0 0
11 0 0
12 0 0
13 0 0
14 0 0
15 0 0
16 0 0
17 0 0
18 0 0
19 0 0
20 0 0
21 0 0
22 0 0
23 0 0
24 7.8153 0
25 4.8912 0
26 0 0
27 13.0421 0
28 0 0
29 0 0
30 0 0

AngleAngle Coeffs

1 2.0403 -1.8202 1.0827 108.4 110.77 111
2 1.0827 -1.8202 2.0403 110.77 108.4 111
3 0.2738 -0.4825 0.2738 110.77 110.77 107.66
4 0.2738 -0.4825 0.2738 110.77 110.77 107.66
5 2.4286 0.5381 -2.5301 110.77 111.91 110.62
6 0.1689 2.5926 3.9177 111.27 110.77 108.728
7 0.2738 -0.4825 0.2738 110.77 110.77 107.66
8 3.9177 2.5926 0.1689 110.77 111.27 108.728
9 3.9177 2.5926 0.1689 110.77 111.27 108.728
10 0.1689 2.5926 3.9177 111.27 110.77 108.728
11 0.1689 2.5926 3.9177 111.27 110.77 108.728
12 0 0 0 111 111 111
13 2.3794 3.0118 2.3794 111 111 107.66
14 -0.3157 -0.3157 -0.3157 107.66 107.66 107.66
15 2.4321 2.4321 -3.5496 107.66 110.62 110.62
16 2.4259 2.4259 2.1283 107.66 108.728 108.728
17 2.4259 2.4259 2.1283 107.66 108.728 108.728
18 -1.3199 -1.3199 0.1184 112.67 110.77 110.77
19 -0.833 -0.833 -3.5744 112.67 111.27 111.27
20 0.1689 2.5926 3.9177 111.27 110.77 108.728
21 -1.3199 -1.3199 0.1184 112.67 110.77 110.77
22 -0.833 -0.833 -3.5744 112.67 111.27 111.27
23 0.1689 2.5926 3.9177 111.27 110.77 108.728
24 0 0 0 120.05 120.05 118.9
25 0 0 0 118.9 117.94 117.94
26 0 0 0 118.9 120 120
27 0 0 0 118.9 123.42 123.42
28 0 0 0 112.444 109 109
29 0 0 0 110.954 109 110
30 0 0 0 110 110 107.067

Atoms # full

447 1 1 -0.159 3.6575794590745936 5.423339025288412 3.9638590004929823 0 0 0
351 1 4 0 7.99033289406772 3.6670554454106585 8.439982750127633 0 1 0
448 1 5 0.053 4.423542353766885 5.397433368415056 4.7927129760136955 0 0 0
446 1 5 0.053 4.313893730301316 5.715883474294793 3.0741406482865266 0 0 0
450 1 5 0.053 3.4421185381067803 4.4027034819638615 3.713379321305465 0 0 0
285 1 8 -0.3314 4.115772157106403 8.122053790056547 3.9858008944909895 0 0 0
286 1 6 0.2487 4.691409135544283 7.303008597309813 3.8849058928918607 0 0 0
349 1 4 0 7.3777658496849154 6.042037436135432 7.127061491822758 0 1 0
345 1 1 -0.106 6.955242205262135 7.302923862028639 6.344100111749831 0 1 0
47 1 4 -0.1268 7.787345134616191 4.57584585027325 3.805344985284655 0 0 0
45 1 5 0.1268 7.0206402386426445 4.526875738270496 4.511334763404372 0 0 0
49 1 4 -0.1268 8.556137320402563 3.429482125736113 3.6388848052733667 0 0 0
50 1 5 0.1268 8.667420502144129 2.647713118465764 4.4797785998309365 0 0 0
344 1 4 -0.1268 6.393783781265916 5.095432257009377 7.417419663761486 0 1 0
347 1 4 0 6.653828130429366 3.8892302396210754 8.12915326277096 0 1 0
403 1 1 -0.159 6.324254622881636 8.367828240011677 7.30156170812441 0 1 0
401 1 5 0.053 5.450838225640526 7.943012823423517 7.756973111380309 0 1 0
177 1 4 0 9.421403006457979 3.254322075365919 2.5572192059782326 0 0 0
341 1 5 0.1268 5.333613460186175 5.210260574622738 7.1375559207213515 0 1 0
173 1 8 -0.3314 8.376170200045191 2.5470310976280732 9.223223164559542 0 1 0
162 1 1 -0.159 4.793396006357419 2.600493011373182 6.979271413441464 0 1 0
165 1 1 -0.106 5.482772580928679 2.857025798163869 8.301525001010027 0 1 0
174 1 4 0.0265 7.8162484457244625 5.619195001187226 2.8491263793768296 0 0 0
160 1 5 0.053 4.270707686994401 3.4903249716817615 6.647329180144368 0 1 0
161 1 5 0.053 5.512647951303524 2.4212896811085662 6.177229297627537 0 1 0
356 1 4 0 8.970455629521826 4.56806793794445 8.017770936702291 0 1 0
354 1 4 0 8.652354531362906 5.750570320398861 7.436784004375037 0 1 0
346 1 5 0.053 6.166475362503898 7.100575037534298 5.587918623912564 0 1 0
283 1 4 0 2.7101378215633654 7.642238576890521 4.204861978340226 0 0 0
281 1 4 0 2.45342604218763 6.311932837939894 4.1688270207148825 0 0 0
171 1 6 0.2487 9.364773323581085 2.5145535361751548 9.228087667323608 0 1 0
169 1 10 -0.1595 6.904508098151978 6.675396548534639 3.006679614811797 0 0 0
166 1 5 0.053 4.769897474029659 3.2939486568556724 9.006771575627955 0 1 0
399 1 5 0.053 6.013072387136531 9.334449648625863 6.861444731715615 0 1 0
340 1 5 0.053 7.841189032580046 7.752378262082282 5.89656688468592 0 1 0
359 1 6 0.2487 9.174410148168818 7.657499364308531 6.966052224103659 0 1 0
73 1 7 0.4241 2.319240420346202 8.409489243418182 6.955110519680121 0 0 0
139 1 11 -0.5571 2.377583343362792 8.366844226863096 7.952705425746433 1 -1 1
140 1 2 0.08 2.0773274643269013 9.719212321750577 8.440000362570958 1 -1 1
164 1 5 0.053 5.7580513059913745 1.9101871822669054 8.748462230788824 0 1 0
407 1 5 0.053 6.982911953200384 8.544065364328198 8.083321177883171 0 1 0
452 2 5 0.1268 8.61776591426414 8.648267448321786 9.66708854692002 0 0 0
39 1 11 -0.5571 6.690923920014039 9.58361447301812 3.058366512267793 0 0 0
41 1 1 -0.0233 4.373357509785929 8.787128362808646 2.6261160834666866 0 0 0
282 1 1 -0.106 1.9178685609289294 10.08477749765284 4.082568518319064 0 0 0
280 1 4 0 1.7097781886812518 8.613541741581626 4.1113285981431975 0 0 0
357 1 8 -0.3314 9.659001673501267 6.746486336678506 7.135684077519325 0 1 0
564 2 11 -0.5571 9.335809568014213 9.850344092631463 5.195665074867117 0 0 0
271 1 5 0.053 1.7732455661742355 3.1802309777176907 2.702190442227494 1 1 1
142 1 1 0.027 1.9923058795727582 9.797827041560257 9.939201057244906 1 -1 1
449 1 7 0.4241 6.498324407364451 9.262548636497916 3.958302588225761 0 0 0
361 1 1 -0.159 10.398878941835319 4.176301011424004 8.326802543915534 0 1 0
159 1 5 0.053 4.186622106445325 1.662899260073749 6.978977049711396 0 1 0
483 1 5 0.053 2.828733878623993 10.331214438327084 4.578869183469455 0 0 0
176 1 4 -0.1268 8.667737268404212 5.492497181633617 1.7739746943335457 0 0 0
124 1 4 -0.1268 9.453674022496404 4.346828372615439 1.6889727055038493 0 0 0
43 1 2 0.08 5.8758737461861665 8.808111051383447 2.2016531243186344 0 0 0
453 2 4 -0.1268 9.430067670097953 9.24792173467046 10.120332944315779 0 0 0
168 1 1 0.027 6.634900423626032 7.508229182617109 1.9003757993008488 0 0 0
230 3 5 0.1268 3.3749793043151786 5.920487352618255 9.781713470896024 0 0 0
507 1 5 0.053 2.0459150270019677 2.7888675360467534 5.158445219171529 1 0 1
363 1 5 0.053 10.716965694291153 4.233140067252391 9.367348002146441 0 1 0
144 1 5 0.053 3.000557623434018 9.8378991714532 10.32362804184978 1 -1 1
529 1 5 0.053 2.091847292426823 4.251534113379219 5.945272070329902 1 0 1
222 1 5 0.053 10.07590982102246 6.7730755757578995 5.059931600183463 -1 0 0
138 1 5 0.053 19.359165888250374 9.98964872756955 7.995605859913852 0 -1 1
232 3 4 -0.1268 2.4813004325745998 5.493820970739661 10.119921735745868 0 0 0
141 1 5 0.053 1.464878575291262 8.880506368786861 10.312211748615184 1 -1 1
575 2 4 0.0265 10.080089807489598 10.169163230430799 9.275547896905778 0 0 0
42 1 5 0.053 4.106059844413644 9.905414700813543 2.697826649434306 0 0 0
465 2 5 0.053 4.371519566951708 16.871225837110565 2.4082368383376216 0 -1 1
40 1 5 0.053 3.6657518187804667 8.334223370962281 1.9073393136280647 0 0 0
288 1 5 0.053 19.668698897930373 9.815367854393177 1.959492794848528 -1 0 0
329 2 7 0.4241 10.041409808883943 9.22707021716957 5.486746007860213 0 -1 1
534 1 10 -0.1595 19.623681107788762 19.567483706338653 7.403483438594248 0 -1 1
12 1 4 0.0265 13.02223617976765 18.812862340058405 5.468381283958351 0 -1 0
56 1 1 -0.106 10.210506185056202 2.0160150704361515 2.441004491564045 0 0 0
573 2 10 -0.1595 9.495524595609039 10.409385849210269 7.994887448324049 0 0 0
279 1 5 0.053 19.30725085633169 10.361175708074533 4.668515369626167 -1 0 0
278 1 4 0 19.399075094594807 5.840415701372981 4.268677010030569 -1 0 0
360 1 5 0.053 11.17409832365059 4.777710237374375 7.805230540045819 0 1 0
269 1 1 -0.0233 19.136709385495806 3.7928531392869886 2.8422282504581533 0 1 1
528 1 1 -0.0233 19.667053536850695 3.66198530253594 5.361845902519894 0 0 1
128 1 4 -0.1268 10.229376563871908 9.740287107928017 1.731522754737021 0 0 0
223 1 1 -0.0233 10.501512185006975 6.449609518341718 6.011344915147238 -1 0 0
362 1 5 0.053 10.678563590717028 3.230353557759713 7.806912267652527 0 1 0
224 1 5 0.053 10.569424309145967 5.431814046195435 5.910779150216268 -1 0 0
126 1 5 0.1268 10.240734693334606 9.63490204244371 2.8517069054861324 0 0 0
530 1 5 0.053 19.669938031186167 3.19325522550489 8.212659757217597 0 0 1
494 1 5 0.053 14.591238808965159 2.9993933335579186 1.9391489929369736 1 1 1
270 1 5 0.053 18.348904579136224 3.0010449349136676 2.7406644501434476 0 1 1
53 1 5 0.1268 12.450439352491811 3.385547605668536 3.7177236453360325 0 0 0
116 1 8 -0.1654 19.1224736579586 4.401382650395492 4.2135748319175885 -1 0 0
392 1 4 -0.1268 16.393153727387997 9.05715170959186 9.773731951882652 -1 0 0
234 3 4 -0.1268 19.622618317195833 5.532762994715001 9.294068441864152 -1 0 0
118 3 5 0.1268 1.4900594412542318 5.881478293982805 8.280789413557526 0 0 0
297 3 5 0.053 13.368886702798084 2.8337227342178224 7.691338404783137 -1 0 0
532 1 1 0.027 18.990588758855665 2.540031498505961 7.611441528175342 0 0 1
508 1 5 0.053 18.06320010401683 2.3862486645839156 8.186809481171398 0 0 1
533 1 5 0.053 18.082487187612035 4.145517271433757 6.515128445279114 0 0 1
123 3 3 0.08 15.079481525492136 4.228350658591415 8.286434671331204 -1 0 0
531 1 2 0.08 18.57562830113908 3.1849269909837417 6.29310046208609 0 0 1
527 1 11 -0.5571 17.66547438040372 2.35656489839515 5.5630078947219985 0 0 1
277 1 4 -0.1268 18.703581842689243 8.109976412384455 4.2141605350747025 -1 0 0
115 1 5 0.053 15.153578273449737 6.392844695283404 5.133427010553289 -1 0 0
157 1 5 0.053 16.343522440062227 5.115260759018364 5.578777227405284 -1 0 0
276 1 4 0 18.338665880117183 6.7585500366871365 4.159343951087857 -1 0 0
355 1 7 0.4241 12.58908671328975 8.431590317597637 4.906867944577504 0 1 0
432 1 5 0.053 12.025372166814366 8.033328287582918 7.783380614118952 -1 0 0
113 1 1 -0.159 16.210866209478695 6.151866986062797 5.341489872161176 -1 0 0
117 1 5 0.053 16.657512528995674 5.538914106216985 3.397432867082185 -1 0 0
274 1 1 -0.106 16.883765825340735 6.4788493643818885 3.9746391057628414 -1 0 0
158 1 5 0.053 16.573744220964073 6.827277803918852 6.16299810688085 -1 0 0
193 1 11 -0.5571 11.737641653563479 8.272017115081184 5.317093969170662 -1 0 0
275 1 5 0.1268 17.861160034205888 8.77892011793018 4.316729701862146 -1 0 0
379 1 2 0.08 11.920146604265195 7.053112218252978 5.96124440858041 -1 0 0
273 1 5 0.053 16.349765263696025 7.252423533412317 3.3578497145767754 -1 0 0
428 1 5 0.053 12.721069457156556 6.372683319199669 7.949935527743225 -1 0 0
430 1 1 0.027 12.6800339753084 7.264100445210812 7.326274652400736 -1 0 0
378 1 5 0.053 12.598830134405658 6.4579238359675735 5.35864878084625 -1 0 0
380 1 10 -0.1595 14.033195177909601 7.732254782168638 7.334541705413377 -1 0 0
384 1 4 0.0265 14.516174171524414 8.238785431581011 8.555052429023277 -1 0 0
388 1 4 -0.1268 15.864384279977708 8.50617879233159 8.649099664718936 -1 0 0
387 1 5 0.1268 16.568785615605737 8.210097641700841 7.81414744561638 -1 0 0
292 3 5 0.053 15.037192401617249 4.989807507009369 7.457516374096801 -1 0 0
125 1 11 -0.5571 14.156416256766141 8.98994014863148 3.7249740387805876 0 0 0
241 3 10 -0.1595 17.25071975410753 5.150415693539341 8.975990419558855 -1 0 0
251 1 2 0.08 13.944977382390556 9.89537805682256 2.628175236095277 0 0 0
153 1 7 0.4241 14.641219525198588 9.419961780943249 4.385353140843252 0 0 0
291 3 9 -0.266 15.488317921865379 2.9499956436948516 7.680920341557689 -1 0 0
294 3 1 0.027 14.229477808848664 2.981990620594627 8.304084612306882 -1 0 0
386 1 4 -0.1268 13.714772273056541 8.429315971883234 9.706004328886392 -1 0 0
121 3 1 0.027 16.021845214920873 4.547619310046304 9.458533557818276 -1 0 0
335 1 5 0.1268 17.43018915986677 9.396864575723102 9.966046550084448 -1 0 0
249 3 5 0.053 14.170587059225884 2.367812597441833 9.130242287837941 -1 0 0
227 1 7 0.4241 16.84089151623195 2.3359575586993238 6.106206066797419 -1 0 0
238 3 4 0.0265 18.37455852971965 5.087257700861635 9.740772552699873 -1 0 0
382 1 5 0.1268 12.648055138131124 8.15845485707021 9.756288564807797 -1 0 0
10 1 5 0.1268 14.068960127579455 2.5537451326739387 5.148788628673001 0 0 0
488 1 5 0.053 13.715092850973608 5.281308692731991 1.919651696068907 1 1 1
248 1 5 0.053 12.95401144276804 10.431236371391238 2.868551912373731 0 0 0
122 3 5 0.053 16.27893082183226 3.5451984535807384 9.850443993612913 -1 0 0
119 3 5 0.053 15.49625982172454 5.148149420719019 10.246813366886233 -1 0 0
13 1 4 -0.1268 12.26812645618365 2.3317419898835983 4.009197963567064 0 0 0
11 1 4 -0.1268 13.224845297745814 1.787339149618497 4.8565410626093914 0 0 0
489 1 5 0.053 19.1036238287969 11.39479542524848 2.661116859565543 -1 0 0
37 1 7 0.4241 16.253952939518545 10.219518794286568 6.550498544250254 0 0 0
474 1 5 0.053 18.39429236864482 5.670540981954138 2.0400632956370273 0 1 1
370 1 11 -0.5571 16.002621922018704 10.326939845179714 5.601948846359361 0 0 0
15 1 4 0 11.128135258670662 1.6472782688526113 3.6105680170746908 0 0 0
535 1 5 0.1268 18.70392135629978 19.647418614970857 10.067724506657747 0 -1 1
566 2 5 0.053 11.303070336864199 10.41549365880647 6.923452924813273 0 0 0
129 1 10 -0.1595 12.360050565607292 8.425913923886247 1.4656301735607205 0 0 0
472 1 2 0.08 18.99069232278091 4.762055268702561 1.6943607183918141 0 1 1
109 1 4 0 15.250615930241564 13.443415929817057 2.4827297387835072 0 0 0
254 1 5 0.053 4.071795528108334 10.19572152261557 8.200324403335223 1 -1 1
287 1 1 -0.159 1.7221149469149097 10.628658975521466 2.6313418108397366 0 0 0
318 2 7 0.4241 5.402958552259507 12.318955426378281 1.8398405401638847 0 -1 1
552 2 5 0.053 2.367914911867149 13.574991846724027 1.8548175478902422 0 0 1
179 1 5 0.1268 8.413346866503565 10.95180095023025 1.606744366274047 0 0 0
509 2 5 0.053 5.024232204373581 18.931669283608745 3.0681767373163233 0 -1 1
44 1 5 0.053 4.892150440607811 11.164803229802377 9.728296982315841 0 0 0
78 1 1 -0.0233 7.99375798425531 15.21441682324141 9.588769038976547 0 0 -1
510 2 1 -0.159 5.917217288379948 18.206933334832144 2.9573028737098426 0 -1 1
511 2 5 0.053 6.809152637768636 18.67807023379501 2.4043370781461832 0 -1 1
324 2 5 0.1268 8.121894150712823 16.491472003286745 2.26710825705866 0 -1 1
258 1 5 0.053 3.1071611902737777 10.549742345839123 6.74806407612383 1 -1 1
257 1 1 -0.0233 3.1675331190127345 10.6755959690787 7.811436421601909 1 -1 1
132 1 5 0.053 10.952726388305601 2.0673121824621754 1.6192041824282726 0 0 0
506 1 5 0.053 2.474386530270375 18.021103544000635 2.083651270264373 1 -1 1
547 1 6 0.2487 7.794141835323705 13.195060883458899 9.5094643784058 0 0 0
154 2 5 0.053 4.902811811325177 12.56098877677524 5.22135886601517 0 -1 1
156 2 6 0.2487 7.843837406900696 11.297864956541321 3.7803436659073064 0 -1 1
69 1 1 -0.159 5.7435534795217755 11.706237992248605 9.33686265801105 0 0 0
57 1 5 0.053 9.56399235394371 19.458021097253415 2.0380419213459207 0 -1 0
18 1 5 0.1268 9.896145591638302 18.258327406231526 4.256571143671975 0 -1 0
21 1 5 0.1268 3.7497502369999856 16.18700064018168 9.06013024276158 1 -1 1
576 1 5 0.053 5.5153681146689895 17.63672221560203 6.603755601049704 0 0 0
323 2 4 -0.1268 7.5057095942763485 15.62217777823266 2.6915121597625444 0 -1 1
572 1 5 0.053 7.147890080897313 18.2483939404587 6.573298347706652 0 0 0
150 2 5 0.053 4.780165241467801 11.835920532043788 3.5136495427269008 0 -1 1
546 1 5 0.053 6.383726420425172 17.690967508155477 8.02548778246651 0 0 0
151 2 5 0.053 6.061780575894407 11.449772346121442 4.694009618762035 0 -1 1
545 1 1 -0.159 6.518664312769999 17.51639350669983 6.977473264034117 0 0 0
539 1 5 0.053 7.937687359685947 15.87973887320558 6.918193540212237 0 0 0
98 1 5 0.053 7.083007972893204 16.005752402082198 5.5653958020705705 0 0 0
451 2 5 0.053 7.779233487564392 11.947362661542158 6.075169138222773 0 0 0
63 1 1 -0.106 6.89510943700884 16.072878230935785 6.655915563522415 0 0 0
152 2 1 -0.159 5.441837773594205 12.265783913154511 4.309226906013287 0 -1 1
464 2 6 0.2487 3.919965428712357 13.583265343110174 3.715861147751815 0 -1 1
65 1 4 0 6.3630280122377725 13.909233121103902 8.147787652703638 0 0 0
542 1 8 -0.3314 7.689405501396181 13.942082889448974 8.823381522081313 0 0 0
64 1 4 0 6.015006717809894 14.95795509784037 7.2058539975861695 0 0 0
67 1 4 0 5.366744946211604 12.905204797316447 8.410475206245778 0 0 0
70 1 4 0 4.079344140207849 12.94500543759302 7.831962420440812 0 0 0
66 1 4 -0.1268 4.708315532461984 14.991845184928291 6.711880861291152 0 0 0
72 1 8 -0.3314 3.0868217170845282 12.075017803806416 8.260435159261888 0 0 0
68 1 4 0 3.751733042623373 14.055274277913734 7.027178342228564 0 0 0
74 1 6 0.2487 2.256998191739932 12.425735915584076 7.868194459955595 0 0 0
327 2 8 -0.3314 8.297065944471694 12.167012119399978 3.992148338195348 0 -1 1
322 2 4 0 6.177478967181193 13.421815111195993 3.653837311920372 0 -1 1
320 2 4 0 5.43128888901753 14.472379400254 3.067398059765382 0 -1 1
325 2 4 0 7.56203573046464 13.374492961876246 3.620291900962089 0 -1 1
317 2 8 -0.3314 3.978793629901364 14.374853601524741 3.131640381960607 0 -1 1
326 2 4 0 8.223669230246518 14.545473175898119 3.1829872147169165 0 -1 1
569 2 1 -0.0233 8.578433059574746 12.11751506438462 5.382999280745752 0 0 0
100 1 5 0.1268 4.3719853641351145 15.836103365037825 6.034232796385088 0 0 0
71 1 1 -0.106 2.328333293515765 14.188941568778635 6.472972326070635 0 0 0
101 1 5 0.053 2.0430524053854184 13.163740093274367 6.146617479933205 0 0 0
20 1 5 0.1268 2.9824407043978325 17.60322451246805 7.151011379734255 1 -1 1
75 1 5 0.053 2.2959197707162966 14.791411873432306 5.527180362498521 0 0 0
23 1 4 -0.1268 3.0644464216379825 17.0263466498443 9.26645442902386 1 -1 1
22 1 4 -0.1268 2.6671157138346833 17.855512174217523 8.213269625981845 1 -1 1
567 2 5 0.053 9.06360921230559 13.114429259558786 5.7094783298227 0 0 0
568 2 2 0.08 9.754399926311297 11.145671216352996 5.627209302309253 0 0 0
328 2 1 -0.106 9.76807731129067 14.669324188109227 3.1040599132823017 0 -1 1
583 2 5 0.053 6.347821030529736 17.947499112137734 4.052796079648276 0 -1 1
289 1 5 0.053 2.534725144363178 11.230046234878966 2.2493687564613376 0 0 0
321 2 4 0 6.096648754371621 15.657951017349069 2.694879018110837 0 -1 1
48 1 5 0.053 6.449015776927741 11.075926659664729 8.737387521080976 0 0 0
204 1 1 -0.159 19.493681524250277 14.747877865859024 7.451004498039977 -1 0 0
504 1 1 0.027 1.4515928842080505 17.565367804385737 2.0840530242633366 1 -1 1
582 1 5 0.053 1.5778402768615463 16.73577651510348 2.860659280466324 1 -1 1
202 1 5 0.053 19.518969395990194 15.83255162197935 7.331452553633107 -1 0 0
205 1 5 0.053 19.649374575487425 14.404409615949119 8.500916235396318 -1 0 0
389 2 5 0.053 10.78284053130514 14.137832765317748 4.8309663856129275 0 -1 1
512 2 5 0.053 9.88486250365782 15.601039382719383 5.088186627620351 0 -1 1
332 2 5 0.053 10.171017969063186 13.670372984900935 2.809321896746865 0 -1 1
80 1 5 0.053 8.30748811321471 16.02617282932564 8.90170586081071 0 0 -1
385 2 5 0.053 10.06715609861179 15.42003730090639 2.324403058284063 0 -1 1
383 2 1 -0.159 10.48050674778952 15.098735660305458 4.372179386157839 0 -1 1
565 2 5 0.053 10.693930624928804 11.440756067311215 4.990129309530922 0 0 0
319 2 1 -0.106 5.404475046374632 16.92297624871246 2.185484717710542 0 -1 1
46 1 5 0.053 6.249899983814937 12.056092288505544 10.249445553083001 0 0 0
26 1 4 0.0265 1.6963708883988435 18.84447046741511 8.490509667035976 1 -1 1
84 2 1 -0.0233 3.3864693034720377 14.03672828496203 1.7954278334506755 0 0 1
77 1 11 -0.5571 10.416327687428216 15.145240383971181 9.858463415234402 0 0 -1
76 1 5 0.053 6.997613413893334 15.552677209826482 10.039593521882583 0 0 -1
106 1 5 0.053 16.53810116553988 18.77289757786083 2.9601694997278187 0 -1 1
143 1 10 -0.1595 19.435642158771298 10.84586265478297 10.403481333987576 0 -1 1
425 1 4 -0.1268 16.100922824167718 15.093212734891654 9.200896215310598 0 0 0
255 1 4 -0.1268 12.333365434538505 18.168573667217256 9.723850236098796 0 0 0
89 1 1 -0.106 14.440255267410693 17.63938744508349 1.7351372498663147 0 0 0
104 1 5 0.053 17.093474301377956 17.637688812008562 1.5585514929426696 0 -1 1
188 1 4 -0.1268 14.711931179452508 12.96981757179998 10.197401681505239 0 0 0
571 2 1 0.027 10.331627013104258 11.044388345800945 7.049700144666058 0 0 0
570 2 5 0.053 10.651130653304767 12.131904791724718 7.344631647985065 0 0 0
260 1 5 0.053 12.631246438174205 12.289321880769426 1.8584837082220447 0 0 0
17 1 4 -0.1268 10.849184816050311 18.69169143568118 4.254918718499758 0 -1 0
103 1 5 0.053 15.99978893689732 10.399268135983885 2.1347779908554445 0 0 0
203 1 5 0.053 18.47907515649141 14.455979413747299 7.354012775649883 -1 0 0
111 1 4 0 14.892699307503444 16.218467216998743 1.9226178065053683 0 0 0
540 1 7 0.4241 10.53434619902253 16.03062773705584 9.598051175879116 0 0 0
376 1 5 0.1268 16.28306800327548 13.975354331157748 7.329408209738901 0 0 0
9 1 10 -0.1595 13.947755490148165 18.306618585607712 6.402777884871787 0 -1 0
218 1 4 0 15.399018690018933 15.243598428791593 10.409749491932324 0 0 0
461 1 10 -0.1595 10.21691877904333 18.969513127648042 10.521088225102028 0 0 0
5 1 5 0.053 16.016849033754063 18.52391098584441 5.1200835986393125 0 -1 0
366 1 5 0.053 16.333523427330366 12.311569722214692 5.66998888948557 0 0 0
38 1 5 0.053 17.588739800816615 14.002470583549021 4.525769046777592 0 0 0
91 1 4 0 15.951826487094616 15.786474057095953 2.7598171012393653 0 0 0
426 1 5 0.1268 16.809515036281347 15.871645769561647 8.9952713772579 0 0 0
375 1 5 0.053 13.623127040048367 11.698932251382598 4.504212348159534 0 0 0
369 1 10 -0.1595 15.058703771967158 11.71651453999113 8.123703448224681 0 0 0
364 1 5 0.053 13.764268563992974 10.97985123693099 6.755997209152967 0 0 0
32 1 4 -0.1268 19.457854701991643 18.930131180372527 9.777798299763024 0 -1 1
99 1 5 0.053 17.11189290360023 15.664464558351936 5.214812493761135 0 -1 0
256 1 5 0.1268 11.957327230829923 18.450110756349535 8.688136353226213 0 0 0
108 1 2 0.08 18.65657297752234 18.558516184920023 2.577738649132084 0 -1 1
3 1 1 -0.0233 17.07544775232269 16.714503918486088 4.8239155836897805 0 -1 0
105 1 1 -0.0233 17.232536624260696 18.004133795863936 2.616367561947553 0 -1 1
8 1 1 0.027 14.687372798395398 17.1542856630931 5.957274892790131 0 -1 0
107 1 11 -0.5571 19.20668543975559 19.019883910189755 3.853497788453834 0 -1 1
365 1 5 0.053 13.742825876571775 12.63411234911322 6.801911430818391 0 0 0
374 1 4 -0.1268 15.949444312973881 13.950779754038487 8.369490900778697 0 0 0
574 2 5 0.1268 11.712068610789636 11.811542706536324 9.545285275075564 0 0 0
220 1 5 0.1268 14.132802187782653 17.213424739720466 9.059828232523133 0 0 0
1 1 11 -0.5571 16.80561717358298 17.863789984493923 6.963454689291221 0 -1 0
371 1 4 0.0265 15.211619470636156 12.859023392314706 8.882398509506068 0 0 0
217 1 4 -0.1268 13.5989455445284 17.564302695528774 9.913726000980837 0 0 0
367 1 1 0.027 14.473734018034271 11.820106795025326 6.862495924605261 0 0 0
577 2 4 -0.1268 11.136325175857769 10.887342364105015 9.948418133027404 0 0 0
14 1 4 -0.1268 11.76349909092286 18.26199573033973 5.242999086467103 0 -1 0
93 1 5 0.053 18.3901286754909 14.470151901323064 3.0328032261440603 0 0 0
97 1 7 0.4241 17.67229510909097 18.13747970235032 6.715838345072641 0 0 0
96 1 7 0.4241 18.661615814589258 1.5477078613923183 4.050414189562804 0 1 0
372 1 1 -0.0233 14.565631953538917 12.232172932948465 4.461068757716232 0 0 0
19 1 5 0.053 18.49112936944109 19.440203103961114 1.9802651515394842 0 -1 1
92 1 1 -0.159 17.479871456394278 13.930314695929786 3.470278975810923 0 0 0
6 1 5 0.053 14.751755821371285 16.451838975085593 6.764843335432533 0 -1 0
16 1 5 0.1268 11.58568992115837 17.404087478503826 5.852088262069462 0 -1 0
4 1 2 0.08 16.17438250304103 17.581365825327495 5.677949949364141 0 -1 0
373 1 5 0.053 14.401057269762623 13.310000553143963 4.7528556028879825 0 0 0
2 1 5 0.053 18.093545859502402 17.063681473214096 5.080199881122368 0 -1 0
95 1 8 -0.1654 16.892251584961834 16.774504457928842 3.366389216082667 0 0 0
368 1 2 0.08 15.425791029789641 11.690564596907201 5.64629827614584 0 0 0
110 1 5 0.053 12.34121909535143 17.30855182524641 2.421701270785827 0 0 0
267 1 4 0 14.202005892379173 13.871999986831193 1.7383213768183112 0 0 0
225 1 5 0.053 14.524678266270362 18.10170850170342 2.7168886345178755 0 0 0
381 2 5 0.053 11.389684927199252 15.544777035887863 4.0293161567225955 0 -1 1
112 1 4 0 16.198777171804252 14.419068647290402 2.9099315009056275 0 0 0
250 1 1 -0.0233 15.029514619012836 10.901993280718726 2.265237189072265 0 0 0
7 1 5 0.053 14.22940018628301 16.66457842358092 5.014635497006881 0 -1 0
155 1 8 -0.1654 15.213797939441376 12.125206073917207 3.170663761109025 0 0 0
94 1 5 0.053 17.651519396308466 12.879639860109883 3.199918753700704 0 0 0
145 1 5 0.1268 17.92711249612144 13.137379891122691 10.364393387800938 0 -1 1
85 1 1 -0.159 12.962419219847202 17.75470772983194 1.6227518771897245 0 0 0
245 1 5 0.053 6.746736382337027 2.9563222737028534 10.546675153229867 0 1 0
244 1 1 -0.0233 7.8441540668870315 2.660935342296357 10.554183733425145 0 1 0
584 1 5 0.1268 5.536327340014053 6.814921511306561 16.161088241660714 1 1 0
470 1 4 -0.1268 4.318243365861907 5.832969315944085 17.63351729446308 1 1 0
585 1 4 -0.1268 5.409621761452803 5.874232720771979 16.774413894275693 1 1 0
516 1 4 0 6.383414346979964 4.84677743409237 16.564885390598025 1 1 0
468 1 5 0.1268 3.6819820699323467 6.690184814663372 17.592730282109752 1 1 0
562 1 5 0.1268 8.678071708346428 6.813000172840443 16.027005015474245 1 1 0
477 1 4 -0.1268 9.248925095561216 5.912634613474909 16.174596417143647 1 1 0
475 1 4 0 8.64141272177055 4.761693752213695 15.697327500447784 1 1 0
513 1 5 0.053 6.941972195992024 5.850498112629268 14.837419903766637 1 1 0
519 1 9 -0.266 5.159547323153726 8.774633521882528 14.408535466551221 0 0 0
521 1 3 0.08 4.170291755373164 9.74759441524535 14.861797599818756 0 0 0
520 1 1 0.027 3.1488231117577365 9.143798155892132 15.885497871133389 0 0 0
358 1 10 -0.1595 2.236563127439326 8.136463889338827 15.48242565901566 0 0 0
515 1 1 -0.106 7.2217921493457515 4.864684702193319 15.289454394178907 1 1 0
333 1 4 -0.1268 6.252849050618711 3.808899163752738 17.46526329474986 1 1 0
478 1 4 -0.1268 9.432571662597056 3.598353912095934 15.619771630352446 1 1 0
469 1 4 0.0265 4.184110397960815 4.7673177981207395 18.467749571005946 1 1 0
331 1 4 -0.1268 5.2571432963546965 3.8501860252914915 18.41280660990616 1 1 0
522 1 5 0.053 3.5960194586345344 8.684128713997907 12.979368688565232 0 0 0
514 1 5 0.053 6.880182542574913 4.088103340980409 14.547749453035344 1 1 0
237 3 5 0.1268 4.186270568469913 4.3489125429610205 15.007503356649494 0 0 0
231 3 4 0 3.8208697591520995 3.778376837454516 13.048492067122629 0 0 0
201 3 4 -0.1268 4.011437208048537 3.4940730984032364 14.35267228332706 0 0 0
228 3 5 0.053 3.5479827113331437 5.974714748797129 13.129052682700648 0 0 0
229 3 1 -0.106 3.6043791803705156 5.2234701182614645 12.365662698818543 0 0 0
523 1 1 0.027 4.329425926887217 9.364263637311932 13.452696395548404 0 0 0
524 1 5 0.053 3.7716283116848666 8.69394185456517 16.67766954611648 0 0 0
242 1 5 0.053 8.2803047683622 3.5828928788394343 11.111631364676205 0 1 0
445 3 4 -0.1268 3.9269825955048487 2.745176593361843 12.149669007916192 0 0 0
404 3 4 -0.1268 4.290778085066444 2.2114108976489657 14.834868290024769 0 0 0
467 1 10 -0.1595 3.121482172321235 4.502590205666415 19.31069836228251 1 1 0
330 1 5 0.1268 5.211692552252519 2.9435203489249178 19.076209283408765 1 1 0
272 1 5 0.1268 6.993559396894523 2.9515116695176316 17.59356991640516 1 1 0
476 1 5 0.1268 9.054107435795888 2.6678814482778126 15.24650311044893 1 1 0
457 2 5 0.1268 9.04487579196 8.290318544474959 11.934800819819678 0 0 0
456 2 4 -0.1268 9.643146728898294 9.092639953828368 11.461472793962482 0 0 0
409 3 5 0.1268 4.539652010381298 2.096086654111736 15.912171264404268 0 0 0
473 1 1 0.027 1.9676521116095287 5.322493881346318 19.273322571886606 1 1 0
192 1 5 0.1268 7.33238160157185 10.06564613766282 15.19985783792358 0 0 -1
185 1 4 0 9.21827379262195 10.65216354570902 17.892335203153653 0 0 -1
183 1 5 0.053 7.1443557624047695 11.003354268758288 17.446268577638243 0 0 -1
518 1 5 0.053 2.512395248568219 9.947479881812413 16.32378067317476 0 0 0
243 1 11 -0.5571 7.428007879657833 1.5851594707811127 12.794851246060043 0 1 0
247 1 2 0.08 7.989922398316329 19.599191985140937 11.490856444097531 0 0 0
443 1 5 0.053 1.6937761966841198 5.495562528372795 18.18040144048033 1 1 0
191 1 5 0.1268 10.542618795581468 10.579364640524522 16.231015233940855 0 0 -1
136 1 4 -0.1268 10.348394135724437 10.261581976932183 17.26494568513383 0 0 -1
525 1 5 0.053 4.504022039397607 10.707167743588627 15.225893810059894 0 0 0
314 1 5 0.053 9.655932706916568 5.145506255903399 12.539682113092763 0 0 0
526 1 5 0.053 4.908063690923624 10.050633093449731 12.738954427448807 0 0 0
495 1 5 0.1268 1.7866125506473614 2.8758548035750326 17.078273852864147 1 0 0
175 1 7 0.4241 6.954497248640476 2.412121163735166 12.635744079621379 0 1 0
549 2 5 0.053 10.19294416565748 8.776030520851887 14.10599231380622 0 0 0
148 1 4 -0.1268 18.964161969994027 13.214909725457334 10.67688427408172 0 -1 1
226 3 5 0.053 4.502084462048813 5.422408063304579 11.860663121452152 0 0 0
24 1 4 -0.1268 19.394133868825023 14.479415612653572 10.969886015715844 0 -1 1
120 1 5 0.1268 8.7461497100775 6.28339689146204 19.294617946467195 0 0 -1
172 1 5 0.053 5.966445662420892 6.845488825924965 19.613341207571732 0 0 -1
233 3 4 0 2.3890346308846127 5.192748286166698 11.466351706850213 0 0 0
444 3 5 0.1268 3.9582585253163227 2.959654866262146 11.058408887044495 0 0 0
127 1 5 0.1268 10.005080541761401 4.314852338887137 18.96251260056726 0 0 -1
460 2 5 0.053 10.239850896169662 10.464100201161365 14.066608045485536 0 0 0
180 1 4 -0.1268 9.184751012564892 10.405814847223807 19.297295635502994 0 0 -1
497 1 4 -0.1268 1.5423045787551892 1.805209504224099 16.936024478088868 1 0 0
28 1 5 0.1268 18.744683268957214 15.369545774848987 10.871256499173295 0 -1 1
479 1 4 -0.1268 10.586803475455804 5.966123478479468 16.527757385307517 1 1 0
563 1 5 0.1268 10.99801068355664 6.902504724215218 16.961857179338722 1 1 0
212 2 5 0.053 19.439613046727107 8.671450282618215 18.208207864642336 0 0 0
87 1 5 0.053 12.708575676197146 18.79490360043048 19.65805744317006 0 0 -1
486 1 9 -0.266 15.232699451018 4.530827249228681 18.869165203639653 1 1 0
493 1 5 0.053 14.028373626265516 2.832894941231068 18.3895956732786 1 1 0
458 1 5 0.053 19.6455922990018 3.0843910143010036 14.688162345301937 0 0 0
581 2 1 -0.106 10.778907160677388 9.664879881934018 13.620704313912142 0 0 0
580 2 4 0 10.655090058529021 9.71031083056622 12.126022189089184 0 0 0
353 1 4 0.0265 19.55861163066774 8.54768467268472 14.612262247985166 -1 0 0
350 1 4 -0.1268 19.410407494555407 9.89351162223645 14.175636089207291 -1 0 0
315 1 5 0.053 11.282131068665645 3.6113599962138316 11.370536653432753 0 0 0
480 1 4 -0.1268 10.737618181996265 3.591615418525021 16.109319374435756 1 1 0
239 3 4 -0.1268 18.339046428639353 4.604064568373211 11.094365429004302 -1 0 0
311 1 1 0.027 10.75932986513739 5.34915904527546 12.613481047377062 0 0 0
308 1 5 0.053 10.865118868152313 5.888020343317202 13.515239895783626 0 0 0
114 1 7 0.4241 17.31113013572204 4.306234185466758 19.140593687156393 -1 0 -1
135 1 4 -0.1268 11.285890006649629 9.454797478624677 17.830816837833098 0 0 -1
290 1 5 0.1268 18.55680167973234 6.511042217430961 14.32930965690749 -1 0 0
482 1 4 0.0265 11.324530747610554 4.788628994477419 16.575272153747164 1 1 0
481 1 5 0.1268 11.370207924500987 2.6426751687508023 16.062922540121136 1 1 0
352 1 4 -0.1268 18.543473472871472 7.632547507236882 14.142951582264928 -1 0 0
137 1 5 0.1268 12.081342479391557 9.063968849672639 17.1471023855298 0 0 -1
235 3 4 -0.1268 19.41095207835444 4.733041558813879 11.918110162663051 -1 0 0
236 3 5 0.1268 19.191822948189202 4.478408958782778 12.991576788716918 -1 0 0
313 1 9 -0.266 11.575784419681844 5.614942115910922 11.530985128671977 0 0 0
348 1 4 -0.1268 17.516037056008095 8.00553421055277 13.265298147099424 -1 0 0
284 1 5 0.1268 16.77463515199345 7.260408387587201 12.882399502101821 -1 0 0
419 2 5 0.1268 12.338280552481725 7.499947789986054 13.720030782686937 0 0 0
210 2 1 0.027 18.377476367701533 8.876967626639997 17.992265512953292 0 0 0
312 1 3 0.08 11.671942802568292 4.3177369743297405 12.133628298332864 0 0 0
214 2 5 0.053 18.0778705045513 6.757109160045548 17.385439463050048 0 0 0
342 1 4 0 17.421976072177543 9.310603600033534 12.886550048926187 -1 0 0
418 2 4 -0.1268 12.863678072994114 8.305826257968615 14.158298557864496 0 0 0
213 2 9 -0.266 17.429155863837728 8.186927962529515 18.891661168152336 0 0 0
310 1 1 0.027 13.02345715440402 3.7677361977201222 12.685878605550645 0 0 0
211 2 3 0.08 17.58290717160383 7.744979073229378 17.550168937805523 0 0 0
208 2 1 0.027 16.24113367987166 7.762922974299516 16.700632994691944 0 0 0
414 2 4 0.0265 14.657914011743983 9.205403271238005 15.555394812167258 0 0 0
416 2 5 0.1268 14.44779146149505 7.122210540916569 14.994304542110031 0 0 0
415 2 4 -0.1268 14.03764638733459 8.148821289478809 14.904269199087677 0 0 0
413 2 10 -0.1595 15.741093468599988 9.028669660100373 16.378015119545744 0 0 0
206 2 5 0.053 15.50864045453929 7.247064690835796 17.356454814784822 0 0 0
209 2 5 0.053 16.45522968899837 7.1760958287708005 15.79197347897441 0 0 0
306 1 10 -0.1595 13.829562910220265 4.372126674300173 13.69536934433788 0 0 0
304 1 4 0.0265 15.014026107678925 3.6696378212668894 13.994737637493246 0 0 0
133 1 5 0.053 13.589387284325728 9.811672572817848 18.73597446183319 0 0 -1
309 1 5 0.053 13.627674508784697 3.7187338035934236 11.776644166930513 0 0 0
377 1 5 0.053 12.867748899095954 2.733028966906305 12.976696666138825 0 0 0
240 3 5 0.1268 17.42118270685004 4.29459968848604 11.590192730098531 -1 0 0
484 1 10 -0.1595 12.605619945990657 4.83748175379513 16.95595215368811 1 1 0
305 1 4 -0.1268 15.731922786025752 4.139659888164384 15.042048654446674 0 0 0
302 1 4 -0.1268 17.04491250486518 3.631014526441872 15.268615051384737 0 0 0
307 1 5 0.1268 15.493072287186042 5.088324934504535 15.578579749115068 0 0 0
303 1 5 0.1268 17.644409508092775 4.073896050278464 16.081429304921127 0 0 0
130 1 4 0.0265 11.28035632508203 9.184384423292208 19.213774935243393 0 0 -1
466 1 11 -0.5571 18.249190330685483 4.1378180840642695 18.9073426792537 0 1 0
417 2 4 0 12.238063013392498 9.569421165670763 14.134337287234574 0 0 0
301 1 4 -0.1268 15.533843529443091 2.6044048444296455 13.267697200615372 0 0 0
207 2 5 0.053 18.103282982790144 9.929553614740655 17.782809306174887 0 0 0
412 2 4 -0.1268 14.13881133383922 10.531749524182374 15.28485396714142 0 0 0
455 2 4 -0.1268 12.886876798934248 10.617901593537448 14.73427539584024 0 0 0
298 1 4 -0.1268 16.74744868597812 2.014220338742126 13.565602426414072 0 0 0
300 1 5 0.1268 14.857947132202773 2.0487447851722917 12.641410050386911 0 0 0
299 1 4 0 17.603264205285047 2.600567755902489 14.537635006457355 0 0 0
391 1 5 0.1268 13.643562559644092 8.95291815670479 11.723424382757337 -1 0 0
334 1 4 0 15.598529067817125 9.288105318223145 10.900612326697209 -1 0 0
485 1 5 0.053 13.482283804475806 6.483815090404294 17.877837967636328 1 1 0
295 1 1 -0.106 19.026907468938607 2.159825289121726 14.610501781947374 0 0 0
491 1 5 0.053 12.07358352081769 5.75118680898079 18.818440895831394 1 1 0
487 1 1 0.027 12.947374500088335 5.483210427672082 18.185563912760156 1 1 0
390 1 4 -0.1268 14.32682175652845 8.89936589238838 10.868807310286812 -1 0 0
490 1 3 0.08 13.836067985409679 4.759413403851913 19.236101597364772 1 1 0
296 1 5 0.1268 17.120227240520308 19.477532890704108 12.965307509360397 0 -1 0
343 1 4 -0.1268 18.452492766053545 10.22588708504838 13.27736945007136 -1 0 0
337 1 1 -0.106 16.135617981923566 9.920066499291531 12.251529197950651 -1 0 0
338 1 5 0.053 15.3693284384019 9.855431102025486 12.964686841740779 -1 0 0
492 1 1 0.027 14.372462445042725 3.4024863984960163 19.243816912077673 1 1 0
293 1 5 0.053 19.410773136953388 1.6098494398486913 13.666813884823561 0 0 0
499 1 4 0 19.218159130956185 19.52875875875568 15.816778462095186 0 -1 0
459 1 5 0.053 9.96333054966887 1.4498867883713373 12.400230046509165 0 1 0
397 3 4 -0.1268 4.173654081152431 19.709881438467146 12.567736926837258 0 -1 0
400 3 4 0.0265 4.358189634326375 19.37638276692394 13.898606693829814 0 -1 0
187 1 1 -0.106 8.013087904919624 11.560973592343535 17.413651455957535 0 0 -1
189 1 5 0.053 8.035981877336102 12.444182833036539 18.09071734640032 0 0 -1
252 1 1 0.027 9.398347498340087 19.03090879114506 11.700236145339511 0 0 0
517 1 5 0.1268 1.8234792511237101 10.718299337905856 14.41751027804366 0 0 0
146 1 4 0.0265 1.536369181361127 12.111595203829458 10.832877312662434 1 -1 1
396 3 5 0.1268 4.223173011687547 18.979727146694433 11.737160096123732 0 -1 0
190 1 4 -0.1268 7.689489612690584 11.096349249971459 14.921157459568732 0 0 -1
559 2 11 -0.5571 4.77025849849689 12.056985155486592 19.350758230354547 0 0 0
316 2 5 0.053 5.4584088450195205 17.008363748044047 19.359772774102915 0 -1 0
186 1 4 0 8.169378806955814 12.00354837053463 15.946334151494984 0 0 -1
61 1 5 0.1268 7.336528746085192 10.741715829605258 12.85956607286745 0 0 -1
408 3 5 0.053 3.95969560421251 17.961027114771717 16.26588391233905 0 -1 0
253 1 5 0.053 9.29799323894936 18.03142647853485 12.245782304253 0 0 0
86 2 2 0.08 4.230963473806451 13.37355213991524 18.977977539124417 0 0 0
410 3 5 0.053 5.524009179334719 18.594837884011664 16.042156029148213 0 -1 0
537 2 5 0.053 2.5625147876892864 12.417772396860355 17.93177201925197 0 0 0
90 2 5 0.053 3.9422349758409023 12.450425989969814 16.989423023898766 0 0 0
60 1 4 -0.1268 7.732671057697385 11.477780094382425 13.558121904928253 0 0 -1
541 3 5 0.053 5.492823068494943 14.313658726568628 16.00709844210739 0 -1 0
543 3 9 -0.266 6.7307352842679276 15.974981166085435 15.54543558789566 0 -1 0
544 3 1 0.027 5.4723704394999535 15.232721008920633 15.444758403719558 0 -1 0
538 3 5 0.053 5.618149916611413 16.374032951283812 17.200320693990502 0 -1 0
548 3 5 0.053 4.912946207290039 15.225864829106758 14.544916434804472 0 -1 0
55 1 1 0.027 9.249234790831299 13.829226662709907 11.50650289492498 0 0 -1
405 3 3 0.08 5.531534112661473 16.490798446006842 16.077908864665805 0 -1 0
58 1 4 0.0265 8.056328988185097 12.82959566570208 13.245482838079344 0 0 -1
59 1 10 -0.1595 7.98842987273615 13.23312978573933 11.920731644777984 0 0 -1
182 1 4 -0.1268 8.597623795040992 13.221194750460553 15.561315040370905 0 0 -1
181 1 4 -0.1268 8.405169470793302 13.706889935959106 14.248205258885227 0 0 -1
406 3 1 0.027 4.891732562029588 17.833739479702388 15.666546520909034 0 -1 0
402 3 10 -0.1595 4.514869989204088 18.049677726709536 14.32670474292168 0 -1 0
51 1 5 0.1268 8.605603417128886 14.802699189257496 14.074452396970527 0 0 -1
178 1 5 0.1268 8.886619326831186 13.911261003827969 16.390609432804723 0 0 -1
27 1 5 0.1268 4.15523545440176 13.717101888397709 12.32022309404838 1 -1 1
561 2 1 0.027 3.40388624504396 13.069062670103198 17.70027858411606 0 0 0
558 2 10 -0.1595 2.8668921053108223 14.301930771680901 17.23588396895061 0 0 0
536 2 5 0.1268 2.5123226877045095 14.936726897216154 14.786766256358161 0 0 0
88 2 5 0.053 4.994456231535411 14.09733268131847 18.611665262785948 0 0 0
81 1 5 0.053 9.149282756324155 16.041519552366026 11.192317817297152 0 0 -1
197 2 3 0.08 9.824080756037935 16.86693960544404 17.735776756172122 -1 0 0
462 1 4 0.0265 11.50658553658591 18.41650794658919 10.753965428157617 0 0 0
199 2 9 -0.266 8.50064989061541 16.38111732520592 17.968093828847046 -1 0 0
196 2 1 0.027 8.71732951489975 17.630940341402884 17.23971829815892 -1 0 0
198 2 5 0.053 8.3768734371646 18.520089361569177 17.73701233006285 -1 0 0
54 1 5 0.053 9.94775672219781 14.054964319406855 12.29280472974983 0 0 -1
496 1 5 0.1268 2.279010313905504 19.620113989308614 18.94645870354925 1 -1 0
194 2 5 0.053 8.365767198154355 17.604321798112444 16.208314597158562 -1 0 0
82 2 5 0.053 3.07341829508604 14.973163989263549 19.663017171533838 0 0 0
556 2 4 0.0265 1.66455040092118 14.15867722785473 16.620197406193476 0 0 0
498 1 4 -0.1268 1.6879126773653488 19.224231936989163 18.111922868204694 1 -1 0
34 1 5 0.053 3.9057490011011957 16.109876816604064 12.096442532184424 1 -1 1
25 1 4 -0.1268 3.2493770458115776 13.596216533597628 11.713074688796594 1 -1 1
147 1 5 0.1268 3.575194996477286 11.504006652849753 11.644513451510644 1 -1 1
29 1 4 0 2.408399714502835 14.67785010157037 11.504487845380694 1 -1 1
149 1 4 -0.1268 2.8097073295919555 12.284328398186721 11.39554803337472 1 -1 1
31 1 1 -0.106 2.8309260596295047 16.141023271319035 11.751845769630298 1 -1 1
246 1 5 0.053 7.41532278584244 18.79497024925595 10.938903336698836 0 0 0
398 2 5 0.053 9.973077985667153 15.788946841503847 15.978910161587708 -1 0 0
33 1 4 -0.1268 1.593711654921861 18.13774507076296 10.804421855733677 1 -1 1
560 2 4 -0.1268 1.6340568967762774 14.576388160233089 15.281939425151217 0 0 0
35 1 5 0.053 2.266889422582918 16.5034609928208 12.654782616013176 1 -1 1
30 1 4 0 2.5439236353845662 17.146714352865928 10.61742697203337 1 -1 1
579 2 5 0.1268 12.083440041500054 11.254639368925114 11.880783629908622 0 0 0
262 1 1 -0.106 12.966651647449298 13.084904476545645 19.47899360390988 0 0 -1
434 2 1 -0.106 16.291446332371635 14.068859323288857 14.207515753987778 -1 0 0
216 1 4 -0.1268 14.72446722078908 14.15247696470768 10.928650580949295 0 0 0
421 1 4 -0.1268 11.947981737422944 18.0215045661934 12.03593496195583 0 0 0
420 1 5 0.1268 11.28223593073809 18.301274740175923 12.823935646514181 0 0 0
200 2 5 0.053 10.31640093969032 17.17583639182561 18.643351478933933 -1 0 0
215 1 5 0.1268 14.20389802595019 14.211251388866941 11.911057613105811 0 0 0
264 1 5 0.053 13.747802147305269 13.146702658244322 17.351038650961293 0 0 -1
83 1 5 0.053 12.656288945359382 17.38157054444376 18.871744947519442 0 0 -1
433 2 5 0.1268 16.186633458337404 16.212751415382762 15.847566463177621 -1 0 0
395 2 5 0.1268 11.749199745095051 14.340041383363099 14.86413435520787 -1 0 0
503 1 4 -0.1268 18.721036191755267 17.487491243686772 16.923917380833046 0 -1 0
429 2 5 0.053 15.998561099045489 13.014663211236098 14.035683248140812 -1 0 0
500 1 4 0.0265 19.434735247329435 17.905081331073827 18.029355795134137 0 -1 0
505 1 5 0.1268 18.147693189858522 16.530591723047692 17.02278816460336 0 -1 0
268 1 4 -0.1268 14.163377534484868 15.187119798937534 19.67501487569767 0 0 -1
501 1 10 -0.1595 19.55332600737868 16.97182832084657 19.066020408488153 0 -1 0
553 2 4 -0.1268 17.576637863666367 13.471032173811516 16.398811823834997 -1 0 0
259 1 5 0.053 13.13126503148093 11.600903066981752 17.844108347460104 0 0 -1
411 2 5 0.1268 14.63091596829282 11.446562987285809 15.682104505267027 0 0 0
219 1 1 -0.106 15.413197178163374 16.56119078235292 11.255279263426088 0 0 0
436 2 4 0 15.07837049813736 14.750161064065402 14.739295364708212 -1 0 0
431 2 5 0.053 16.642168963916685 14.600379474674169 13.305814050652424 -1 0 0
163 2 5 0.053 11.051202886913174 15.188202892727974 17.133745289658066 -1 0 0
554 2 4 -0.1268 18.709653292264225 13.698856277881404 17.236073436358975 -1 0 0
263 1 1 -0.159 13.046692131613737 12.624552920351409 18.016181364860362 0 0 -1
438 2 4 -0.1268 14.142822670154173 16.60148530633027 15.927353877646123 -1 0 0
62 1 5 0.053 14.92916072456482 18.15779917710974 19.142680610947757 0 0 -1
36 1 5 0.1268 19.42078100745897 18.161366598560928 11.812922651474956 0 -1 1
427 1 5 0.053 15.770095448576148 16.348805027385836 12.263494155122482 0 0 0
550 2 5 0.1268 16.676939425489188 12.990796440579995 16.857882886000716 -1 0 0
440 2 5 0.1268 18.722524361686826 14.979688759351085 13.591277682649627 -1 0 0
336 1 5 0.053 16.262032891917713 10.970429884333743 12.014735543229891 -1 0 0
393 2 4 -0.1268 12.681077533179455 14.908999346687038 15.073797550029424 -1 0 0
441 2 5 0.1268 13.652566020766583 13.187227616647206 14.304172799588066 -1 0 0
423 1 4 -0.1268 13.263350956339398 17.51164044806701 12.217344482645961 0 0 0
454 2 5 0.1268 12.40345726276638 11.594856372245342 14.579930179336907 0 0 0
435 2 4 -0.1268 15.233189124152391 15.900400447151458 15.485478999142792 -1 0 0
422 1 5 0.1268 13.57645584262704 17.253839428290284 13.201180131645584 0 0 0
555 2 4 0 17.569520379715293 14.016054531085468 15.112947525546101 -1 0 0
551 2 5 0.1268 18.721311225253686 13.330815483664848 18.302121690098936 -1 0 0
266 1 5 0.1268 13.425408525158524 15.502477888255036 18.904044023409647 0 0 -1
442 2 4 0.0265 12.84466833789157 16.137558754630113 15.712909441673554 -1 0 0
265 1 5 0.053 12.02089836909189 12.954035113165828 17.57122474805248 0 0 -1
394 2 10 -0.1595 11.820731699485082 16.8823760888155 16.089054732417296 -1 0 0
339 1 5 0.1268 18.273756194524378 11.256034990737922 12.998521328253043 -1 0 0
437 2 5 0.1268 14.288412439564913 17.56379925644238 16.37520264786373 -1 0 0
557 2 4 -0.1268 18.746986981011 14.535527003992485 14.5767661228658 -1 0 0
578 2 4 -0.1268 11.346037244807295 10.687995670380655 11.317355408791986 0 0 0
195 2 1 0.027 10.724717408715883 16.1585178747981 16.70188030438547 -1 0 0
502 1 4 -0.1268 18.696127181243426 18.272926626213305 15.796784125162198 0 -1 0
439 2 4 -0.1268 13.783407213870058 14.223736614556564 14.611918729333158 -1 0 0
463 1 5 0.1268 18.445545344511675 17.892883496629366 14.760899530298069 0 -1 0
424 1 4 0 14.095966501790919 17.24793098577821 11.157623341487227 0 0 0
170 1 5 0.053 5.9459756328217 9.338797918466575 19.47612464640184 0 0 -1
102 1 5 0.053 14.956619961860904 11.320915024139511 19.41777775569139 0 0 -1
167 1 5 0.053 7.536493958844457 7.729150086146477 19.52274200654761 0 0 -1
131 1 1 0.027 13.622991883595265 9.089096173188224 19.59838102563944 0 0 -1
134 1 5 0.053 14.390777959465733 8.409181261212375 19.199960444019087 0 0 -1
221 1 5 0.053 16.220225689886732 17.260223628854884 10.979648028458001 0 0 0
52 1 5 0.053 9.798353737370574 13.07104418966559 10.938514245844036 0 0 -1
261 1 5 0.053 12.14056358341539 13.803947795561815 19.462626794412724 0 0 -1
471 1 5 0.053 2.149277292465988 6.406584098802907 19.688441076169 1 1 0
79 1 2 0.08 9.166806412070382 15.088925953529051 10.595806077073568 0 0 -1
184 1 5 0.1268 14.174171406613315 12.025179397474437 10.648693973756982 0 0 0

Velocities

447 0.0019020622032960776 -0.001416374530656069 0.0009390564974714523
351 0.0030460524933734103 0.003253177004099748 -0.0008126256891677514
448 -0.015886562207675488 0.016449628369643605 -0.005721849017112337
446 -0.009069384530511905 -0.011696396895616029 0.001591055570533217
450 0.0032335235141678974 0.0017080203072279746 0.0050456451194549395
285 -0.002882075709378409 0.00019903830190186745 -0.00041533411254982065
286 -0.004605213665183276 -0.002626418973675946 0.0004933264334764672
349 -0.0003985354148544729 -0.011719333520838754 -9.802185383550819e-05
345 -0.007330217094691613 0.00026667107832540645 -0.0034478613893620487
47 0.0009279460178862123 0.003366301067817269 -0.00017054208204360808
45 0.0014378432050128574 0.002269224925943908 0.00433348577887022
49 0.005467623207198857 -0.005612660128493683 -0.0026579681083037875
50 -0.017868493543354295 0.01046742597250563 -0.02529080789104591
344 0.001440931806215597 -0.0052896961853374225 0.0030585370371074144
347 0.004081830234202656 0.000170318685820155 -0.0019782349063535874
403 -0.0001407619499050318 -0.0076780805071795894 0.0009029069711683755
401 -0.016580232628246736 -0.01279786054641435 0.009121238539782353
177 0.0017166769208792705 0.0013806777986977532 0.00278452123653104
341 0.03376757746030045 0.003907755982246575 -0.00774357241025785
173 -0.0015598948140808544 -0.005504643097393384 0.00018852500192621934
162 0.004023427104051648 -0.007616409402191986 0.003923746039367523
165 -0.0050777965661163195 0.004666483991384144 0.003004575940768429
174 0.0001298895106789383 0.004311765371958708 -0.002414931620094276
160 -0.0009036228896849684 0.005259639958530849 0.004373337024559435
161 -0.011139190566715739 0.019615721382774714 0.017118902882478026
356 -0.0005089013373147229 0.011043282112910068 -0.005978821367998804
354 -3.557920729394425e-05 -0.007657000618252601 0.0014113458024336324
346 -0.013677672384612087 0.00981225644322301 0.0012165675666450566
283 0.002386789767652215 -0.00028107324605060194 0.0050334738972159145
281 -0.002949738009532044 -0.007588476427796923 8.876984507416866e-05
171 0.011915722510627431 0.028717404634773038 0.027117917445713496
169 -0.0008713662997190284 -0.009812983205472145 0.001268250664693646
166 0.006488124421132656 -0.005109457901496896 0.007938453483801818
399 0.0022652498284247546 -0.012970030272464891 0.012974850953971398
340 -0.01243108402336926 -0.010890540268756882 -0.007966589370799816
359 -0.004817527272431125 -0.029512704702071055 0.04460564559605154
73 -0.011600983769903329 -0.02826984072303747 0.00891071036843808
139 0.0005021589007088113 -0.006632930078666084 -0.006384541545252486
140 0.003137652523790766 -0.0020528712399268726 0.0006866936188594065
164 0.006463842586554394 0.016157395792997888 0.014363776798124232
407 0.02039759366054146 0.029732041143257656 -0.021206655214734683
452 -0.012375965304271652 0.004325658223825656 -0.006225743786970539
39 0.0010635413012231377 -0.0017418753664311649 -0.002091421320535392
41 0.0017913779978341023 -0.00439794895238434 0.0022012452546416395
282 -0.0011702018455683509 0.0004783153380119256 0.0037617403710629403
280 0.0022601325507526624 0.004000051774369194 -0.0030681200556334116
357 -0.0010524703360265133 0.005947875451465111 0.007884181574098861
564 -0.002055329585035187 -0.000935607519628015 0.003163066677904759
271 0.0008925915833206563 -0.0047955622511963135 0.01947619276296335
142 0.001534122826862807 -0.0043966564411182015 -0.00381152477368219
449 -0.01719483129495774 -0.0013320135539835831 -0.007344552432108204
361 0.009215065162160628 -0.002109493819800182 -0.002009927768201108
159 -0.003238787330439635 -0.035350124963849906 0.013416568038576313
483 -0.005446810440983054 0.014451142432238518 -0.0015714305118996253
176 0.00032820981416211586 -0.007576528171874724 0.0015371169265272326
124 0.0009680447597518378 0.0012488168136557804 0.005730436314701349
43 -0.0012460466543002804 0.009720273783916144 -0.00698296154928195
453 -0.0009777642483459411 -0.006646597218584283 -0.005456925850751279
168 0.008472548549975959 7.352924808747764e-05 0.0029944748707732122
230 0.017407810037528518 -0.02516451078862245 0.005149247810931168
507 0.017576029497613825 -0.0017472658372030961 -0.0007426694945275639
363 0.0018247949530778233 0.012063886198968272 -0.00649579719239855
144 0.006416695522563803 0.021728786141647173 0.019999463708920345
529 0.012118014008703831 0.002680333278406183 0.0020365757365344334
222 0.011090626805092381 0.005323349074987851 0.005067705290497595
138 -0.024283189780793062 -0.018716366317482337 0.01063436235757175
232 -0.001998284547236693 0.0006803966944312996 0.00877257225346105
141 0.016350060423423983 -0.008819190114652126 0.01637115528015055
575 -0.012394496706354742 -0.0034609370774405825 0.0025659973450949435
42 -0.014716179313141217 0.011203497158775588 0.020329910346717495
465 0.02319578194884554 0.00943049242293495 -0.00014028668982853494
40 -0.012014472380281119 0.012978338136449925 -0.010356408207672268
288 -0.017368337259826408 0.00474363951483734 -0.028915550840996337
329 0.03131915270161104 0.005880841321046214 0.024657985697645806
534 0.004255923558748572 0.0066118870212792365 -0.003192749666097192
12 -0.001195796601264986 -0.0018314361706237015 -0.004067825437388161
56 -0.0001229256586506521 0.0007089342702178767 -0.0006740866209225906
573 -0.0054466480078221155 0.0021057724039652507 -0.00649305530438345
279 -0.0049174334100300495 0.023262752271608438 0.003825793930743033
278 0.007573765106009293 -0.005432581677608876 0.003012234414865573
360 -0.01263592338781961 -0.011591701332433322 0.02233115178410919
269 0.0027935162042789265 0.0022024848277972537 0.0010877077550351733
528 -0.002818404566268113 0.006679709143636204 -1.2310712245149726e-05
128 0.0051633426091923585 0.007193197515323081 0.003078713893657338
223 0.0018434775251189278 -0.008875390693171111 0.0034189196805102556
362 -0.01622350702952266 -0.019183796004147203 0.002800238080003448
224 0.03437643019409679 -0.009016007820431915 -0.007777253707671794
126 -0.005707167283737569 -0.010108305638695114 0.005917301777445536
530 -0.0022218309861409607 0.015370331980252961 0.004835538698140751
494 0.011005400365082909 -0.010018512115979053 -0.02918451908465246
270 -0.014356188878290784 0.0037987673829060586 -0.0159781996426335
53 -0.018640129818122003 0.007521973847465726 0.00119287260088176
116 -0.002727276492270719 0.0007446583903168993 -0.0006136008527360007
392 -0.00484408069338232 0.005970001522255723 0.0012075447640443743
234 0.0021571698295261054 0.0014159257177011088 0.003301037988675425
118 0.01910134571350334 0.01114428341199598 -0.016669229203419844
297 -0.01159689980098279 -0.003354131287879094 -0.0026909645858513354
532 0.0012252981887043738 0.0040212430873733575 -0.0034102330845775693
508 0.00016934602684847902 0.014921368237809578 -0.016598505641320514
533 0.01754356990827583 0.009091948624926164 0.016400341612082692
123 -0.0024937548311532703 0.0019414513871821406 0.00472348700441498
531 -0.003996165605428958 0.0009173652500395862 -0.0021987370651691813
527 0.00021781932608543668 0.004633670946566159 0.0036111937662799956
277 0.0027132881290868553 -0.0020841265787835328 -0.001134992318503615
115 -0.005558088053550167 -0.015834011192191196 -0.002418697583476241
157 -0.010494505045287098 0.002844624815766424 0.012227038266524297
276 0.006463608500444512 0.004717534377520413 -0.003568575174224788
355 0.015159682196469636 0.01181313147554668 0.0009163010212643209
432 -0.03439401978728997 -0.007998069351321418 -0.015139760006037886
113 -0.00651340347205995 0.005258299536171864 -0.0020863969204642243
117 0.0009540778566826476 -0.015802481746847303 0.004495795345366351
274 -0.00798094896049276 0.0007534953114289598 0.003952432653247554
158 0.012589294569856828 -0.003531022507519791 -0.01805249532556988
193 -1.7724845834527292e-05 0.0017220418043110398 -0.001809451335709951
275 -0.01995200594081695 -0.0010706063066355479 0.005535676853949296
379 -0.005011599911909547 -0.00018281049239520894 -0.007940872238739094
273 -0.0004907872748495796 0.0008250225969214246 -0.009274743725436498
428 0.02975468324018589 0.006269198853361748 -0.01975892931372805
430 -0.000478879657476698 -0.001946229468928186 -0.0023308382998816425
378 0.0029440772975444954 -0.026907346123002836 -0.015448859839514027
380 0.000770899754702978 0.0006286553140955791 -0.0016162941028423118
384 4.082010017284935e-05 0.0015733002802591498 -0.002837580800168072
388 -0.0018315262001865043 9.005310971095123e-05 0.0033571722069124345
387 0.0031263588930286385 0.01816849804265602 -0.006624973167314519
292 0.02009853286531021 -0.016090154062135948 0.025147818186040654
125 -0.004362428272251808 -0.003909081878058615 0.0008384637790014704
241 0.0032303456954268163 0.00014602824642436416 -0.0011557899029518415
251 0.008602036212735982 -0.0008607900658756343 0.006740658248408657
153 -0.013008773047285127 0.012356781106094209 -0.005106614710737374
291 -0.008146775811576702 -0.0003193492775881507 0.005745155229131177
294 -0.006467388506160066 -0.0037406996636463468 -0.0007089291848685136
386 -0.006088227821013526 -0.0025518698502203343 -0.0006103391620262997
121 -0.0017499543272439958 -0.001515531326440192 -0.003649241331412084
335 0.005772103017042151 -0.012783631440993972 0.022334145902366355
249 0.0014505012162925371 0.0056663042364710975 0.021593699093373334
227 0.003256904506477142 0.028842758320541766 -0.004051637897268652
238 0.0006168380769559043 -0.002589284600188789 -0.000944854778649385
382 0.0008539985947268911 -0.0021110804626733944 0.0030912609217061335
10 -0.01579110592473423 0.008542376313932658 0.02405308094233424
488 0.030617875930557165 0.012505335339375942 -0.015852431209601517
248 -0.0028448248090703274 0.010418566511068974 -0.032096310489593695
122 0.0009828464246671887 0.0003295070209409401 -0.03011548520891384
119 0.015438672551798382 -0.0020048756961231354 -0.003373613634118637
13 0.001665834471484032 0.002304481616205657 -0.008468472165216508
11 0.0024150444033472582 -0.003161043332213039 0.0005840946702432854
489 -0.0007343682835915408 -0.0006657718281939398 -0.015763513789719158
37 0.025685023532247095 -0.0263451221381975 -0.016948347630702378
474 -0.004298474337123034 -0.01886507423456473 -0.023921290839904373
370 -0.00271573562908619 -0.004664527149847879 0.005488679412491969
15 -0.00275024266540494 -0.0025701155344440823 -0.007907489754653663
535 -0.005068403599503357 0.01011656192714865 0.016294122096121716
566 0.02344009679769721 0.005376889128872039 0.0008179136774354022
129 -0.00021819476362653864 0.005941306155653847 0.002126144853437193
472 -0.004431695495681101 -0.0012114220402789752 0.0019508281194523262
109 -0.0008656105304718608 0.002507987610199465 -0.0067484866833631375
254 0.0021602018200020134 -0.0002485872626290636 0.015652024475052612
287 0.005321918625976058 -0.003552832200246568 0.005943398998582278
318 0.0006375483235116499 0.0066166543127637294 0.007046345482460217
552 0.027216264059823216 -0.00799132413138974 -0.01505420458659218
179 -0.008959008667378936 -0.012371892096513014 -0.01876035380551343
509 0.021210134418001778 -0.023300092000593523 0.004833012698746264
44 -0.014402339555010564 0.0050382124026469395 -0.013412323293204307
78 -0.00035705482070094664 0.0019042126590918943 0.0011483205010947846
510 0.006169099296463696 0.011416339120028715 -0.006345142219413657
511 -0.021013199223812503 -0.008280376328190063 0.015768503392823832
324 0.006808814520852341 0.01542919557939745 0.007287645813674501
258 0.015609423647110208 -0.007654223235759297 -0.018492029297225723
257 -0.00342847679260198 -0.004458802057579435 -0.005002689373138361
132 0.02214619998095593 0.018674888394772583 0.0193018567233952
506 0.010567272528268818 -0.006342481049592328 -0.00429782714937285
547 -0.007269730424587368 -0.00341521394962595 0.024016688756680952
154 -0.014021212394074894 0.01098914236273117 -0.006388116103402082
156 0.01506572163212673 -0.00970240682350415 -0.004444128029771292
69 -0.0037328394173283073 -0.0011398840353763113 -0.005405347721342178
57 0.025092568288581994 -0.008870823917546174 -0.005471397533127233
18 -0.00904288039230463 -0.00836854183798726 -0.025390538501809994
21 0.050730844344481295 -0.0007509995880850885 -0.01962954880109244
576 0.0017488383127915767 0.018274060456597338 0.005077317962574988
323 0.0005765050165105645 0.006311296915995237 0.002596331029867625
572 -0.02987002332472204 0.0006797552020207538 -0.01701451082555678
150 -0.0019571687694056226 0.012201468038367268 -0.022651503526419186
546 0.012317030322909093 -0.006040615523651212 -0.010662543637614503
151 0.002077783814638816 -0.0204248596354971 0.0028647707231273327
545 -0.0018829873964112348 -0.002232485223992975 -0.00043307270217357694
539 -0.005926050296073512 -0.0027356865642495765 0.02016617517387923
98 0.05545469729280529 0.005453375167047679 0.008258137083158602
451 -0.009080167261280761 0.00043687973705678555 0.009062136962946624
63 0.00530958973329483 0.00533688603316204 -0.003849825327099868
152 0.0073257710054678215 -0.003669138955388216 0.00155636392481736
464 -0.018183349923972254 0.00511373587841316 0.0036111234972793886
65 0.007312643925312296 0.0006486149345443622 -0.0031670766861823228
542 0.0007251735582476279 -1.4725294513511105e-06 -0.005115513138831906
64 -0.006014641414490829 -0.008581862747232041 0.0019986387674571426
67 -0.001888275688021528 0.007962797395205034 -0.0030524224485563465
70 -0.002225724959617336 -0.00958512360980298 -0.003303039101521086
66 0.005718747145483847 -0.00621858864746713 0.0027771517609023436
72 0.00287607178233561 -0.001682434161325816 3.0425001877194202e-05
68 0.002571825621676656 -0.002675288095038408 0.0037316374034552257
74 -0.014819984431142347 -0.008546112898290265 0.0053805657567279445
327 -0.007950029586341686 0.0014742195213016478 -0.0008628080283526678
322 0.008277925818477297 0.00212993746008604 -0.0041447337311913916
320 -0.0024563280816443343 0.003132926426228078 -0.0012471176944467114
325 -0.002897904759568124 0.005099054074743056 0.004268866800101687
317 0.008698579184748966 0.0015097829389706012 0.0008354908262667777
326 -0.007468531333814932 0.005469239270666674 0.003910779815610966
569 0.005673766284789708 -0.00230378758003206 -0.0013320219435513454
100 -0.029578086065035356 -0.0215972323124323 -0.01441689956845948
71 -0.008743358721142973 0.002816648746197644 0.0025131748295680093
101 -0.01064397768540368 -0.0037736287974293684 -0.006372712492114993
20 0.024118318548278242 0.015582807812490697 -0.019137002984487752
75 0.0022485584419364613 -0.027256849773463158 0.003737198201446228
23 -0.0035729944489771444 -0.002095804298176183 0.00429879958750308
22 0.008992272667030702 -0.00013872372190273604 4.198245231957336e-05
567 -0.0014647953462937461 0.0037633351178320033 0.004846053507149765
568 0.00710436458838975 -0.008155573502250067 0.0009272665907578209
328 -0.0023139796362861794 0.0029698279137794223 0.002707100480573295
583 -0.008077140872481408 -0.007710832304199412 0.011163925572037051
289 -0.012954325507900114 -0.0005127207983507083 0.001118795373309081
321 -0.0024073078157830627 0.003049643345694311 0.006978955001599255
48 -0.0036554516234271156 -0.020667997722014792 -0.0025959430592028846
204 -0.0007790245491419142 -0.00191413483477496 -0.0035005414174775246
504 -0.0063492031454365555 -6.951305084524664e-05 0.0005479176901346581
582 0.03898914650966496 0.0244730182126719 -0.009441755653949014
202 -0.02327896433835646 0.0064322215016808515 0.017617572949503935
205 -0.001161420409700117 0.0034225432654079557 0.004283181993368091
389 0.017155330534734753 0.010844567577200478 -0.011682879097517728
512 -0.006424695559755571 0.0012155300769722442 0.00016895272386306936
332 -0.0011359166896374002 -0.0027021677812982055 0.016875288982098637
80 -0.03445442683794705 -0.025655477899437666 -0.0030177059595247017
385 -0.01155064644916365 0.0012367386258227875 -0.014819316238726768
383 -0.000250067177636074 0.006488384288584266 -0.003319666830388525
565 0.027367462319578977 -0.0006087698780967722 -0.008910900293213215
319 -3.369210939005436e-05 0.0004279395127447105 0.0012595537223624436
46 0.0022224065348612253 -0.007017493028721779 0.030127187732104693
26 -0.006365734295653678 -8.254918847501957e-05 0.003031183813708193
84 0.003724387164334673 -5.3998825250241604e-05 -0.0026257213417212244
77 0.0016012848237721513 -0.000740761867326973 -0.005116024665322256
76 -0.014014879022744226 0.008566376038471815 0.00571733162614921
106 -0.008409904413483351 -0.008030366621738415 0.013878456290570676
143 -0.007710456809563258 0.004361253918827875 0.0012887590570227093
425 -0.0033626420928575926 0.0031954519112347684 -0.0029546762057054824
255 -0.0024565512825431737 0.0038245718216987166 0.0001900396071429289
89 -0.004980256160224969 0.0012412699170784216 0.005923317419930597
104 0.005927779254693896 -0.022740772756997738 0.009569465984892054
188 -0.006369742519941457 0.004303471082707922 -0.000369484994945293
571 0.004667486393942354 -0.007849417284545643 0.007948990337005806
570 -0.023931434340699345 -0.011070881372025476 0.02857582019434266
260 0.009367256845121075 -0.0016746999885030797 0.00870471040960466
17 0.001301169569844648 0.0034223873113395304 -0.002509938095454473
103 0.00445592901978042 -0.010727230982950258 -0.006535014731236094
203 0.0034743525853496125 -0.002848179573249312 0.017616294611041472
111 0.0017320677658455353 0.0010611102968213304 -0.008946794244841207
540 -0.018490555005136085 -0.004900831257077408 -0.011104464362811149
376 -0.023660561982362174 0.0032636571162820527 -0.005991917603229967
9 0.0014635153241541491 -0.0026922311627164196 0.0018477304726996038
218 -0.00039032477851138974 -0.0029601125033102906 -0.0019920061884642465
461 0.0013769626495711987 0.0048884496266468 0.00027290146059194385
5 -0.01637887626439593 0.028670204496374623 -0.006012858642011525
366 -0.015225713575366054 0.0056565396784177815 -0.013754888543047857
38 0.018233773224288312 0.008438587293397184 -0.0032307648386374265
91 0.003177889083723096 0.00037967731212760445 0.008331583696334402
426 0.03184496723512429 -0.02061813750361616 -0.03175377078709435
375 -0.02318906628904918 0.01639218462655417 -0.012682133116471669
369 -0.005561956377072612 0.00506880136839593 -0.0047427409641714185
364 0.0180640794842282 -0.01569520232393071 -0.022428390327488945
32 -0.008702208603982232 0.0006515310462328495 0.005933939386022576
99 0.002479531086757503 -0.02702295182692538 -0.005670771610476304
256 -0.011036540086244887 -0.020016780360883744 -0.007868761127676826
108 0.0048336712063301365 -0.0009589787751445674 -0.008826270119845318
3 0.005019465131667455 -0.003014482011512776 0.005832684469093736
105 0.0010690364886533003 -0.005068931585343964 0.0034264852647831554
8 0.0036792629502063775 0.00951938354451915 -0.0003316693772133286
107 0.0017703705413197426 0.004120398700025919 -5.044806251680537e-05
365 0.021605290527184795 -0.011659489229770682 -0.011122790873072101
374 -0.0065609996445644405 0.004107152007790705 0.005070506012976497
574 0.02159256204654425 0.0093930297717059 -0.02234655578511519
220 0.01962880816698283 0.0017978497614088334 0.021289699733676344
1 -0.0013989755547981044 0.006336338772417555 0.00034633639780775927
371 -0.001986758536656013 -0.006548239288458391 -0.0001806790311516657
217 0.0020368991457435713 -0.0054418388181133575 -0.003169136689707603
367 0.0003303538135044186 0.0018164603734910833 0.0025706997694552084
577 0.003184984518389016 0.0007143551723614291 -0.0021079218313190227
14 -0.005245900395415797 -0.005986557043693977 -0.004095435941466402
93 0.0156146098287674 -0.009583668585935946 -0.0010489477133413662
97 -0.00013798885320054596 -0.006205237141775126 0.009504442349506126
96 0.009365564957938088 -0.026923770056892407 -0.025212514009295903
372 0.0013693232083601267 -0.0005599924536798958 0.001839535903149339
19 -0.00848611134102843 0.005696498698158579 -0.004986997305580529
92 -0.003410856525092746 0.00790439100767695 0.004520192261247324
6 -0.014702649460735037 0.004443695681060844 0.004901739258832809
16 0.001847185584745633 0.008612040478233886 -0.005958088265940661
4 0.0029706930647058704 0.0055493537623999036 -0.001985752528174274
373 0.020701904719801302 0.011850990958891593 -0.020275833190496466
2 0.010083691970820357 0.03956174842759885 -0.0012438127200945727
95 -0.005671088563646346 -0.0062607793271433725 0.0028563479248722187
368 -0.008892163773605782 -0.0023203777735898087 -0.0022447032431428308
110 -0.0031747903517278567 -0.001244173084763959 0.0020156398176315146
267 -0.002655514777707978 -0.007285469099748067 -0.004580519552694592
225 0.0072662886780576665 0.013162439911899923 -0.03568838819925701
381 -0.016912162934346994 0.004478585838844788 0.03582718685561101
112 0.005368516929454909 -0.009274496759575297 -0.0008378168879909454
250 -0.001232722309174961 0.002346102389990628 -0.0031159990988178367
7 0.0015001159095476544 0.010682700792211048 0.026857413924617025
155 0.004224133811955009 -0.0005328373554201148 -0.005355264070781864
94 -0.004982339239402269 -0.00615298389560576 -0.02086099657882477
145 0.02373103737024071 -0.005030111038137412 -0.005095567790409768
85 0.0008181926952040819 -0.003339697820898058 0.008472208547821096
245 0.0029740478258022934 0.005043662699055321 0.0012241970653428299
244 0.0019598405548189013 -0.004857273155236205 2.8947085953886955e-05
584 -0.03355858352652603 0.0006596526244953365 0.0015074013526237525
470 0.0023364799023833124 -0.006406075732028635 -0.003990361598162617
585 -0.008277780882984712 -0.002624150295778645 0.012210387020755501
516 0.0036150716553778003 0.002188111681199331 -0.006300901385659757
468 0.00719282477726028 -0.022114594203266665 0.023553687085874533
562 0.00492709441267934 0.006686087477880389 -0.01597797355378443
477 -0.001454608662157189 -0.0013105992423299428 0.00250131833803324
475 -0.0009306947662434103 -0.0033505683630156995 0.0007377655796701785
513 -0.00530143109329946 0.03362200274972303 -0.006334984694836471
519 0.001711922473813316 0.0016484197295353856 -0.0049762574407827016
521 0.0028142529106747888 -0.0066038001155654565 -0.0039150889848497995
520 -0.00274681273199367 0.00765142029435429 -0.002177526259270117
358 -0.0045752894789652405 0.0026017441196373196 0.003029340260810908
515 0.0029747430142172473 0.011146161009460883 -0.0029487520430608424
333 -0.012500573032636134 -0.005352574845528256 0.00517296695634972
478 0.007551146968887976 0.0034785106526617304 1.689112014015921e-05
469 0.0010424473102855975 0.0024242343307457398 0.0006575781342533898
331 -0.003258291616188497 0.002116662616209244 0.011131920605514437
522 -0.007689749758238032 -0.014159667381303207 0.007267776452769979
514 -0.04243132604152047 0.031434618482591326 0.004413121294999577
237 -0.012851655757250762 -0.008365667754726728 -0.00983182708872871
231 -0.006004395819999018 0.004035181468868859 -0.003258229154814591
201 -0.0019362862661814202 0.0031083146626565273 -0.004960795708590394
228 0.0007190645598276346 -0.01968092894403214 0.034872080098523155
229 -0.0023628407374770063 0.0017986646539179187 -0.0045773561943079875
523 0.003009493594195584 0.00282890687814627 0.006311588382504618
524 -0.01335112977689287 -0.008137608642965003 -0.0219959837787025
242 0.0217897096431377 0.007433622614439602 0.012987229982448665
445 0.007980183246318677 0.005561467345909198 0.0005104303944477187
404 0.005264063296685078 0.0009833090841224574 -0.004363177949800026
467 0.0013673535661672112 -0.0010277312708909623 -0.00285671052620095
330 0.018762601549010636 0.00935607171865239 0.005472080669725517
272 -0.0024211718237897263 0.006275777788994289 0.01774803760713419
476 0.03503332065250349 0.0018900519494683265 0.003563943794186505
457 -0.002022493942030077 0.004000535541023579 0.006350934946607757
456 0.000346112035451995 -0.0019333896397883492 -0.0012494559826430197
409 0.010877187912922035 0.007230345642386183 -0.01400352441120867
473 -0.003908077640605567 -0.003073689230053753 -0.004883673625041381
192 0.010866180072067251 0.0049501059013432516 -0.0030337720335024115
185 -0.004598591817714557 0.0018056870908985372 -0.0024531140226170083
183 -0.0047095764956367366 0.011367858789509069 -0.014599021209780145
518 0.017998282967114653 0.02302171702242016 -0.005416136990964289
243 0.006778730930222625 -0.0031290347379255225 -0.004365985932183498
247 -0.005706682686568799 -0.00047950119741876424 0.0005381028796217274
443 -0.016164399368959696 0.01352907877798267 0.017012054238176803
191 -0.0016270021597700858 -0.012541884555962569 0.004488714296251232
136 0.0016104827469432367 0.00975310837327031 -0.007607828692597656
525 0.017557328962824404 0.0035223109046627816 -0.004948844791320997
314 0.03533515745410595 0.03394375676214632 0.00771908986316724
526 0.013206160729030744 -0.0003630680698345856 0.01917420240135826
495 0.01618694784510263 0.009111409924533029 -0.011398863385074696
175 -0.00043218376907171527 0.0053353121096506055 0.004119267494891207
549 0.003205286051708155 0.019114774943097358 -0.02119684131663866
148 0.0029219923355561215 -0.00274606176256115 -0.007833208372486033
226 0.024975602484705442 0.010925121368915474 -0.009985950846376837
24 0.0019239457364538064 0.001075854509053293 -0.0070014939671742835
120 0.005880357778287817 -0.006434281233885944 -0.016740563407846788
172 -0.028219004024965084 -0.02459353965254232 -0.017853312312643806
233 0.00037298228910585617 -0.007730587304856228 0.0015090605950644881
444 0.012329216399547037 0.01607274328801191 -0.000986473300731743
127 0.002937806688225074 0.014529953445964852 -0.0034104166166697663
460 0.018049382296733803 0.012220701178946542 -0.003940719992595896
180 0.009522633032603091 -0.0005783237817439703 0.0036400661816671804
497 0.007585930265575976 0.00019056203007094933 0.00039221829521464787
28 -0.0006230718064082373 -0.012307104359634382 0.014835089677451306
479 -0.0013237148458989042 0.0002795273058052241 -0.0026879840094741285
563 0.002079761283575388 0.009284774855410561 -0.0015004899732251086
212 0.008568938489222097 0.0019087085514693561 0.00449931264818115
87 -0.015355595771511557 -0.005723503658689614 0.008986508559632747
486 0.0066458796307468345 -0.003141038237640155 -0.0033440065806025206
493 -0.0248959637905086 -0.008835789494299258 0.0032744036290188704
458 0.007101110447718494 -0.001974339850104896 -0.00306116097596423
581 0.0031803767647600833 0.002549904547326696 0.0019660967475408743
580 0.003239820176772245 -0.0007088393295723038 -0.0012024794550952978
353 0.006472553817726 0.011287637181921077 0.009457782984521048
350 0.001888679167637152 -0.003405958524870054 0.0018689724769208316
315 0.01808764660212139 0.01790495362429289 0.006770756592919192
480 0.005065906481525264 0.0030386615173313863 -0.0012662719268785156
239 -0.0031281186430175945 -0.005099733933728982 -0.0026840495442218715
311 0.0038153083135037966 0.0005223226218036006 0.00563955724759659
308 -0.0028177977952509236 -0.008093412653570178 -0.007027524693642627
114 0.008356142734652358 0.017132124420428517 -0.0013444480962589427
135 -0.0006959326224537588 0.008793961015761301 -0.005655490395872548
290 0.013975945741170639 -0.0014911093867155264 -0.0038364239050463597
482 -0.0010289174795827102 -0.0028588696095958807 0.0029880666173251534
481 -0.03919984615651348 0.01250551567656684 -0.018843611684570213
352 -0.004066402985179755 -0.004321499354512645 -0.004179691916715477
137 0.006171292066563474 -0.015262382260809398 -0.012515241038243358
235 0.01107730607223432 -0.005296816362245566 0.002240195736360656
236 -0.018859163225075817 -0.026245912857067087 -0.006241386865955847
313 -0.006218694950900047 0.004626692890695523 -0.003872955300789092
348 -0.008825881912889525 -0.00040166085130695155 -0.0061075782856101785
284 -0.0012829593073405987 0.026616619021833435 -0.0002948854224375337
419 -0.008938438145850542 -0.011235926833798643 0.00624960109717072
210 -0.0024477849616612118 -0.00019622011335439503 0.005886789351562385
312 -0.0011230077540549533 0.0007945527485000702 -0.0013722545153338776
214 -0.005523117629288959 0.0008838956638550608 0.0033084386732569297
342 -0.0036525666058552955 -0.004234678344954411 -0.007907450283023615
418 0.002401640831012821 -0.003428955737571321 -0.001903748208122246
213 0.006566398194675998 0.005165196985151957 -0.0021179553675784446
310 0.0016585110788140875 0.006647019778544551 -0.0023105482305155896
211 0.007321310043795477 -0.0012161106232558394 0.002131077926666745
208 -0.005045598927645246 0.0013086291786045528 -0.0021160804329472685
414 -0.0037611985470240115 0.003995189071911454 -0.0006864546422998593
416 -0.0009702213515418188 0.01694537719522547 0.0069103237696559105
415 0.002234993283064807 0.00045591836099883313 0.007004707644710536
413 0.008210777419914148 -0.000624312353269826 -0.0036876925281576997
206 0.0018403001714953821 0.00801521553001485 0.0009882954766036684
209 0.019768965721733756 0.006263149105413431 0.009242662117223398
306 0.002148699921897002 -0.005517089611795023 -0.002923845980251002
304 0.0022771527539431746 -0.00023669247851395623 0.004110872206788931
133 0.010523114521825031 0.020729439762739544 -0.0023926713758274268
309 0.014872887998478506 -0.00751268777242065 0.002917216599685946
377 -0.008484392845717167 0.009135088071649795 -0.014747798301899536
240 -0.02673254437790563 0.018211063532567517 0.014560312002733172
484 0.00046317482143679766 -0.0018460665195835985 -0.0023114291202531
305 0.0034541656332890956 -0.008837484665816076 0.008062123826912525
302 -0.003504639287336962 0.0021638422978407738 -0.0038375466025991796
307 -0.0069640616078237285 -0.014157161507870832 0.01895125543268364
303 -0.007245168193265813 0.011133605264338898 -0.008608423287745299
130 0.0013913104894168267 0.0030891847382414537 0.006665105380568036
466 -0.0008662553824805976 -0.0006369531871817991 0.0029345240985047504
417 -0.002190852373036688 0.006213269394133927 0.0027271875952915975
301 0.0032217618710798034 -0.0005455040012276387 0.0013127965055484037
207 0.0063341141334389865 0.0009250777982788894 -0.0007224758878160673
412 -0.006975152584106665 0.0015931713036712513 -0.0028544938317252083
455 -0.0012790402379583194 0.008067749653831339 -0.0010835939353050445
298 -0.00039583448267299344 0.006068135772858606 0.0014003424578160194
300 -0.004686787911295613 -0.006313016527733013 0.027703233371334828
299 0.006891613657226312 -0.008057072555513958 0.0025235573371154363
391 0.011919984717239164 -0.00014192930625826615 0.002585536286141846
334 -0.00037930122759866997 0.0008459748291403298 0.0013486959406464741
485 -0.027442229600255923 0.0012538353417196764 0.021204066758715952
295 -0.00820133338587409 -0.005471544975349986 0.002357746172863267
491 0.001877003596593035 -0.011963393765021623 -0.0019224357391532231
487 0.0053897382323550265 -0.0026913215835607514 -0.00710384271390631
390 -0.00576524404899148 0.004373844633131787 -0.0006728506783429283
490 -0.005510686852825262 -0.00047629037853834735 -0.000865826714768324
296 0.03790919261890765 -0.005414270274693492 -0.0183514705709289
343 0.0007183771410417815 0.003402245696255439 0.011458447190831847
337 -0.0019013684292572997 -5.788738620989454e-05 -0.0014555407438409933
338 -0.004400247310372044 0.013100425158765323 0.01758706733886525
492 0.006372922108510358 -0.0011327739002555712 0.001137312546334458
293 0.02248575904402688 -0.0045845157117392595 -0.013903325710485387
499 0.0008073155436054103 -0.0004083501556695333 -0.002805058521394545
459 0.012980654250526285 0.014813087559031992 0.023607545625245554
397 -0.00406457217317381 0.0022131669545045114 -0.0003065672088343504
400 -0.00044398074001586593 0.0013191118961987259 -0.010417699542191773
187 -0.000581095329325414 -0.007985945124346817 0.002366202472119876
189 0.022749270042994013 -0.012310978670705528 -0.005289253145873095
252 0.004762882542725657 0.003500844375136326 0.004809894844451498
517 0.008156249718093457 -0.005917481243538115 0.009292569737812376
146 0.0005126166881837642 0.005693049507704745 -0.007372302381335548
396 0.0036859407077898918 0.015564499207165513 -0.010385642307588781
190 -0.0014173192434146086 0.0026022716124774093 -0.002729604171526356
559 -0.00592883582883313 -0.00415898799739913 0.0021323973212022665
316 -0.0282221543882927 -0.011745346074326935 0.0019428330030321608
186 -0.01479891373105152 0.0031501879312320195 0.008480557181873882
61 -0.031142888849188068 -0.012084664319479667 -0.011466647428338875
408 -0.02053190731751698 -0.02277821478994825 0.012012024802071551
253 0.022808505542882874 -0.034762888539239374 -0.03997526397898761
86 -0.005101314906648249 0.007415010445727317 -0.004310589405725578
410 -0.004419330703609746 0.029954144124663448 -0.0055709393933373146
537 0.008542506420481731 -0.017810116470767308 0.02258562053143703
90 0.021088490945360115 -0.011524555698801021 0.023667875057974783
60 0.004908726265780991 0.0022679554180974177 0.0015900897454944778
541 -0.009554141643448942 -0.009869757032652445 -0.02011494590738592
543 -0.0022429423939671175 -0.0012849379658975368 -0.0014852655719161784
544 -0.0019019852463296033 0.0009202801541383047 0.004054429008352226
538 0.005617490343782462 0.004917924887978528 -0.0022921419596612126
548 0.005118851849016132 -0.042331164487158415 0.02511391060601146
55 -0.003263807517632147 -0.004921465853691282 0.0020677768859418207
405 -0.0036559641075350918 0.002262900739932835 0.005113159903208503
58 -0.005438598714963434 -0.0020621255065959134 -0.01294919315078623
59 0.0003002155605944214 0.0005914658249660472 -0.0015977087027842425
182 0.007112697408136085 0.00015538676939163808 0.0009905705844884623
181 -0.004667837381643894 0.0009960890355915106 -0.002490485831236005
406 0.0015987172670767615 0.0002986985759909038 -0.005927990220474076
402 -0.008727645926510628 8.518152783161386e-05 0.0019047396057941942
51 -0.019436329198918748 0.02501971168345563 -0.013677362411641457
178 -0.028896787064739724 0.00895439563164386 0.012779183841451176
27 0.008750779270848844 0.0032199568528940258 0.002729265887252795
561 0.007826961710692484 -0.004240124121267991 0.0004768403867504142
558 -0.0013185796411867364 -0.0010502826923779634 0.0006721974835984972
536 -0.001044820587118939 0.0042661148260938475 0.015585156905224093
88 -0.030897248785724918 0.02045590022810446 -0.0011273661144206508
81 0.003964757187185219 0.005464131372129987 0.001783366607626539
197 0.005240562414792306 -0.0008956001074226687 -0.0004119892658635901
462 -0.0023759907712788348 -0.0013293819029189893 0.00348122251953602
199 -0.0012278271676024182 -0.00023219598423122463 -0.0053399157408929926
196 -0.0029395220162686878 0.0016991870867894907 -7.611581987650287e-05
198 0.006592295855978273 0.0037828261771657907 0.012645125114525604
54 0.0006656168023350978 -0.0048423124297382126 0.0009566572993538773
496 -0.01118152656291672 0.0016472796523902902 0.01834502873524273
194 0.005956154310527835 -0.0035793010969831455 -0.03856010215486358
82 0.0005433433177230094 -0.021033799012676893 0.022537818351728616
556 -0.008299782612378263 -0.0015968857283610784 0.002431363016793375
498 0.00570166079317541 0.0004024778843595087 0.004526271627175191
34 -0.025784511866451632 0.004382264211680487 -0.0038621235531492134
25 -0.002564586313518142 1.2531184325159698e-05 0.008209911293079063
147 0.026062875035392414 0.004290119605731531 0.0139183221728115
29 -0.0034497246109347255 -0.0001445282723700091 0.00255889615087257
149 -0.0030662583979906956 -0.007310494410201481 0.010515313918191025
31 0.006577288533252852 0.0021139199796581668 -0.007860903701566524
246 0.02685800985861596 -0.0275275777621918 -0.00021611584550279328
398 -0.012061542499004067 -0.00560041993698715 -0.0197041616682761
33 -1.8086789844589635e-06 -0.0069491137011750605 0.0011343130630586905
560 -0.0021071439266442016 0.002436996223821134 -0.0018457894796334601
35 -0.008986017489018668 -0.02134608077098638 -0.00019930426177404908
30 0.0023822866456176136 0.001262559548584841 -0.009272433950769904
579 0.0028760823603039207 -0.010566148119435502 -0.003989435711436657
262 -0.00015052982567336737 0.0010246876442796724 -0.005872705872163868
434 -0.002575937286425721 -0.004309990911763346 0.0019066190629240436
216 0.0014633491689613068 -0.0044905478364848745 0.004539529377225901
421 0.005136580502425366 0.0007901025000054251 0.006478027147941391
420 -0.015203270611003343 0.015817254273043594 0.02146692430033769
200 -0.005373203290823351 0.029926579630474907 0.010529172510379948
215 0.005272587643186654 -0.013585208158945646 0.02155810309113631
264 -0.010571668287718603 -0.012382818983729883 0.022025021375705313
83 -0.006178398789712894 -0.008310418886111637 -0.0050101844774417745
433 -0.021001145813673055 0.019785267106565734 0.0005434116534620804
395 -0.000866158433374797 -0.0081252192258149 -0.00436630114429637
503 -0.01092419145674207 0.008278956425789167 0.00012760257098767645
429 -0.013769599771892899 -0.004214058615531929 0.017192287511259785
500 0.011057691138511903 0.002172766894360313 0.0032045881155240872
505 -0.021003610324501036 0.001291594166693226 -0.007010797870241192
268 0.0010670468294318434 0.006833435851098342 0.0004908940088978863
501 -0.0007277584847121898 -0.009234504920981821 0.00065483240160518
553 -0.0028614478009868593 -0.0018129230784749767 0.0068393753638220905
259 0.005398676719511247 0.011463072681569242 -0.01165374294360576
411 -0.017537388992265993 -0.027321583789894514 0.004345525500301865
219 -0.0028107514836124715 -0.013385897135295484 -0.005460906635378541
436 -0.007485581769149532 0.004782609780058392 0.0008610316649723795
431 -0.024295125140049872 0.01139039420708046 0.019439659256464382
163 -0.019112168410239886 0.0013551150671775997 0.03231564328953452
554 0.008880073059085421 -0.005828130893149383 0.006864690005311187
263 0.006054427296173044 0.0024822092063224686 -0.0028787695143805713
438 0.006273281114144121 0.008027717420582389 0.0002573868083762557
62 0.03821915498075797 0.0026386358102282632 0.0012013689117209808
36 -0.014668140178468089 0.03842518631119314 -0.0033942323121354404
427 0.004741680983980323 0.005733348689448178 0.014046597478969053
550 -0.03654783761058604 -0.004993310345872464 0.012843641627154501
440 -0.02552167536303556 0.0002536761415482587 0.030783231389954462
336 -0.017240373919521233 0.0015739212581123588 0.019226887801414055
393 0.0013749997458666705 -0.00047484990121304246 0.006785515037464185
441 -0.018487908230073867 0.009732843071112277 -0.00916281427523784
423 0.004002771732322912 0.006372377235306841 -0.0026274953222638936
454 0.019229291752685396 0.008103728057718309 -0.005320133666124402
435 -0.002964125192372978 -0.0013978736722003373 0.004546566692923453
422 0.014452976608030793 0.021598055764758917 0.0021037258331348266
555 0.005671038068219443 -0.005133792125611368 -0.005422231718473325
551 -0.04306658616380568 0.004689591549117139 0.0024781386882071423
266 -0.006001622714958912 0.012180941999348582 -0.003767925155843994
442 -0.0023030452537687704 -0.0024253575521740126 0.002835394205824877
265 -0.011895414304161852 -0.0039294358858048 -0.01331757633323463
394 0.002629447228334414 0.003745669007929969 0.005653770152628378
339 0.0029373623935536925 -0.011822535436354389 0.015706011054962714
437 -0.008307419817880716 0.025426084403066995 0.010915732587571362
557 -0.0010882306240712666 0.003095166743737304 0.003736290381511376
578 0.001143821555571616 -0.003360065421967055 -0.005974566688482748
195 0.004187355687850574 -0.010318972846026413 -0.00886310408551836
502 -0.0027640436579508296 -0.004116708753328515 0.0025543682866786517
439 -0.002826907420291754 0.0007358734015469071 0.004633658495494301
463 -0.0026015840788535917 0.012987051623341007 -0.012872411513836383
424 0.00920260073617373 0.00022822323806946697 0.001971419873684687
170 0.006602666070500042 -0.018837333522939318 -0.02371850989239671
102 -0.03594161402186289 0.004585489853100257 -0.0016147351515038257
167 -0.011590794327067978 0.014926796805195996 0.024779835351887776
131 0.006687896132757545 -0.0036110247083340676 0.003820584662848085
134 0.007072254281372734 0.02447318005102855 -0.013125597490761006
221 0.0167304252781845 0.015519815617356452 -0.007372635259097986
52 0.00805048997564664 0.021354490207551566 0.016061143981565815
261 0.02035238555536228 0.009752461801197375 -0.020751413425679727
471 0.0012946008288967712 -0.015446181549729494 -0.004340086101437968
79 0.0018254372840380891 -0.0008205426417017319 0.00383670245237717
184 0.003414396718494207 0.017245773789716923 -0.02482511794444324

Bonds

1 4 447 281
2 5 447 446
3 5 447 450
4 5 447 448
5 15 351 173
6 17 286 285
7 13 349 354
8 4 345 349
9 1 345 403
10 5 345 346
11 5 345 340
12 13 47 174
13 14 47 45
14 13 49 47
15 14 49 50
16 13 344 349
17 14 344 341
18 13 347 344
19 13 347 351
20 5 403 401
21 5 403 407
22 5 403 399
23 13 177 49
24 13 177 124
25 1 162 165
26 5 162 160
27 5 162 161
28 5 162 159
29 4 165 347
30 5 165 164
31 5 165 166
32 16 174 169
33 13 174 176
34 13 356 351
35 13 354 356
36 15 354 357
37 13 283 281
38 15 283 285
39 13 281 278
40 17 171 173
41 17 359 357
42 18 73 139
43 10 140 139
44 9 140 138
45 6 41 285
46 2 41 43
47 5 41 40
48 5 41 42
49 4 282 280
50 1 282 287
51 5 282 279
52 5 282 483
53 13 280 283
54 8 142 143
55 2 142 140
56 5 142 144
57 5 142 141
58 18 449 39
59 4 361 356
60 5 361 363
61 5 361 360
62 5 361 362
63 13 176 124
64 14 176 120
65 14 124 127
66 10 43 39
67 9 43 170
68 13 453 575
69 14 453 452
70 8 168 169
71 2 168 43
72 5 168 172
73 5 168 167
74 13 232 233
75 14 232 230
76 16 575 573
77 13 575 577
78 18 329 564
79 16 12 9
80 13 12 14
81 13 12 11
82 4 56 15
83 4 56 177
84 5 56 132
85 5 56 57
86 15 278 116
87 6 269 116
88 2 269 472
89 5 269 270
90 5 269 271
91 2 528 531
92 6 528 116
93 5 528 507
94 5 528 529
95 13 128 180
96 14 128 126
97 6 223 357
98 2 223 379
99 5 223 224
100 5 223 222
101 14 392 335
102 13 234 232
103 14 234 118
104 8 532 534
105 2 532 531
106 5 532 530
107 5 532 508
108 12 123 291
109 11 123 292
110 10 531 527
111 9 531 533
112 13 277 280
113 14 277 275
114 13 276 277
115 13 276 278
116 18 355 193
117 1 113 274
118 5 113 115
119 5 113 158
120 5 113 157
121 4 274 276
122 5 274 117
123 5 274 273
124 10 379 193
125 9 379 378
126 8 430 380
127 2 430 379
128 5 430 428
129 5 430 432
130 16 384 380
131 13 384 388
132 13 388 392
133 14 388 387
134 10 251 125
135 9 251 248
136 18 153 125
137 7 294 291
138 3 294 123
139 5 294 297
140 5 294 249
141 13 386 384
142 14 386 382
143 3 121 123
144 8 121 241
145 5 121 119
146 5 121 122
147 18 227 527
148 16 238 241
149 13 238 234
150 13 238 239
151 13 13 11
152 14 13 53
153 14 11 10
154 18 37 370
155 13 15 13
156 10 472 466
157 9 472 474
158 13 109 112
159 15 109 155
160 5 287 289
161 5 287 288
162 5 287 489
163 18 318 559
164 6 78 542
165 2 78 79
166 5 78 76
167 5 78 80
168 5 510 583
169 5 510 509
170 5 510 511
171 6 257 72
172 2 257 140
173 5 257 254
174 5 257 258
175 17 547 542
176 17 156 327
177 4 69 67
178 5 69 46
179 5 69 44
180 5 69 48
181 13 323 321
182 14 323 324
183 5 545 576
184 5 545 572
185 5 545 546
186 4 63 64
187 1 63 545
188 5 63 98
189 5 63 539
190 4 152 322
191 5 152 154
192 5 152 151
193 5 152 150
194 17 464 317
195 13 65 67
196 15 65 542
197 13 64 65
198 13 67 70
199 15 70 72
200 13 66 64
201 14 66 100
202 13 68 66
203 13 68 70
204 17 74 72
205 13 322 325
206 13 320 322
207 15 320 317
208 15 325 327
209 13 326 323
210 13 326 325
211 6 569 327
212 2 569 568
213 5 569 567
214 5 569 451
215 4 71 68
216 5 71 75
217 5 71 101
218 13 23 30
219 14 23 21
220 13 22 23
221 14 22 20
222 10 568 564
223 9 568 565
224 4 328 326
225 5 328 385
226 5 328 332
227 13 321 320
228 1 204 71
229 5 204 203
230 5 204 202
231 5 204 205
232 8 504 501
233 2 504 108
234 5 504 506
235 5 504 582
236 1 383 328
237 5 383 512
238 5 383 381
239 5 383 389
240 4 319 321
241 1 319 510
242 5 319 316
243 5 319 465
244 16 26 534
245 13 26 22
246 13 26 32
247 6 84 317
248 2 84 86
249 5 84 82
250 5 84 552
251 13 425 374
252 14 425 426
253 13 255 217
254 14 255 256
255 4 89 111
256 5 89 225
257 5 89 62
258 13 188 216
259 14 188 184
260 8 571 573
261 2 571 568
262 5 571 570
263 5 571 566
264 13 17 15
265 14 17 18
266 13 111 268
267 13 111 91
268 18 540 77
269 13 218 425
270 13 218 216
271 15 91 95
272 14 32 535
273 10 108 107
274 9 108 19
275 2 3 4
276 6 3 95
277 5 3 99
278 5 3 2
279 6 105 95
280 2 105 108
281 5 105 106
282 5 105 104
283 8 8 9
284 2 8 4
285 5 8 7
286 5 8 6
287 13 374 371
288 14 374 376
289 16 371 369
290 13 371 188
291 13 217 424
292 14 217 220
293 8 367 369
294 2 367 368
295 5 367 365
296 5 367 364
297 13 577 578
298 14 577 574
299 13 14 17
300 14 14 16
301 18 97 1
302 18 96 107
303 2 372 368
304 6 372 155
305 5 372 375
306 5 372 373
307 4 92 112
308 5 92 93
309 5 92 94
310 5 92 38
311 10 4 1
312 9 4 5
313 10 368 370
314 9 368 366
315 13 267 109
316 13 112 91
317 6 250 155
318 2 250 251
319 5 250 102
320 5 250 103
321 1 85 89
322 5 85 110
323 5 85 83
324 5 85 87
325 6 244 173
326 2 244 247
327 5 244 245
328 5 244 242
329 13 470 585
330 14 470 468
331 13 585 516
332 14 585 584
333 13 516 333
334 13 477 479
335 14 477 562
336 13 475 477
337 13 475 478
338 12 521 519
339 11 521 525
340 3 520 521
341 8 520 358
342 5 520 518
343 5 520 524
344 4 515 516
345 4 515 475
346 5 515 513
347 5 515 514
348 13 333 331
349 14 333 272
350 14 478 476
351 16 469 467
352 13 469 470
353 13 469 331
354 14 331 330
355 13 231 201
356 13 231 445
357 13 201 404
358 14 201 237
359 4 229 233
360 4 229 231
361 5 229 228
362 5 229 226
363 7 523 519
364 3 523 521
365 5 523 522
366 5 523 526
367 14 445 444
368 13 404 400
369 14 404 409
370 13 456 453
371 14 456 457
372 8 473 467
373 2 473 472
374 5 473 471
375 5 473 443
376 13 185 136
377 13 185 180
378 10 247 243
379 9 247 246
380 13 136 135
381 14 136 191
382 18 175 243
383 13 148 146
384 14 148 145
385 13 24 148
386 14 24 28
387 13 233 235
388 14 180 179
389 14 497 495
390 13 479 482
391 14 479 563
392 4 581 417
393 4 581 580
394 5 581 460
395 5 581 549
396 13 580 456
397 13 580 578
398 16 353 358
399 13 353 350
400 13 353 352
401 13 350 343
402 14 350 517
403 13 480 478
404 14 480 481
405 14 239 240
406 7 311 313
407 3 311 312
408 5 311 308
409 5 311 314
410 18 114 466
411 13 135 130
412 14 135 137
413 16 482 484
414 13 482 480
415 14 352 290
416 13 235 239
417 14 235 236
418 13 348 352
419 14 348 284
420 7 210 213
421 3 210 211
422 5 210 207
423 5 210 212
424 12 312 313
425 11 312 315
426 13 342 348
427 13 418 417
428 14 418 419
429 3 310 312
430 8 310 306
431 5 310 309
432 5 310 377
433 12 211 213
434 11 211 214
435 3 208 211
436 8 208 413
437 5 208 206
438 5 208 209
439 16 414 413
440 13 414 415
441 13 414 412
442 13 415 418
443 14 415 416
444 16 304 306
445 13 304 301
446 13 304 305
447 14 305 307
448 13 302 305
449 14 302 303
450 16 130 129
451 13 130 128
452 13 417 455
453 13 301 298
454 14 301 300
455 14 412 411
456 13 455 412
457 14 455 454
458 13 298 299
459 14 298 296
460 13 299 302
461 13 334 390
462 13 334 392
463 4 295 299
464 4 295 499
465 5 295 293
466 5 295 458
467 8 487 484
468 3 487 490
469 5 487 485
470 5 487 491
471 13 390 386
472 14 390 391
473 12 490 486
474 11 490 488
475 13 343 342
476 14 343 339
477 4 337 342
478 4 337 334
479 5 337 338
480 5 337 336
481 3 492 490
482 7 492 486
483 5 492 493
484 5 492 494
485 13 499 502
486 13 499 497
487 13 397 445
488 14 397 396
489 16 400 402
490 13 400 397
491 4 187 186
492 4 187 185
493 5 187 189
494 5 187 183
495 8 252 461
496 2 252 247
497 5 252 459
498 5 252 253
499 16 146 143
500 13 146 149
501 13 190 186
502 14 190 192
503 13 186 182
504 10 86 559
505 9 86 88
506 13 60 190
507 14 60 61
508 3 544 405
509 7 544 543
510 5 544 548
511 5 544 541
512 8 55 59
513 2 55 79
514 5 55 52
515 5 55 54
516 12 405 543
517 11 405 538
518 16 58 59
519 13 58 60
520 13 58 181
521 13 182 181
522 14 182 178
523 14 181 51
524 8 406 402
525 3 406 405
526 5 406 410
527 5 406 408
528 8 561 558
529 2 561 86
530 5 561 90
531 5 561 537
532 12 197 199
533 11 197 200
534 16 462 461
535 13 462 255
536 13 462 421
537 7 196 199
538 3 196 197
539 5 196 198
540 5 196 194
541 16 556 558
542 13 556 560
543 13 498 497
544 14 498 496
545 14 25 27
546 13 29 24
547 13 29 25
548 13 149 25
549 14 149 147
550 4 31 30
551 4 31 29
552 5 31 35
553 5 31 34
554 13 33 32
555 14 33 36
556 13 560 557
557 14 560 536
558 13 30 33
559 4 262 267
560 1 262 263
561 5 262 261
562 5 262 260
563 4 434 436
564 4 434 555
565 5 434 431
566 5 434 429
567 14 216 215
568 14 421 420
569 13 503 500
570 14 503 505
571 16 500 501
572 13 500 498
573 13 268 267
574 14 268 266
575 13 553 554
576 14 553 550
577 4 219 424
578 4 219 218
579 5 219 221
580 5 219 427
581 13 436 439
582 13 554 556
583 14 554 551
584 5 263 264
585 5 263 259
586 5 263 265
587 13 438 435
588 14 438 437
589 14 393 395
590 13 423 421
591 14 423 422
592 13 435 436
593 14 435 433
594 13 555 553
595 13 555 557
596 16 442 394
597 13 442 438
598 13 442 393
599 14 557 440
600 14 578 579
601 3 195 197
602 8 195 394
603 5 195 163
604 5 195 398
605 13 502 503
606 14 502 463
607 13 439 393
608 14 439 441
609 13 424 423
610 8 131 129
611 2 131 251
612 5 131 134
613 5 131 133
614 10 79 77
615 9 79 81

Angles

1 23 281 447 446
2 23 281 447 450
3 23 281 447 448
4 29 446 447 450
5 29 446 447 448
6 29 450 447 448
7 24 347 351 356
8 26 356 351 173
9 26 347 351 173
10 11 41 285 283
11 28 283 285 286
12 12 41 285 286
13 9 345 349 344
14 24 344 349 354
15 9 345 349 354
16 1 403 345 349
17 23 349 345 346
18 23 349 345 340
19 2 403 345 346
20 29 346 345 340
21 2 403 345 340
22 24 49 47 174
23 25 49 47 45
24 25 174 47 45
25 24 177 49 47
26 25 177 49 50
27 25 47 49 50
28 24 347 344 349
29 25 347 344 341
30 25 349 344 341
31 9 165 347 344
32 9 165 347 351
33 24 344 347 351
34 2 345 403 401
35 2 345 403 407
36 2 345 403 399
37 29 401 403 407
38 29 401 403 399
39 29 407 403 399
40 9 56 177 49
41 9 56 177 124
42 24 49 177 124
43 11 244 173 351
44 28 351 173 171
45 12 244 173 171
46 2 165 162 160
47 29 160 162 161
48 29 160 162 159
49 2 165 162 161
50 29 161 162 159
51 2 165 162 159
52 1 162 165 347
53 2 162 165 164
54 2 162 165 166
55 23 347 165 164
56 29 164 165 166
57 23 347 165 166
58 27 47 174 169
59 24 47 174 176
60 27 176 174 169
61 9 361 356 354
62 24 354 356 351
63 9 361 356 351
64 24 349 354 356
65 26 356 354 357
66 26 349 354 357
67 24 280 283 281
68 26 281 283 285
69 26 280 283 285
70 9 447 281 283
71 24 283 281 278
72 9 447 281 278
73 14 168 169 174
74 18 140 139 73
75 3 257 140 142
76 5 257 140 139
77 4 257 140 138
78 4 142 140 138
79 33 138 140 139
80 5 142 140 139
81 18 43 39 449
82 16 43 41 285
83 30 40 41 285
84 30 42 41 285
85 15 43 41 40
86 29 40 41 42
87 15 43 41 42
88 1 287 282 280
89 23 280 282 279
90 23 280 282 483
91 2 287 282 279
92 29 279 282 483
93 2 287 282 483
94 9 282 280 277
95 24 277 280 283
96 9 282 280 283
97 11 223 357 354
98 28 354 357 359
99 12 223 357 359
100 18 568 564 329
101 17 140 142 143
102 15 140 142 144
103 15 140 142 141
104 32 144 142 143
105 29 144 142 141
106 32 141 142 143
107 23 356 361 363
108 23 356 361 360
109 23 356 361 362
110 29 363 361 360
111 29 363 361 362
112 29 360 361 362
113 24 174 176 124
114 25 174 176 120
115 25 124 176 120
116 24 177 124 176
117 25 177 124 127
118 25 176 124 127
119 3 41 43 168
120 5 41 43 39
121 4 41 43 170
122 4 168 43 170
123 33 170 43 39
124 5 168 43 39
125 24 456 453 575
126 25 456 453 452
127 25 575 453 452
128 17 43 168 169
129 15 43 168 172
130 15 43 168 167
131 32 172 168 169
132 29 172 168 167
133 32 167 168 169
134 24 234 232 233
135 25 234 232 230
136 25 233 232 230
137 27 453 575 573
138 24 453 575 577
139 27 577 575 573
140 14 532 534 26
141 27 14 12 9
142 27 11 12 9
143 24 14 12 11
144 22 15 56 177
145 23 15 56 132
146 23 15 56 57
147 23 177 56 132
148 29 132 56 57
149 23 177 56 57
150 14 571 573 575
151 24 276 278 281
152 26 276 278 116
153 26 281 278 116
154 16 472 269 116
155 30 270 269 116
156 30 271 269 116
157 15 472 269 270
158 29 270 269 271
159 15 472 269 271
160 16 531 528 116
161 30 507 528 116
162 30 529 528 116
163 15 531 528 507
164 29 507 528 529
165 15 531 528 529
166 24 130 128 180
167 25 130 128 126
168 25 180 128 126
169 16 379 223 357
170 30 224 223 357
171 30 222 223 357
172 15 379 223 224
173 29 224 223 222
174 15 379 223 222
175 11 528 116 278
176 11 269 116 278
177 10 528 116 269
178 24 334 392 388
179 25 334 392 335
180 25 388 392 335
181 24 238 234 232
182 25 238 234 118
183 25 232 234 118
184 17 531 532 534
185 15 531 532 530
186 15 531 532 508
187 32 530 532 534
188 29 530 532 508
189 32 508 532 534
190 6 294 123 121
191 8 294 123 291
192 7 294 123 292
193 7 121 123 292
194 34 292 123 291
195 8 121 123 291
196 3 528 531 532
197 5 528 531 527
198 4 528 531 533
199 4 532 531 533
200 33 533 531 527
201 5 532 531 527
202 18 531 527 227
203 24 276 277 280
204 25 276 277 275
205 25 280 277 275
206 9 274 276 277
207 9 274 276 278
208 24 277 276 278
209 2 274 113 115
210 29 115 113 158
211 29 115 113 157
212 2 274 113 158
213 29 158 113 157
214 2 274 113 157
215 1 113 274 276
216 2 113 274 117
217 2 113 274 273
218 23 276 274 117
219 29 117 274 273
220 23 276 274 273
221 18 379 193 355
222 3 223 379 430
223 5 223 379 193
224 4 223 379 378
225 4 430 379 378
226 33 378 379 193
227 5 430 379 193
228 17 379 430 380
229 15 379 430 428
230 15 379 430 432
231 32 428 430 380
232 29 428 430 432
233 32 432 430 380
234 14 430 380 384
235 27 386 384 380
236 24 386 384 388
237 27 388 384 380
238 24 384 388 392
239 25 384 388 387
240 25 392 388 387
241 18 251 125 153
242 14 121 241 238
243 3 250 251 131
244 5 250 251 125
245 4 250 251 248
246 4 131 251 248
247 33 248 251 125
248 5 131 251 125
249 13 294 291 123
250 31 297 294 291
251 19 123 294 297
252 29 297 294 249
253 31 249 294 291
254 19 123 294 249
255 20 123 294 291
256 24 390 386 384
257 25 390 386 382
258 25 384 386 382
259 21 123 121 241
260 19 123 121 119
261 19 123 121 122
262 32 119 121 241
263 29 119 121 122
264 32 122 121 241
265 27 234 238 241
266 27 239 238 241
267 24 234 238 239
268 24 15 13 11
269 25 15 13 53
270 25 11 13 53
271 24 12 11 13
272 25 12 11 10
273 25 13 11 10
274 18 368 370 37
275 9 56 15 17
276 24 17 15 13
277 9 56 15 13
278 14 131 129 130
279 3 269 472 473
280 5 269 472 466
281 4 269 472 474
282 4 473 472 474
283 33 474 472 466
284 5 473 472 466
285 24 267 109 112
286 26 112 109 155
287 26 267 109 155
288 2 282 287 289
289 2 282 287 288
290 2 282 287 489
291 29 289 287 288
292 29 289 287 489
293 29 288 287 489
294 16 79 78 542
295 30 76 78 542
296 30 80 78 542
297 15 79 78 76
298 29 76 78 80
299 15 79 78 80
300 2 319 510 583
301 2 319 510 509
302 2 319 510 511
303 29 583 510 509
304 29 583 510 511
305 29 509 510 511
306 16 140 257 72
307 30 254 257 72
308 30 258 257 72
309 15 140 257 254
310 29 254 257 258
311 15 140 257 258
312 23 67 69 46
313 23 67 69 44
314 23 67 69 48
315 29 46 69 44
316 29 46 69 48
317 29 44 69 48
318 24 326 323 321
319 25 326 323 324
320 25 321 323 324
321 2 63 545 576
322 2 63 545 572
323 2 63 545 546
324 29 576 545 572
325 29 576 545 546
326 29 572 545 546
327 1 545 63 64
328 23 64 63 98
329 23 64 63 539
330 2 545 63 98
331 29 98 63 539
332 2 545 63 539
333 23 322 152 154
334 23 322 152 151
335 23 322 152 150
336 29 154 152 151
337 29 154 152 150
338 29 151 152 150
339 24 64 65 67
340 26 67 65 542
341 26 64 65 542
342 11 78 542 65
343 28 65 542 547
344 12 78 542 547
345 9 63 64 66
346 24 66 64 65
347 9 63 64 65
348 9 69 67 65
349 24 65 67 70
350 9 69 67 70
351 24 68 70 67
352 26 68 70 72
353 26 67 70 72
354 24 68 66 64
355 25 68 66 100
356 25 64 66 100
357 11 257 72 70
358 28 70 72 74
359 12 257 72 74
360 9 71 68 66
361 9 71 68 70
362 24 66 68 70
363 11 569 327 325
364 28 325 327 156
365 12 569 327 156
366 9 152 322 320
367 24 320 322 325
368 9 152 322 325
369 24 321 320 322
370 26 322 320 317
371 26 321 320 317
372 24 326 325 322
373 26 326 325 327
374 26 322 325 327
375 11 84 317 320
376 28 320 317 464
377 12 84 317 464
378 9 328 326 323
379 9 328 326 325
380 24 323 326 325
381 16 568 569 327
382 30 567 569 327
383 30 451 569 327
384 15 568 569 567
385 29 567 569 451
386 15 568 569 451
387 1 204 71 68
388 2 204 71 75
389 2 204 71 101
390 23 68 71 75
391 29 75 71 101
392 23 68 71 101
393 24 22 23 30
394 25 22 23 21
395 25 30 23 21
396 24 26 22 23
397 25 26 22 20
398 25 23 22 20
399 3 569 568 571
400 5 569 568 564
401 4 569 568 565
402 4 571 568 565
403 33 565 568 564
404 5 571 568 564
405 1 383 328 326
406 2 383 328 385
407 2 383 328 332
408 23 326 328 385
409 29 385 328 332
410 23 326 328 332
411 9 319 321 323
412 24 323 321 320
413 9 319 321 320
414 2 71 204 203
415 29 203 204 202
416 29 203 204 205
417 2 71 204 202
418 29 202 204 205
419 2 71 204 205
420 17 108 504 501
421 15 108 504 506
422 15 108 504 582
423 32 506 504 501
424 29 506 504 582
425 32 582 504 501
426 2 328 383 512
427 29 512 383 381
428 29 512 383 389
429 2 328 383 381
430 29 381 383 389
431 2 328 383 389
432 1 510 319 321
433 23 321 319 316
434 23 321 319 465
435 2 510 319 316
436 29 316 319 465
437 2 510 319 465
438 27 22 26 534
439 27 32 26 534
440 24 22 26 32
441 16 86 84 317
442 30 82 84 317
443 30 552 84 317
444 15 86 84 82
445 29 82 84 552
446 15 86 84 552
447 18 79 77 540
448 14 142 143 146
449 24 218 425 374
450 25 218 425 426
451 25 374 425 426
452 24 462 255 217
453 25 462 255 256
454 25 217 255 256
455 1 85 89 111
456 2 85 89 225
457 2 85 89 62
458 23 111 89 225
459 29 225 89 62
460 23 111 89 62
461 24 371 188 216
462 25 371 188 184
463 25 216 188 184
464 17 568 571 573
465 15 568 571 570
466 15 568 571 566
467 32 570 571 573
468 29 570 571 566
469 32 566 571 573
470 24 14 17 15
471 25 14 17 18
472 25 15 17 18
473 9 89 111 268
474 9 89 111 91
475 24 268 111 91
476 14 8 9 12
477 9 219 218 425
478 9 219 218 216
479 24 425 218 216
480 14 252 461 462
481 24 111 91 112
482 26 111 91 95
483 26 112 91 95
484 14 367 369 371
485 24 26 32 33
486 25 26 32 535
487 25 33 32 535
488 3 105 108 504
489 5 105 108 107
490 4 105 108 19
491 4 504 108 19
492 33 19 108 107
493 5 504 108 107
494 16 4 3 95
495 30 99 3 95
496 30 2 3 95
497 15 4 3 99
498 29 99 3 2
499 15 4 3 2
500 16 108 105 95
501 30 106 105 95
502 30 104 105 95
503 15 108 105 106
504 29 106 105 104
505 15 108 105 104
506 17 4 8 9
507 15 4 8 7
508 15 4 8 6
509 32 7 8 9
510 29 7 8 6
511 32 6 8 9
512 18 108 107 96
513 24 425 374 371
514 25 425 374 376
515 25 371 374 376
516 18 4 1 97
517 27 374 371 369
518 24 374 371 188
519 27 188 371 369
520 24 255 217 424
521 25 255 217 220
522 25 424 217 220
523 17 368 367 369
524 15 368 367 365
525 15 368 367 364
526 32 365 367 369
527 29 365 367 364
528 32 364 367 369
529 24 575 577 578
530 25 575 577 574
531 25 578 577 574
532 24 12 14 17
533 25 12 14 16
534 25 17 14 16
535 16 368 372 155
536 30 375 372 155
537 30 373 372 155
538 15 368 372 375
539 29 375 372 373
540 15 368 372 373
541 23 112 92 93
542 23 112 92 94
543 23 112 92 38
544 29 93 92 94
545 29 93 92 38
546 29 94 92 38
547 3 3 4 8
548 5 3 4 1
549 4 3 4 5
550 4 8 4 5
551 33 5 4 1
552 5 8 4 1
553 11 3 95 91
554 11 105 95 91
555 10 3 95 105
556 3 372 368 367
557 5 372 368 370
558 4 372 368 366
559 4 367 368 366
560 33 366 368 370
561 5 367 368 370
562 9 262 267 268
563 24 268 267 109
564 9 262 267 109
565 9 92 112 109
566 24 109 112 91
567 9 92 112 91
568 16 251 250 155
569 30 102 250 155
570 30 103 250 155
571 15 251 250 102
572 29 102 250 103
573 15 251 250 103
574 11 372 155 109
575 11 250 155 109
576 10 372 155 250
577 2 89 85 110
578 29 110 85 83
579 29 110 85 87
580 2 89 85 83
581 29 83 85 87
582 2 89 85 87
583 16 247 244 173
584 30 245 244 173
585 30 242 244 173
586 15 247 244 245
587 29 245 244 242
588 15 247 244 242
589 24 469 470 585
590 25 469 470 468
591 25 585 470 468
592 24 470 585 516
593 25 470 585 584
594 25 516 585 584
595 9 515 516 585
596 24 585 516 333
597 9 515 516 333
598 24 475 477 479
599 25 475 477 562
600 25 479 477 562
601 9 515 475 477
602 9 515 475 478
603 24 477 475 478
604 13 523 519 521
605 6 523 521 520
606 8 523 521 519
607 7 523 521 525
608 7 520 521 525
609 34 525 521 519
610 8 520 521 519
611 21 521 520 358
612 19 521 520 518
613 19 521 520 524
614 32 518 520 358
615 29 518 520 524
616 32 524 520 358
617 14 520 358 353
618 22 516 515 475
619 23 516 515 513
620 23 516 515 514
621 23 475 515 513
622 29 513 515 514
623 23 475 515 514
624 24 516 333 331
625 25 516 333 272
626 25 331 333 272
627 24 475 478 480
628 25 475 478 476
629 25 480 478 476
630 27 470 469 467
631 27 331 469 467
632 24 470 469 331
633 24 469 331 333
634 25 469 331 330
635 25 333 331 330
636 9 229 231 201
637 9 229 231 445
638 24 201 231 445
639 24 231 201 404
640 25 231 201 237
641 25 404 201 237
642 22 233 229 231
643 23 233 229 228
644 23 233 229 226
645 23 231 229 228
646 29 228 229 226
647 23 231 229 226
648 31 522 523 519
649 19 521 523 522
650 29 522 523 526
651 31 526 523 519
652 19 521 523 526
653 20 521 523 519
654 24 231 445 397
655 25 231 445 444
656 25 397 445 444
657 24 201 404 400
658 25 201 404 409
659 25 400 404 409
660 14 473 467 469
661 24 580 456 453
662 25 580 456 457
663 25 453 456 457
664 17 472 473 467
665 15 472 473 471
666 15 472 473 443
667 32 471 473 467
668 29 471 473 443
669 32 443 473 467
670 9 187 185 136
671 9 187 185 180
672 24 136 185 180
673 18 247 243 175
674 3 244 247 252
675 5 244 247 243
676 4 244 247 246
677 4 252 247 246
678 33 246 247 243
679 5 252 247 243
680 24 185 136 135
681 25 185 136 191
682 25 135 136 191
683 24 24 148 146
684 25 24 148 145
685 25 146 148 145
686 24 29 24 148
687 25 29 24 28
688 25 148 24 28
689 9 229 233 232
690 24 232 233 235
691 9 229 233 235
692 24 185 180 128
693 25 185 180 179
694 25 128 180 179
695 24 499 497 498
696 25 499 497 495
697 25 498 497 495
698 24 477 479 482
699 25 477 479 563
700 25 482 479 563
701 13 492 486 490
702 22 417 581 580
703 23 417 581 460
704 23 417 581 549
705 23 580 581 460
706 29 460 581 549
707 23 580 581 549
708 9 581 580 456
709 9 581 580 578
710 24 456 580 578
711 27 350 353 358
712 27 352 353 358
713 24 350 353 352
714 24 353 350 343
715 25 353 350 517
716 25 343 350 517
717 24 482 480 478
718 25 482 480 481
719 25 478 480 481
720 24 238 239 235
721 25 238 239 240
722 25 235 239 240
723 31 308 311 313
724 19 312 311 308
725 29 308 311 314
726 31 314 311 313
727 19 312 311 314
728 20 312 311 313
729 24 136 135 130
730 25 136 135 137
731 25 130 135 137
732 27 479 482 484
733 24 479 482 480
734 27 480 482 484
735 24 353 352 348
736 25 353 352 290
737 25 348 352 290
738 24 233 235 239
739 25 233 235 236
740 25 239 235 236
741 13 311 313 312
742 24 342 348 352
743 25 342 348 284
744 25 352 348 284
745 31 207 210 213
746 19 211 210 207
747 29 207 210 212
748 31 212 210 213
749 19 211 210 212
750 20 211 210 213
751 6 311 312 310
752 8 311 312 313
753 7 311 312 315
754 7 310 312 315
755 34 315 312 313
756 8 310 312 313
757 9 337 342 343
758 24 343 342 348
759 9 337 342 348
760 24 415 418 417
761 25 415 418 419
762 25 417 418 419
763 13 210 213 211
764 21 312 310 306
765 19 312 310 309
766 19 312 310 377
767 32 309 310 306
768 29 309 310 377
769 32 377 310 306
770 6 210 211 208
771 8 210 211 213
772 7 210 211 214
773 7 208 211 214
774 34 214 211 213
775 8 208 211 213
776 21 211 208 413
777 19 211 208 206
778 19 211 208 209
779 32 206 208 413
780 29 206 208 209
781 32 209 208 413
782 27 415 414 413
783 27 412 414 413
784 24 415 414 412
785 24 414 415 418
786 25 414 415 416
787 25 418 415 416
788 14 208 413 414
789 14 310 306 304
790 27 301 304 306
791 27 305 304 306
792 24 301 304 305
793 14 487 484 482
794 24 304 305 302
795 25 304 305 307
796 25 302 305 307
797 24 299 302 305
798 25 299 302 303
799 25 305 302 303
800 27 135 130 129
801 24 135 130 128
802 27 128 130 129
803 18 472 466 114
804 9 581 417 418
805 24 418 417 455
806 9 581 417 455
807 24 304 301 298
808 25 304 301 300
809 25 298 301 300
810 24 414 412 455
811 25 414 412 411
812 25 455 412 411
813 24 417 455 412
814 25 417 455 454
815 25 412 455 454
816 24 301 298 299
817 25 301 298 296
818 25 299 298 296
819 9 295 299 298
820 24 298 299 302
821 9 295 299 302
822 9 337 334 390
823 9 337 334 392
824 24 390 334 392
825 22 299 295 499
826 23 299 295 293
827 23 299 295 458
828 23 499 295 293
829 29 293 295 458
830 23 499 295 458
831 21 490 487 484
832 32 485 487 484
833 32 491 487 484
834 19 490 487 485
835 29 485 487 491
836 19 490 487 491
837 24 334 390 386
838 25 334 390 391
839 25 386 390 391
840 6 487 490 492
841 8 487 490 486
842 7 487 490 488
843 7 492 490 488
844 34 488 490 486
845 8 492 490 486
846 24 350 343 342
847 25 350 343 339
848 25 342 343 339
849 22 342 337 334
850 23 342 337 338
851 23 342 337 336
852 23 334 337 338
853 29 338 337 336
854 23 334 337 336
855 20 490 492 486
856 19 490 492 493
857 19 490 492 494
858 31 493 492 486
859 29 493 492 494
860 31 494 492 486
861 9 295 499 502
862 9 295 499 497
863 24 502 499 497
864 24 400 397 445
865 25 400 397 396
866 25 445 397 396
867 27 404 400 402
868 24 404 400 397
869 27 397 400 402
870 22 186 187 185
871 23 186 187 189
872 23 186 187 183
873 23 185 187 189
874 29 189 187 183
875 23 185 187 183
876 17 247 252 461
877 15 247 252 459
878 15 247 252 253
879 32 459 252 461
880 29 459 252 253
881 32 253 252 461
882 27 148 146 143
883 24 148 146 149
884 27 149 146 143
885 24 60 190 186
886 25 60 190 192
887 25 186 190 192
888 18 86 559 318
889 9 187 186 190
890 24 190 186 182
891 9 187 186 182
892 3 84 86 561
893 5 84 86 559
894 4 84 86 88
895 4 561 86 88
896 33 88 86 559
897 5 561 86 559
898 24 58 60 190
899 25 58 60 61
900 25 190 60 61
901 13 544 543 405
902 20 405 544 543
903 19 405 544 548
904 19 405 544 541
905 31 548 544 543
906 29 548 544 541
907 31 541 544 543
908 17 79 55 59
909 15 79 55 52
910 15 79 55 54
911 32 52 55 59
912 29 52 55 54
913 32 54 55 59
914 6 406 405 544
915 8 406 405 543
916 7 406 405 538
917 7 544 405 538
918 34 538 405 543
919 8 544 405 543
920 27 60 58 59
921 27 181 58 59
922 24 60 58 181
923 14 55 59 58
924 24 186 182 181
925 25 186 182 178
926 25 181 182 178
927 24 58 181 182
928 25 58 181 51
929 25 182 181 51
930 21 405 406 402
931 32 410 406 402
932 32 408 406 402
933 19 405 406 410
934 29 410 406 408
935 19 405 406 408
936 14 406 402 400
937 17 86 561 558
938 15 86 561 90
939 15 86 561 537
940 32 90 561 558
941 29 90 561 537
942 32 537 561 558
943 14 561 558 556
944 6 196 197 195
945 8 196 197 199
946 7 196 197 200
947 7 195 197 200
948 34 200 197 199
949 8 195 197 199
950 27 255 462 461
951 27 421 462 461
952 24 255 462 421
953 13 196 199 197
954 31 198 196 199
955 19 197 196 198
956 29 198 196 194
957 31 194 196 199
958 19 197 196 194
959 20 197 196 199
960 27 554 556 558
961 24 554 556 560
962 27 560 556 558
963 24 500 498 497
964 25 500 498 496
965 25 497 498 496
966 24 29 25 149
967 25 29 25 27
968 25 149 25 27
969 9 31 29 24
970 9 31 29 25
971 24 24 29 25
972 24 146 149 25
973 25 146 149 147
974 25 25 149 147
975 22 30 31 29
976 23 30 31 35
977 23 30 31 34
978 23 29 31 35
979 29 35 31 34
980 23 29 31 34
981 24 30 33 32
982 25 30 33 36
983 25 32 33 36
984 24 556 560 557
985 25 556 560 536
986 25 557 560 536
987 9 31 30 23
988 24 23 30 33
989 9 31 30 33
990 1 263 262 267
991 23 267 262 261
992 23 267 262 260
993 2 263 262 261
994 29 261 262 260
995 2 263 262 260
996 22 436 434 555
997 23 436 434 431
998 23 436 434 429
999 23 555 434 431
1000 29 431 434 429
1001 23 555 434 429
1002 24 218 216 188
1003 25 218 216 215
1004 25 188 216 215
1005 24 462 421 423
1006 25 462 421 420
1007 25 423 421 420
1008 24 502 503 500
1009 25 502 503 505
1010 25 500 503 505
1011 27 503 500 501
1012 24 503 500 498
1013 27 498 500 501
1014 24 111 268 267
1015 25 111 268 266
1016 25 267 268 266
1017 14 504 501 500
1018 24 555 553 554
1019 25 555 553 550
1020 25 554 553 550
1021 22 424 219 218
1022 23 424 219 221
1023 23 424 219 427
1024 23 218 219 221
1025 29 221 219 427
1026 23 218 219 427
1027 9 434 436 435
1028 24 435 436 439
1029 9 434 436 439
1030 24 553 554 556
1031 25 553 554 551
1032 25 556 554 551
1033 2 262 263 264
1034 2 262 263 259
1035 2 262 263 265
1036 29 264 263 259
1037 29 264 263 265
1038 29 259 263 265
1039 24 442 438 435
1040 25 442 438 437
1041 25 435 438 437
1042 24 442 393 439
1043 25 442 393 395
1044 25 439 393 395
1045 24 424 423 421
1046 25 424 423 422
1047 25 421 423 422
1048 24 438 435 436
1049 25 438 435 433
1050 25 436 435 433
1051 9 434 555 553
1052 9 434 555 557
1053 24 553 555 557
1054 27 438 442 394
1055 27 393 442 394
1056 24 438 442 393
1057 14 195 394 442
1058 24 555 557 560
1059 25 555 557 440
1060 25 560 557 440
1061 24 580 578 577
1062 25 580 578 579
1063 25 577 578 579
1064 21 197 195 394
1065 19 197 195 163
1066 19 197 195 398
1067 32 163 195 394
1068 29 163 195 398
1069 32 398 195 394
1070 24 499 502 503
1071 25 499 502 463
1072 25 503 502 463
1073 24 436 439 393
1074 25 436 439 441
1075 25 393 439 441
1076 9 219 424 217
1077 24 217 424 423
1078 9 219 424 423
1079 17 251 131 129
1080 15 251 131 134
1081 15 251 131 133
1082 32 134 131 129
1083 29 134 131 133
1084 32 133 131 129
1085 3 78 79 55
1086 5 78 79 77
1087 4 78 79 81
1088 4 55 79 81
1089 33 81 79 77
1090 5 55 79 77

Dihedrals

1 26 347 351 356 354
2 30 356 351 173 171
3 30 347 351 173 171
4 15 41 285 283 281
5 31 283 285 41 40
6 31 283 285 41 42
7 15 41 285 283 280
8 10 345 349 344 347
9 25 344 349 345 346
10 25 344 349 345 340
11 26 344 349 354 356
12 11 345 349 344 341
13 27 354 349 344 341
14 25 354 349 345 346
15 25 354 349 345 340
16 10 345 349 354 356
17 12 345 349 354 357
18 28 344 349 354 357
19 1 403 345 349 344
20 23 349 345 403 401
21 23 349 345 403 407
22 23 349 345 403 399
23 1 403 345 349 354
24 33 346 345 403 401
25 33 346 345 403 407
26 33 346 345 403 399
27 33 340 345 403 401
28 33 340 345 403 407
29 33 340 345 403 399
30 29 49 47 174 169
31 26 49 47 174 176
32 27 174 47 49 50
33 45 45 47 174 169
34 26 177 49 47 174
35 27 177 49 47 45
36 44 50 49 47 45
37 26 47 49 177 124
38 26 347 344 349 354
39 26 349 344 347 351
40 10 165 347 344 349
41 11 165 347 344 341
42 10 165 347 351 356
43 25 344 347 165 164
44 25 351 347 165 164
45 25 344 347 165 166
46 25 351 347 165 166
47 26 344 347 351 356
48 27 351 347 344 341
49 12 165 347 351 173
50 28 344 347 351 173
51 10 56 177 49 47
52 11 56 177 49 50
53 10 56 177 124 176
54 11 56 177 124 127
55 25 49 177 56 132
56 25 124 177 56 132
57 25 49 177 56 57
58 25 124 177 56 57
59 26 49 177 124 176
60 27 49 177 124 127
61 27 124 177 49 50
62 15 244 173 351 356
63 31 351 173 244 245
64 31 351 173 244 242
65 15 244 173 351 347
66 33 160 162 165 164
67 33 160 162 165 166
68 33 161 162 165 164
69 33 161 162 165 166
70 33 159 162 165 164
71 33 159 162 165 166
72 1 162 165 347 344
73 1 162 165 347 351
74 23 347 165 162 160
75 23 347 165 162 161
76 23 347 165 162 159
77 26 47 174 176 124
78 27 47 174 176 120
79 27 176 174 47 45
80 10 361 356 351 347
81 10 361 356 354 349
82 25 354 356 361 363
83 25 354 356 361 360
84 25 354 356 361 362
85 25 351 356 361 363
86 25 351 356 361 360
87 25 351 356 361 362
88 12 361 356 351 173
89 28 354 356 351 173
90 12 361 356 354 357
91 28 351 356 354 357
92 26 349 354 356 351
93 30 356 354 357 359
94 30 349 354 357 359
95 26 280 283 281 278
96 30 281 283 285 286
97 30 280 283 285 286
98 10 447 281 278 276
99 10 447 281 283 280
100 25 283 281 447 446
101 25 283 281 447 450
102 25 283 281 447 448
103 25 278 281 447 446
104 25 278 281 447 450
105 25 278 281 447 448
106 12 447 281 283 285
107 28 278 281 283 285
108 12 447 281 278 116
109 28 283 281 278 116
110 17 168 169 174 47
111 17 168 169 174 176
112 32 174 169 168 167
113 32 174 169 168 172
114 3 142 140 257 72
115 39 138 140 257 72
116 4 257 140 142 143
117 2 257 140 142 144
118 2 257 140 142 141
119 5 257 140 139 73
120 2 142 140 257 254
121 2 142 140 257 258
122 40 138 140 142 143
123 41 138 140 139 73
124 5 142 140 139 73
125 18 43 41 285 283
126 46 285 41 43 39
127 19 43 41 285 286
128 38 40 41 285 286
129 38 42 41 285 286
130 35 40 41 43 39
131 34 40 41 43 170
132 35 42 41 43 39
133 34 42 41 43 170
134 1 287 282 280 277
135 23 280 282 287 289
136 23 280 282 287 288
137 23 280 282 287 489
138 1 287 282 280 283
139 33 279 282 287 289
140 33 279 282 287 288
141 33 279 282 287 489
142 33 483 282 287 289
143 33 483 282 287 288
144 33 483 282 287 489
145 10 282 280 277 276
146 25 277 280 282 279
147 25 277 280 282 483
148 26 277 280 283 281
149 11 282 280 277 275
150 27 283 280 277 275
151 25 283 280 282 279
152 25 283 280 282 483
153 10 282 280 283 281
154 12 282 280 283 285
155 28 277 280 283 285
156 15 223 357 354 356
157 31 354 357 223 224
158 31 354 357 223 222
159 15 223 357 354 349
160 20 140 142 143 146
161 34 144 142 140 138
162 34 141 142 140 138
163 48 143 142 140 139
164 35 144 142 140 139
165 35 141 142 140 139
166 27 174 176 124 127
167 45 120 176 174 169
168 44 120 176 124 127
169 29 124 176 174 169
170 26 177 124 176 174
171 27 177 124 176 120
172 3 168 43 41 285
173 39 170 43 41 285
174 4 41 43 168 169
175 2 41 43 168 172
176 2 41 43 168 167
177 5 41 43 39 449
178 2 168 43 41 40
179 2 168 43 41 42
180 40 170 43 168 169
181 41 170 43 39 449
182 5 168 43 39 449
183 29 456 453 575 573
184 26 456 453 575 577
185 27 575 453 456 457
186 45 452 453 575 573
187 20 43 168 169 174
188 34 172 168 43 170
189 34 167 168 43 170
190 48 169 168 43 39
191 35 172 168 43 39
192 35 167 168 43 39
193 26 234 232 233 235
194 27 233 232 234 118
195 26 453 575 577 578
196 27 453 575 577 574
197 27 577 575 453 452
198 17 532 534 26 22
199 17 532 534 26 32
200 32 26 534 532 508
201 32 26 534 532 530
202 26 14 12 11 13
203 27 14 12 11 10
204 27 11 12 14 16
205 24 177 56 15 17
206 24 15 56 177 49
207 24 15 56 177 124
208 24 177 56 15 13
209 17 571 573 575 453
210 17 571 573 575 577
211 32 575 573 571 566
212 32 575 573 571 570
213 26 276 278 281 283
214 18 472 269 116 278
215 46 116 269 472 466
216 35 270 269 472 466
217 34 270 269 472 474
218 35 271 269 472 466
219 34 271 269 472 474
220 18 531 528 116 278
221 46 116 528 531 527
222 35 507 528 531 527
223 34 507 528 531 533
224 35 529 528 531 527
225 34 529 528 531 533
226 27 130 128 180 179
227 45 126 128 130 129
228 44 126 128 180 179
229 29 180 128 130 129
230 18 379 223 357 354
231 46 357 223 379 193
232 19 379 223 357 359
233 38 224 223 357 359
234 38 222 223 357 359
235 35 224 223 379 193
236 34 224 223 379 378
237 35 222 223 379 193
238 34 222 223 379 378
239 15 528 116 278 276
240 15 269 116 278 276
241 15 528 116 278 281
242 15 269 116 278 281
243 31 278 116 528 507
244 31 278 116 528 529
245 31 278 116 269 270
246 31 278 116 269 271
247 13 528 116 269 472
248 14 528 116 269 270
249 14 528 116 269 271
250 14 269 116 528 507
251 14 269 116 528 529
252 13 269 116 528 531
253 26 334 392 388 384
254 27 334 392 388 387
255 29 232 234 238 241
256 45 118 234 238 241
257 26 238 234 232 233
258 27 238 234 232 230
259 44 118 234 232 230
260 26 232 234 238 239
261 20 531 532 534 26
262 34 530 532 531 533
263 34 508 532 531 533
264 48 534 532 531 527
265 35 530 532 531 527
266 35 508 532 531 527
267 9 121 123 291 294
268 8 294 123 121 241
269 6 294 123 121 119
270 6 294 123 121 122
271 6 121 123 294 297
272 6 121 123 294 249
273 42 292 123 294 291
274 43 292 123 121 241
275 47 291 123 121 241
276 7 121 123 294 291
277 4 528 531 532 534
278 2 528 531 532 530
279 2 528 531 532 508
280 40 533 531 532 534
281 3 532 531 528 116
282 39 533 531 528 116
283 5 532 531 527 227
284 41 533 531 527 227
285 2 532 531 528 529
286 5 528 531 527 227
287 2 532 531 528 507
288 26 276 277 280 283
289 26 280 277 276 278
290 10 274 276 277 280
291 11 274 276 277 275
292 10 274 276 278 281
293 25 277 276 274 117
294 25 278 276 274 117
295 25 277 276 274 273
296 25 278 276 274 273
297 26 277 276 278 281
298 27 278 276 277 275
299 28 277 276 278 116
300 12 274 276 278 116
301 33 115 113 274 117
302 33 115 113 274 273
303 33 158 113 274 117
304 33 158 113 274 273
305 33 157 113 274 117
306 33 157 113 274 273
307 1 113 274 276 277
308 1 113 274 276 278
309 23 276 274 113 115
310 23 276 274 113 158
311 23 276 274 113 157
312 3 430 379 223 357
313 39 378 379 223 357
314 4 223 379 430 380
315 2 223 379 430 428
316 2 223 379 430 432
317 5 223 379 193 355
318 2 430 379 223 224
319 2 430 379 223 222
320 40 378 379 430 380
321 41 378 379 193 355
322 5 430 379 193 355
323 20 379 430 380 384
324 34 428 430 379 378
325 34 432 430 379 378
326 48 380 430 379 193
327 35 428 430 379 193
328 35 432 430 379 193
329 17 430 380 384 386
330 17 430 380 384 388
331 32 384 380 430 432
332 32 384 380 430 428
333 26 386 384 388 392
334 27 386 384 388 387
335 27 388 384 386 382
336 27 384 388 392 335
337 45 387 388 384 380
338 44 387 388 392 335
339 29 392 388 384 380
340 17 121 241 238 234
341 17 121 241 238 239
342 32 238 241 121 119
343 32 238 241 121 122
344 3 131 251 250 155
345 39 248 251 250 155
346 4 250 251 131 129
347 2 250 251 131 134
348 2 250 251 131 133
349 5 250 251 125 153
350 2 131 251 250 102
351 2 131 251 250 103
352 40 248 251 131 129
353 41 248 251 125 153
354 5 131 251 125 153
355 16 294 291 123 292
356 22 123 291 294 297
357 22 123 291 294 249
358 37 297 294 123 291
359 36 297 294 123 292
360 37 249 294 123 291
361 36 249 294 123 292
362 29 390 386 384 380
363 26 390 386 384 388
364 27 384 386 390 391
365 45 382 386 384 380
366 21 123 121 241 238
367 36 119 121 123 292
368 36 122 121 123 292
369 37 119 121 123 291
370 37 122 121 123 291
371 26 234 238 239 235
372 27 234 238 239 240
373 27 239 238 234 118
374 27 15 13 11 10
375 44 53 13 11 10
376 29 13 11 12 9
377 45 10 11 12 9
378 26 12 11 13 15
379 27 12 11 13 53
380 10 56 15 17 14
381 25 17 15 56 132
382 25 17 15 56 57
383 26 17 15 13 11
384 27 17 15 13 53
385 11 56 15 17 18
386 27 13 15 17 18
387 25 13 15 56 132
388 25 13 15 56 57
389 11 56 15 13 53
390 10 56 15 13 11
391 17 131 129 130 135
392 17 131 129 130 128
393 32 130 129 131 133
394 32 130 129 131 134
395 3 473 472 269 116
396 39 474 472 269 116
397 4 269 472 473 467
398 2 269 472 473 471
399 2 269 472 473 443
400 5 269 472 466 114
401 2 473 472 269 270
402 2 473 472 269 271
403 40 474 472 473 467
404 41 474 472 466 114
405 5 473 472 466 114
406 26 267 109 112 91
407 18 79 78 542 65
408 46 542 78 79 77
409 19 79 78 542 547
410 38 76 78 542 547
411 38 80 78 542 547
412 35 76 78 79 77
413 34 76 78 79 81
414 35 80 78 79 77
415 34 80 78 79 81
416 18 140 257 72 70
417 46 72 257 140 139
418 19 140 257 72 74
419 38 254 257 72 74
420 38 258 257 72 74
421 35 254 257 140 139
422 34 254 257 140 138
423 35 258 257 140 139
424 34 258 257 140 138
425 26 326 323 321 320
426 26 321 323 326 325
427 1 545 63 64 66
428 23 64 63 545 576
429 23 64 63 545 572
430 23 64 63 545 546
431 1 545 63 64 65
432 33 98 63 545 576
433 33 98 63 545 572
434 33 98 63 545 546
435 33 539 63 545 576
436 33 539 63 545 572
437 33 539 63 545 546
438 26 64 65 67 70
439 30 67 65 542 547
440 30 64 65 542 547
441 15 78 542 65 67
442 31 65 542 78 76
443 31 65 542 78 80
444 15 78 542 65 64
445 10 63 64 66 68
446 25 66 64 63 98
447 25 66 64 63 539
448 26 66 64 65 67
449 11 63 64 66 100
450 27 65 64 66 100
451 25 65 64 63 98
452 25 65 64 63 539
453 10 63 64 65 67
454 12 63 64 65 542
455 28 66 64 65 542
456 10 69 67 70 68
457 10 69 67 65 64
458 25 65 67 69 46
459 25 65 67 69 44
460 25 65 67 69 48
461 25 70 67 69 46
462 25 70 67 69 44
463 25 70 67 69 48
464 12 69 67 70 72
465 28 65 67 70 72
466 12 69 67 65 542
467 28 70 67 65 542
468 26 68 70 67 65
469 30 68 70 72 74
470 30 67 70 72 74
471 26 68 66 64 65
472 26 64 66 68 70
473 15 257 72 70 68
474 31 70 72 257 254
475 31 70 72 257 258
476 15 257 72 70 67
477 10 71 68 66 64
478 11 71 68 66 100
479 10 71 68 70 67
480 25 66 68 71 75
481 25 70 68 71 75
482 25 66 68 71 101
483 25 70 68 71 101
484 26 66 68 70 67
485 27 70 68 66 100
486 12 71 68 70 72
487 28 66 68 70 72
488 15 569 327 325 326
489 31 325 327 569 567
490 31 325 327 569 451
491 15 569 327 325 322
492 10 152 322 325 326
493 10 152 322 320 321
494 25 320 322 152 154
495 25 320 322 152 151
496 25 320 322 152 150
497 25 325 322 152 154
498 25 325 322 152 151
499 25 325 322 152 150
500 12 152 322 320 317
501 28 325 322 320 317
502 12 152 322 325 327
503 28 320 322 325 327
504 26 321 320 322 325
505 30 322 320 317 464
506 30 321 320 317 464
507 26 326 325 322 320
508 30 326 325 327 156
509 30 322 325 327 156
510 15 84 317 320 322
511 31 320 317 84 82
512 31 320 317 84 552
513 15 84 317 320 321
514 10 328 326 323 321
515 11 328 326 323 324
516 10 328 326 325 322
517 25 323 326 328 385
518 25 325 326 328 385
519 25 323 326 328 332
520 25 325 326 328 332
521 26 323 326 325 322
522 27 325 326 323 324
523 12 328 326 325 327
524 28 323 326 325 327
525 18 568 569 327 325
526 46 327 569 568 564
527 19 568 569 327 156
528 38 567 569 327 156
529 38 451 569 327 156
530 35 567 569 568 564
531 34 567 569 568 565
532 35 451 569 568 564
533 34 451 569 568 565
534 1 204 71 68 66
535 1 204 71 68 70
536 23 68 71 204 203
537 23 68 71 204 202
538 23 68 71 204 205
539 26 22 23 30 33
540 27 30 23 22 20
541 29 23 22 26 534
542 45 20 22 26 534
543 26 26 22 23 30
544 27 26 22 23 21
545 44 20 22 23 21
546 26 23 22 26 32
547 3 571 568 569 327
548 39 565 568 569 327
549 4 569 568 571 573
550 2 569 568 571 570
551 2 569 568 571 566
552 5 569 568 564 329
553 2 571 568 569 567
554 2 571 568 569 451
555 40 565 568 571 573
556 41 565 568 564 329
557 5 571 568 564 329
558 1 383 328 326 323
559 1 383 328 326 325
560 23 326 328 383 512
561 23 326 328 383 381
562 23 326 328 383 389
563 10 319 321 323 326
564 25 323 321 319 316
565 25 323 321 319 465
566 26 323 321 320 322
567 11 319 321 323 324
568 27 320 321 323 324
569 25 320 321 319 316
570 25 320 321 319 465
571 10 319 321 320 322
572 12 319 321 320 317
573 28 323 321 320 317
574 33 203 204 71 75
575 33 203 204 71 101
576 33 202 204 71 75
577 33 202 204 71 101
578 33 205 204 71 75
579 33 205 204 71 101
580 20 108 504 501 500
581 34 506 504 108 19
582 34 582 504 108 19
583 48 501 504 108 107
584 35 506 504 108 107
585 35 582 504 108 107
586 33 512 383 328 385
587 33 512 383 328 332
588 33 381 383 328 385
589 33 381 383 328 332
590 33 389 383 328 385
591 33 389 383 328 332
592 1 510 319 321 323
593 23 321 319 510 583
594 23 321 319 510 509
595 23 321 319 510 511
596 1 510 319 321 320
597 33 316 319 510 583
598 33 316 319 510 509
599 33 316 319 510 511
600 33 465 319 510 583
601 33 465 319 510 509
602 33 465 319 510 511
603 26 22 26 32 33
604 27 22 26 32 535
605 27 32 26 22 20
606 18 86 84 317 320
607 46 317 84 86 559
608 19 86 84 317 464
609 38 82 84 317 464
610 38 552 84 317 464
611 35 82 84 86 559
612 34 82 84 86 88
613 35 552 84 86 559
614 34 552 84 86 88
615 17 142 143 146 148
616 17 142 143 146 149
617 32 146 143 142 141
618 32 146 143 142 144
619 26 218 425 374 371
620 27 218 425 374 376
621 44 426 425 374 376
622 26 374 425 218 216
623 29 217 255 462 461
624 45 256 255 462 461
625 26 462 255 217 424
626 27 462 255 217 220
627 44 256 255 217 220
628 26 217 255 462 421
629 1 85 89 111 268
630 1 85 89 111 91
631 23 111 89 85 110
632 23 111 89 85 83
633 23 111 89 85 87
634 27 371 188 216 215
635 45 184 188 371 369
636 44 184 188 216 215
637 29 216 188 371 369
638 20 568 571 573 575
639 34 570 571 568 565
640 34 566 571 568 565
641 48 573 571 568 564
642 35 570 571 568 564
643 35 566 571 568 564
644 26 14 17 15 13
645 27 15 17 14 16
646 10 89 111 268 267
647 11 89 111 268 266
648 10 89 111 91 112
649 25 268 111 89 225
650 25 91 111 89 225
651 25 268 111 89 62
652 25 91 111 89 62
653 26 268 111 91 112
654 27 91 111 268 266
655 28 268 111 91 95
656 12 89 111 91 95
657 17 8 9 12 14
658 17 8 9 12 11
659 32 12 9 8 6
660 32 12 9 8 7
661 10 219 218 425 374
662 11 219 218 425 426
663 10 219 218 216 188
664 11 219 218 216 215
665 25 425 218 219 221
666 25 216 218 219 221
667 25 425 218 219 427
668 25 216 218 219 427
669 26 425 218 216 188
670 27 425 218 216 215
671 27 216 218 425 426
672 17 252 461 462 255
673 17 252 461 462 421
674 32 462 461 252 253
675 32 462 461 252 459
676 26 111 91 112 109
677 17 367 369 371 374
678 17 367 369 371 188
679 32 371 369 367 364
680 32 371 369 367 365
681 29 33 32 26 534
682 45 535 32 26 534
683 26 26 32 33 30
684 27 26 32 33 36
685 3 504 108 105 95
686 39 19 108 105 95
687 4 105 108 504 501
688 2 105 108 504 506
689 2 105 108 504 582
690 5 105 108 107 96
691 2 504 108 105 106
692 2 504 108 105 104
693 40 19 108 504 501
694 41 19 108 107 96
695 5 504 108 107 96
696 18 4 3 95 91
697 46 95 3 4 1
698 35 99 3 4 1
699 34 99 3 4 5
700 35 2 3 4 1
701 34 2 3 4 5
702 18 108 105 95 91
703 46 95 105 108 107
704 35 106 105 108 107
705 34 106 105 108 19
706 35 104 105 108 107
707 34 104 105 108 19
708 20 4 8 9 12
709 34 7 8 4 5
710 34 6 8 4 5
711 48 9 8 4 1
712 35 7 8 4 1
713 35 6 8 4 1
714 29 425 374 371 369
715 26 425 374 371 188
716 27 371 374 425 426
717 45 376 374 371 369
718 26 374 371 188 216
719 27 374 371 188 184
720 27 188 371 374 376
721 26 255 217 424 423
722 27 424 217 255 256
723 20 368 367 369 371
724 34 365 367 368 366
725 34 364 367 368 366
726 48 369 367 368 370
727 35 365 367 368 370
728 35 364 367 368 370
729 27 575 577 578 579
730 45 574 577 575 573
731 44 574 577 578 579
732 29 578 577 575 573
733 29 17 14 12 9
734 45 16 14 12 9
735 26 12 14 17 15
736 27 12 14 17 18
737 44 16 14 17 18
738 26 17 14 12 11
739 18 368 372 155 109
740 46 155 372 368 370
741 35 375 372 368 370
742 34 375 372 368 366
743 35 373 372 368 370
744 34 373 372 368 366
745 4 3 4 8 9
746 2 3 4 8 7
747 2 3 4 8 6
748 40 5 4 8 9
749 3 8 4 3 95
750 39 5 4 3 95
751 5 8 4 1 97
752 41 5 4 1 97
753 2 8 4 3 2
754 5 3 4 1 97
755 2 8 4 3 99
756 15 3 95 91 111
757 15 105 95 91 111
758 15 3 95 91 112
759 15 105 95 91 112
760 31 91 95 3 99
761 31 91 95 3 2
762 31 91 95 105 106
763 31 91 95 105 104
764 13 3 95 105 108
765 14 3 95 105 106
766 14 3 95 105 104
767 14 105 95 3 99
768 14 105 95 3 2
769 13 105 95 3 4
770 4 372 368 367 369
771 2 372 368 367 365
772 2 372 368 367 364
773 40 366 368 367 369
774 3 367 368 372 155
775 39 366 368 372 155
776 5 367 368 370 37
777 41 366 368 370 37
778 2 367 368 372 373
779 5 372 368 370 37
780 2 367 368 372 375
781 10 262 267 268 111
782 25 268 267 262 261
783 25 268 267 262 260
784 26 268 267 109 112
785 11 262 267 268 266
786 27 109 267 268 266
787 25 109 267 262 261
788 25 109 267 262 260
789 10 262 267 109 112
790 12 262 267 109 155
791 28 268 267 109 155
792 10 92 112 91 111
793 10 92 112 109 267
794 25 109 112 92 93
795 25 109 112 92 94
796 25 109 112 92 38
797 25 91 112 92 93
798 25 91 112 92 94
799 25 91 112 92 38
800 12 92 112 91 95
801 28 109 112 91 95
802 28 91 112 109 155
803 12 92 112 109 155
804 18 251 250 155 109
805 46 155 250 251 125
806 35 102 250 251 125
807 34 102 250 251 248
808 35 103 250 251 125
809 34 103 250 251 248
810 15 372 155 109 112
811 15 250 155 109 112
812 15 372 155 109 267
813 15 250 155 109 267
814 31 109 155 372 375
815 31 109 155 372 373
816 31 109 155 250 102
817 31 109 155 250 103
818 13 372 155 250 251
819 14 372 155 250 102
820 14 372 155 250 103
821 14 250 155 372 375
822 14 250 155 372 373
823 13 250 155 372 368
824 33 110 85 89 225
825 33 110 85 89 62
826 33 83 85 89 225
827 33 83 85 89 62
828 33 87 85 89 225
829 33 87 85 89 62
830 18 247 244 173 351
831 46 173 244 247 243
832 19 247 244 173 171
833 38 245 244 173 171
834 38 242 244 173 171
835 35 245 244 247 243
836 34 245 244 247 246
837 35 242 244 247 243
838 34 242 244 247 246
839 29 585 470 469 467
840 45 468 470 469 467
841 26 469 470 585 516
842 27 469 470 585 584
843 44 468 470 585 584
844 26 585 470 469 331
845 26 470 585 516 333
846 27 516 585 470 468
847 10 515 516 585 470
848 25 585 516 515 513
849 25 585 516 515 514
850 26 585 516 333 331
851 27 585 516 333 272
852 11 515 516 585 584
853 27 333 516 585 584
854 25 333 516 515 513
855 25 333 516 515 514
856 11 515 516 333 272
857 10 515 516 333 331
858 26 475 477 479 482
859 27 475 477 479 563
860 44 562 477 479 563
861 26 479 477 475 478
862 10 515 475 477 479
863 11 515 475 477 562
864 10 515 475 478 480
865 11 515 475 478 476
866 25 477 475 515 513
867 25 478 475 515 513
868 25 477 475 515 514
869 25 478 475 515 514
870 26 477 475 478 480
871 27 477 475 478 476
872 27 478 475 477 562
873 16 523 519 521 525
874 22 521 519 523 522
875 22 521 519 523 526
876 9 520 521 519 523
877 8 523 521 520 358
878 6 523 521 520 518
879 6 523 521 520 524
880 6 520 521 523 522
881 6 520 521 523 526
882 42 525 521 523 519
883 43 525 521 520 358
884 47 519 521 520 358
885 7 520 521 523 519
886 21 521 520 358 353
887 36 518 520 521 525
888 36 524 520 521 525
889 37 518 520 521 519
890 37 524 520 521 519
891 17 520 358 353 350
892 17 520 358 353 352
893 32 353 358 520 518
894 32 353 358 520 524
895 24 475 515 516 585
896 24 516 515 475 477
897 24 516 515 475 478
898 24 475 515 516 333
899 27 516 333 331 330
900 44 272 333 331 330
901 26 475 478 480 482
902 27 475 478 480 481
903 26 470 469 331 333
904 27 470 469 331 330
905 27 331 469 470 468
906 29 333 331 469 467
907 45 330 331 469 467
908 26 469 331 333 516
909 27 469 331 333 272
910 10 229 231 201 404
911 11 229 231 201 237
912 10 229 231 445 397
913 11 229 231 445 444
914 25 201 231 229 228
915 25 445 231 229 228
916 25 201 231 229 226
917 25 445 231 229 226
918 26 201 231 445 397
919 27 201 231 445 444
920 27 445 231 201 237
921 26 231 201 404 400
922 27 231 201 404 409
923 44 237 201 404 409
924 26 404 201 231 445
925 24 231 229 233 232
926 24 233 229 231 201
927 24 233 229 231 445
928 24 231 229 233 235
929 37 522 523 521 519
930 36 522 523 521 525
931 37 526 523 521 519
932 36 526 523 521 525
933 26 231 445 397 400
934 27 231 445 397 396
935 29 201 404 400 402
936 26 201 404 400 397
937 27 400 404 201 237
938 45 409 404 400 402
939 17 473 467 469 470
940 17 473 467 469 331
941 32 469 467 473 443
942 32 469 467 473 471
943 26 580 456 453 575
944 27 580 456 453 452
945 44 457 456 453 452
946 26 453 456 580 578
947 20 472 473 467 469
948 34 471 473 472 474
949 34 443 473 472 474
950 48 467 473 472 466
951 35 471 473 472 466
952 35 443 473 472 466
953 10 187 185 136 135
954 11 187 185 136 191
955 10 187 185 180 128
956 11 187 185 180 179
957 25 136 185 187 189
958 25 180 185 187 189
959 25 136 185 187 183
960 25 180 185 187 183
961 26 136 185 180 128
962 27 136 185 180 179
963 27 180 185 136 191
964 3 252 247 244 173
965 39 246 247 244 173
966 4 244 247 252 461
967 2 244 247 252 459
968 2 244 247 252 253
969 5 244 247 243 175
970 2 252 247 244 245
971 2 252 247 244 242
972 40 246 247 252 461
973 41 246 247 243 175
974 5 252 247 243 175
975 26 185 136 135 130
976 27 185 136 135 137
977 44 191 136 135 137
978 26 135 136 185 180
979 29 24 148 146 143
980 26 24 148 146 149
981 27 146 148 24 28
982 45 145 148 146 143
983 26 29 24 148 146
984 27 29 24 148 145
985 44 28 24 148 145
986 26 148 24 29 25
987 10 229 233 232 234
988 25 232 233 229 228
989 25 232 233 229 226
990 26 232 233 235 239
991 27 232 233 235 236
992 11 229 233 232 230
993 27 235 233 232 230
994 25 235 233 229 228
995 25 235 233 229 226
996 11 229 233 235 236
997 10 229 233 235 239
998 26 185 180 128 130
999 27 185 180 128 126
1000 26 499 497 498 500
1001 27 499 497 498 496
1002 29 477 479 482 484
1003 26 477 479 482 480
1004 27 482 479 477 562
1005 45 563 479 482 484
1006 22 490 486 492 493
1007 22 490 486 492 494
1008 16 492 486 490 488
1009 24 580 581 417 418
1010 24 417 581 580 456
1011 24 417 581 580 578
1012 24 580 581 417 455
1013 10 581 580 456 453
1014 11 581 580 456 457
1015 10 581 580 578 577
1016 11 581 580 578 579
1017 25 456 580 581 460
1018 25 578 580 581 460
1019 25 456 580 581 549
1020 25 578 580 581 549
1021 26 456 580 578 577
1022 27 456 580 578 579
1023 27 578 580 456 457
1024 26 350 353 352 348
1025 27 350 353 352 290
1026 27 352 353 350 517
1027 29 343 350 353 358
1028 45 517 350 353 358
1029 26 353 350 343 342
1030 27 353 350 343 339
1031 44 517 350 343 339
1032 26 343 350 353 352
1033 27 482 480 478 476
1034 45 481 480 482 484
1035 44 481 480 478 476
1036 29 478 480 482 484
1037 29 235 239 238 241
1038 45 240 239 238 241
1039 26 238 239 235 233
1040 27 238 239 235 236
1041 37 308 311 312 313
1042 36 308 311 312 315
1043 37 314 311 312 313
1044 36 314 311 312 315
1045 29 136 135 130 129
1046 26 136 135 130 128
1047 27 130 135 136 191
1048 45 137 135 130 129
1049 26 479 482 480 478
1050 27 479 482 480 481
1051 27 480 482 479 563
1052 29 348 352 353 358
1053 45 290 352 353 358
1054 26 353 352 348 342
1055 27 353 352 348 284
1056 27 233 235 239 240
1057 44 236 235 239 240
1058 16 311 313 312 315
1059 22 312 313 311 308
1060 22 312 313 311 314
1061 27 342 348 352 290
1062 44 284 348 352 290
1063 37 207 210 211 213
1064 36 207 210 211 214
1065 37 212 210 211 213
1066 36 212 210 211 214
1067 9 310 312 313 311
1068 8 311 312 310 306
1069 6 311 312 310 309
1070 6 311 312 310 377
1071 6 310 312 311 308
1072 6 310 312 311 314
1073 42 315 312 311 313
1074 43 315 312 310 306
1075 47 313 312 310 306
1076 7 310 312 311 313
1077 10 337 342 343 350
1078 25 343 342 337 338
1079 25 343 342 337 336
1080 26 343 342 348 352
1081 27 343 342 348 284
1082 11 337 342 343 339
1083 27 348 342 343 339
1084 25 348 342 337 338
1085 25 348 342 337 336
1086 11 337 342 348 284
1087 10 337 342 348 352
1088 26 415 418 417 455
1089 27 417 418 415 416
1090 16 210 213 211 214
1091 22 211 213 210 207
1092 22 211 213 210 212
1093 21 312 310 306 304
1094 36 309 310 312 315
1095 36 377 310 312 315
1096 37 309 310 312 313
1097 37 377 310 312 313
1098 9 208 211 213 210
1099 8 210 211 208 413
1100 6 210 211 208 206
1101 6 210 211 208 209
1102 6 208 211 210 207
1103 6 208 211 210 212
1104 42 214 211 210 213
1105 43 214 211 208 413
1106 47 213 211 208 413
1107 7 208 211 210 213
1108 21 211 208 413 414
1109 36 206 208 211 214
1110 36 209 208 211 214
1111 37 206 208 211 213
1112 37 209 208 211 213
1113 26 415 414 412 455
1114 27 415 414 412 411
1115 27 412 414 415 416
1116 29 418 415 414 413
1117 45 416 415 414 413
1118 26 414 415 418 417
1119 27 414 415 418 419
1120 44 416 415 418 419
1121 26 418 415 414 412
1122 17 208 413 414 415
1123 17 208 413 414 412
1124 32 414 413 208 206
1125 32 414 413 208 209
1126 17 310 306 304 301
1127 17 310 306 304 305
1128 32 304 306 310 309
1129 32 304 306 310 377
1130 26 301 304 305 302
1131 27 301 304 305 307
1132 27 305 304 301 300
1133 17 487 484 482 479
1134 32 482 484 487 485
1135 32 482 484 487 491
1136 17 487 484 482 480
1137 29 302 305 304 306
1138 45 307 305 304 306
1139 26 304 305 302 299
1140 27 304 305 302 303
1141 27 299 302 305 307
1142 44 303 302 305 307
1143 26 135 130 128 180
1144 27 135 130 128 126
1145 27 128 130 135 137
1146 10 581 417 418 415
1147 25 418 417 581 460
1148 25 418 417 581 549
1149 26 418 417 455 412
1150 27 418 417 455 454
1151 11 581 417 418 419
1152 27 455 417 418 419
1153 25 455 417 581 460
1154 25 455 417 581 549
1155 11 581 417 455 454
1156 10 581 417 455 412
1157 29 298 301 304 306
1158 45 300 301 304 306
1159 26 304 301 298 299
1160 27 304 301 298 296
1161 44 300 301 298 296
1162 26 298 301 304 305
1163 29 455 412 414 413
1164 45 411 412 414 413
1165 26 414 412 455 417
1166 27 414 412 455 454
1167 27 417 455 412 411
1168 44 454 455 412 411
1169 26 301 298 299 302
1170 27 299 298 301 300
1171 10 295 299 298 301
1172 25 298 299 295 293
1173 25 298 299 295 458
1174 26 298 299 302 305
1175 27 298 299 302 303
1176 11 295 299 298 296
1177 27 302 299 298 296
1178 25 302 299 295 293
1179 25 302 299 295 458
1180 11 295 299 302 303
1181 10 295 299 302 305
1182 10 337 334 390 386
1183 11 337 334 390 391
1184 10 337 334 392 388
1185 11 337 334 392 335
1186 25 390 334 337 338
1187 25 392 334 337 338
1188 25 390 334 337 336
1189 25 392 334 337 336
1190 26 390 334 392 388
1191 27 390 334 392 335
1192 27 392 334 390 391
1193 24 499 295 299 298
1194 24 299 295 499 502
1195 24 299 295 499 497
1196 24 499 295 299 302
1197 21 490 487 484 482
1198 37 485 487 490 486
1199 36 485 487 490 488
1200 37 491 487 490 486
1201 36 491 487 490 488
1202 26 334 390 386 384
1203 27 334 390 386 382
1204 44 391 390 386 382
1205 26 386 390 334 392
1206 8 492 490 487 484
1207 47 486 490 487 484
1208 43 488 490 487 484
1209 7 487 490 492 486
1210 6 487 490 492 493
1211 6 487 490 492 494
1212 9 487 490 486 492
1213 6 492 490 487 485
1214 6 492 490 487 491
1215 42 488 490 492 486
1216 26 350 343 342 348
1217 27 342 343 350 517
1218 24 334 337 342 343
1219 24 342 337 334 390
1220 24 342 337 334 392
1221 24 334 337 342 348
1222 36 493 492 490 488
1223 36 494 492 490 488
1224 37 493 492 490 486
1225 37 494 492 490 486
1226 10 295 499 502 503
1227 11 295 499 502 463
1228 10 295 499 497 498
1229 11 295 499 497 495
1230 25 502 499 295 293
1231 25 497 499 295 293
1232 25 502 499 295 458
1233 25 497 499 295 458
1234 26 502 499 497 498
1235 27 502 499 497 495
1236 27 497 499 502 463
1237 27 400 397 445 444
1238 45 396 397 400 402
1239 44 396 397 445 444
1240 29 445 397 400 402
1241 26 404 400 397 445
1242 27 404 400 397 396
1243 27 397 400 404 409
1244 24 185 187 186 190
1245 24 186 187 185 136
1246 24 186 187 185 180
1247 24 185 187 186 182
1248 20 247 252 461 462
1249 34 459 252 247 246
1250 34 253 252 247 246
1251 48 461 252 247 243
1252 35 459 252 247 243
1253 35 253 252 247 243
1254 26 148 146 149 25
1255 27 148 146 149 147
1256 27 149 146 148 145
1257 26 60 190 186 182
1258 27 186 190 60 61
1259 10 187 186 190 60
1260 25 190 186 187 189
1261 25 190 186 187 183
1262 26 190 186 182 181
1263 27 190 186 182 178
1264 11 187 186 190 192
1265 27 182 186 190 192
1266 25 182 186 187 189
1267 25 182 186 187 183
1268 11 187 186 182 178
1269 10 187 186 182 181
1270 3 561 86 84 317
1271 39 88 86 84 317
1272 4 84 86 561 558
1273 2 84 86 561 90
1274 2 84 86 561 537
1275 5 84 86 559 318
1276 2 561 86 84 82
1277 2 561 86 84 552
1278 40 88 86 561 558
1279 41 88 86 559 318
1280 5 561 86 559 318
1281 29 190 60 58 59
1282 45 61 60 58 59
1283 26 58 60 190 186
1284 27 58 60 190 192
1285 44 61 60 190 192
1286 26 190 60 58 181
1287 22 405 543 544 548
1288 22 405 543 544 541
1289 16 544 543 405 538
1290 36 548 544 405 538
1291 36 541 544 405 538
1292 37 548 544 405 543
1293 37 541 544 405 543
1294 20 79 55 59 58
1295 34 52 55 79 81
1296 34 54 55 79 81
1297 48 59 55 79 77
1298 35 52 55 79 77
1299 35 54 55 79 77
1300 8 544 405 406 402
1301 47 543 405 406 402
1302 43 538 405 406 402
1303 7 406 405 544 543
1304 6 406 405 544 548
1305 6 406 405 544 541
1306 9 406 405 543 544
1307 6 544 405 406 410
1308 6 544 405 406 408
1309 42 538 405 544 543
1310 26 60 58 181 182
1311 27 60 58 181 51
1312 27 181 58 60 61
1313 17 55 59 58 60
1314 17 55 59 58 181
1315 32 58 59 55 54
1316 32 58 59 55 52
1317 27 186 182 181 51
1318 44 178 182 181 51
1319 29 182 181 58 59
1320 45 51 181 58 59
1321 26 58 181 182 186
1322 27 58 181 182 178
1323 21 405 406 402 400
1324 37 410 406 405 543
1325 36 410 406 405 538
1326 37 408 406 405 543
1327 36 408 406 405 538
1328 17 406 402 400 404
1329 32 400 402 406 410
1330 32 400 402 406 408
1331 17 406 402 400 397
1332 20 86 561 558 556
1333 34 90 561 86 88
1334 34 537 561 86 88
1335 48 558 561 86 559
1336 35 90 561 86 559
1337 35 537 561 86 559
1338 17 561 558 556 554
1339 17 561 558 556 560
1340 32 556 558 561 537
1341 32 556 558 561 90
1342 9 195 197 199 196
1343 8 196 197 195 394
1344 6 196 197 195 163
1345 6 196 197 195 398
1346 6 195 197 196 198
1347 6 195 197 196 194
1348 42 200 197 196 199
1349 43 200 197 195 394
1350 47 199 197 195 394
1351 7 195 197 196 199
1352 26 255 462 421 423
1353 27 255 462 421 420
1354 27 421 462 255 256
1355 16 196 199 197 200
1356 22 197 199 196 198
1357 22 197 199 196 194
1358 37 198 196 197 199
1359 36 198 196 197 200
1360 37 194 196 197 199
1361 36 194 196 197 200
1362 26 554 556 560 557
1363 27 554 556 560 536
1364 27 560 556 554 551
1365 27 500 498 497 495
1366 45 496 498 500 501
1367 44 496 498 497 495
1368 29 497 498 500 501
1369 26 29 25 149 146
1370 27 29 25 149 147
1371 10 31 29 24 148
1372 11 31 29 24 28
1373 10 31 29 25 149
1374 11 31 29 25 27
1375 25 24 29 31 35
1376 25 25 29 31 35
1377 25 24 29 31 34
1378 25 25 29 31 34
1379 26 24 29 25 149
1380 27 24 29 25 27
1381 27 25 29 24 28
1382 27 146 149 25 27
1383 45 147 149 146 143
1384 44 147 149 25 27
1385 29 25 149 146 143
1386 24 29 31 30 23
1387 24 30 31 29 24
1388 24 30 31 29 25
1389 24 29 31 30 33
1390 27 30 33 32 535
1391 44 36 33 32 535
1392 27 556 560 557 440
1393 45 536 560 556 558
1394 44 536 560 557 440
1395 29 557 560 556 558
1396 10 31 30 23 22
1397 25 23 30 31 35
1398 25 23 30 31 34
1399 26 23 30 33 32
1400 27 23 30 33 36
1401 11 31 30 23 21
1402 27 33 30 23 21
1403 25 33 30 31 35
1404 25 33 30 31 34
1405 11 31 30 33 36
1406 10 31 30 33 32
1407 1 263 262 267 268
1408 23 267 262 263 264
1409 23 267 262 263 259
1410 23 267 262 263 265
1411 1 263 262 267 109
1412 33 261 262 263 264
1413 33 261 262 263 259
1414 33 261 262 263 265
1415 33 260 262 263 264
1416 33 260 262 263 259
1417 33 260 262 263 265
1418 24 555 434 436 435
1419 24 436 434 555 553
1420 24 436 434 555 557
1421 24 555 434 436 439
1422 26 218 216 188 371
1423 27 218 216 188 184
1424 29 423 421 462 461
1425 45 420 421 462 461
1426 26 462 421 423 424
1427 27 462 421 423 422
1428 29 502 503 500 501
1429 26 502 503 500 498
1430 27 500 503 502 463
1431 45 505 503 500 501
1432 26 503 500 498 497
1433 27 503 500 498 496
1434 27 498 500 503 505
1435 26 111 268 267 109
1436 26 267 268 111 91
1437 17 504 501 500 503
1438 17 504 501 500 498
1439 32 500 501 504 582
1440 32 500 501 504 506
1441 26 555 553 554 556
1442 27 555 553 554 551
1443 44 550 553 554 551
1444 26 554 553 555 557
1445 24 218 219 424 217
1446 24 424 219 218 425
1447 24 424 219 218 216
1448 24 218 219 424 423
1449 10 434 436 435 438
1450 25 435 436 434 431
1451 25 435 436 434 429
1452 26 435 436 439 393
1453 27 435 436 439 441
1454 11 434 436 435 433
1455 27 439 436 435 433
1456 25 439 436 434 431
1457 25 439 436 434 429
1458 11 434 436 439 441
1459 10 434 436 439 393
1460 29 553 554 556 558
1461 26 553 554 556 560
1462 27 556 554 553 550
1463 45 551 554 556 558
1464 29 435 438 442 394
1465 45 437 438 442 394
1466 26 442 438 435 436
1467 27 442 438 435 433
1468 44 437 438 435 433
1469 26 435 438 442 393
1470 29 439 393 442 394
1471 45 395 393 442 394
1472 26 442 393 439 436
1473 27 442 393 439 441
1474 27 424 423 421 420
1475 44 422 423 421 420
1476 26 438 435 436 439
1477 27 436 435 438 437
1478 10 434 555 553 554
1479 11 434 555 553 550
1480 10 434 555 557 560
1481 11 434 555 557 440
1482 25 553 555 434 431
1483 25 557 555 434 431
1484 25 553 555 434 429
1485 25 557 555 434 429
1486 26 553 555 557 560
1487 27 553 555 557 440
1488 27 557 555 553 550
1489 26 438 442 393 439
1490 27 438 442 393 395
1491 27 393 442 438 437
1492 17 195 394 442 438
1493 17 195 394 442 393
1494 32 442 394 195 163
1495 32 442 394 195 398
1496 26 555 557 560 556
1497 27 555 557 560 536
1498 26 580 578 577 575
1499 27 580 578 577 574
1500 21 197 195 394 442
1501 36 163 195 197 200
1502 36 398 195 197 200
1503 37 163 195 197 199
1504 37 398 195 197 199
1505 26 499 502 503 500
1506 27 499 502 503 505
1507 44 463 502 503 505
1508 26 503 502 499 497
1509 27 436 439 393 395
1510 44 441 439 393 395
1511 10 219 424 217 255
1512 25 217 424 219 221
1513 25 217 424 219 427
1514 26 217 424 423 421
1515 27 217 424 423 422
1516 11 219 424 217 220
1517 27 423 424 217 220
1518 25 423 424 219 221
1519 25 423 424 219 427
1520 11 219 424 423 422
1521 10 219 424 423 421
1522 20 251 131 129 130
1523 34 134 131 251 248
1524 34 133 131 251 248
1525 48 129 131 251 125
1526 35 134 131 251 125
1527 35 133 131 251 125
1528 3 55 79 78 542
1529 39 81 79 78 542
1530 4 78 79 55 59
1531 2 78 79 55 52
1532 2 78 79 55 54
1533 5 78 79 77 540
1534 2 55 79 78 76
1535 2 55 79 78 80
1536 40 81 79 55 59
1537 41 81 79 77 540
1538 5 55 79 77 540

Impropers

1 13 281 447 446 450
2 13 281 447 446 448
3 13 281 447 450 448
4 14 446 447 450 448
5 26 347 351 356 173
6 29 41 285 286 283
7 24 345 349 354 344
8 2 403 345 346 349
9 2 403 345 340 349
10 13 349 345 346 340
11 3 403 345 346 340
12 25 49 47 174 45
13 25 177 49 47 50
14 25 347 344 349 341
15 24 165 347 344 351
16 3 345 403 401 407
17 3 345 403 401 399
18 3 345 403 407 399
19 14 401 403 407 399
20 24 56 177 49 124
21 29 244 173 171 351
22 3 165 162 160 161
23 3 165 162 160 159
24 3 165 162 161 159
25 14 160 162 161 159
26 1 162 165 347 164
27 1 162 165 347 166
28 3 162 165 164 166
29 13 347 165 164 166
30 27 176 174 47 169
31 24 361 356 351 354
32 26 349 354 356 357
33 26 280 283 281 285
34 24 447 281 278 283
35 19 257 140 142 139
36 18 257 140 142 138
37 20 257 140 139 138
38 20 142 140 139 138
39 5 43 41 40 285
40 5 43 41 42 285
41 15 40 41 42 285
42 4 43 41 40 42
43 2 287 282 279 280
44 2 287 282 483 280
45 13 280 282 279 483
46 3 287 282 279 483
47 24 282 280 283 277
48 29 223 357 359 354
49 6 140 142 143 144
50 6 140 142 143 141
51 4 140 142 144 141
52 17 144 142 141 143
53 13 356 361 363 360
54 13 356 361 363 362
55 13 356 361 360 362
56 14 363 361 360 362
57 25 174 176 124 120
58 25 176 124 177 127
59 19 41 43 168 39
60 18 41 43 168 170
61 20 41 43 39 170
62 20 168 43 39 170
63 25 456 453 575 452
64 6 43 168 169 172
65 6 43 168 169 167
66 4 43 168 172 167
67 17 172 168 167 169
68 25 234 232 233 230
69 27 577 575 453 573
70 27 14 12 11 9
71 12 15 56 177 132
72 12 15 56 177 57
73 13 15 56 132 57
74 13 177 56 132 57
75 26 276 278 281 116
76 5 472 269 270 116
77 5 472 269 271 116
78 15 270 269 271 116
79 4 472 269 270 271
80 5 531 528 507 116
81 5 531 528 529 116
82 15 507 528 529 116
83 4 531 528 507 529
84 25 130 128 180 126
85 5 379 223 224 357
86 5 379 223 222 357
87 15 224 223 222 357
88 4 379 223 224 222
89 28 528 116 269 278
90 25 388 392 334 335
91 25 238 234 232 118
92 6 531 532 534 530
93 6 531 532 534 508
94 4 531 532 530 508
95 17 530 532 508 534
96 22 294 123 121 291
97 21 294 123 121 292
98 23 294 123 291 292
99 23 121 123 291 292
100 19 528 531 532 527
101 18 528 531 532 533
102 20 528 531 527 533
103 20 532 531 527 533
104 25 276 277 280 275
105 24 274 276 277 278
106 3 274 113 115 158
107 3 274 113 115 157
108 3 274 113 158 157
109 14 115 113 158 157
110 1 113 274 276 117
111 1 113 274 276 273
112 3 113 274 117 273
113 13 276 274 117 273
114 19 223 379 430 193
115 18 223 379 430 378
116 20 223 379 193 378
117 20 430 379 193 378
118 6 379 430 380 428
119 6 379 430 380 432
120 4 379 430 428 432
121 17 428 430 432 380
122 27 388 384 386 380
123 25 384 388 392 387
124 19 250 251 131 125
125 18 250 251 131 248
126 20 250 251 125 248
127 20 131 251 125 248
128 8 123 294 297 291
129 8 123 294 249 291
130 16 297 294 249 291
131 7 123 294 297 249
132 25 390 386 384 382
133 11 123 121 241 119
134 11 123 121 241 122
135 7 123 121 119 122
136 17 119 121 122 241
137 27 234 238 239 241
138 25 15 13 11 53
139 25 13 11 12 10
140 24 56 15 13 17
141 19 269 472 473 466
142 18 269 472 473 474
143 20 269 472 466 474
144 20 473 472 466 474
145 26 112 109 267 155
146 3 282 287 289 288
147 3 282 287 289 489
148 3 282 287 288 489
149 14 289 287 288 489
150 5 79 78 76 542
151 5 79 78 80 542
152 15 76 78 80 542
153 4 79 78 76 80
154 3 319 510 583 509
155 3 319 510 583 511
156 3 319 510 509 511
157 14 583 510 509 511
158 5 140 257 254 72
159 5 140 257 258 72
160 15 254 257 258 72
161 4 140 257 254 258
162 13 67 69 46 44
163 13 67 69 46 48
164 13 67 69 44 48
165 14 46 69 44 48
166 25 326 323 321 324
167 3 63 545 576 572
168 3 63 545 576 546
169 3 63 545 572 546
170 14 576 545 572 546
171 2 545 63 98 64
172 2 545 63 539 64
173 13 64 63 98 539
174 3 545 63 98 539
175 13 322 152 154 151
176 13 322 152 154 150
177 13 322 152 151 150
178 14 154 152 151 150
179 26 64 65 67 542
180 29 78 542 547 65
181 24 63 64 65 66
182 24 69 67 70 65
183 26 67 70 68 72
184 25 68 66 64 100
185 29 257 72 74 70
186 24 71 68 66 70
187 29 569 327 156 325
188 24 152 322 325 320
189 26 321 320 322 317
190 26 322 325 326 327
191 29 84 317 464 320
192 24 328 326 323 325
193 5 568 569 567 327
194 5 568 569 451 327
195 15 567 569 451 327
196 4 568 569 567 451
197 1 204 71 68 75
198 1 204 71 68 101
199 3 204 71 75 101
200 13 68 71 75 101
201 25 22 23 30 21
202 25 26 22 23 20
203 19 569 568 571 564
204 18 569 568 571 565
205 20 569 568 564 565
206 20 571 568 564 565
207 1 383 328 326 385
208 1 383 328 326 332
209 3 383 328 385 332
210 13 326 328 385 332
211 24 319 321 320 323
212 3 71 204 203 202
213 3 71 204 203 205
214 3 71 204 202 205
215 14 203 204 202 205
216 6 108 504 501 506
217 6 108 504 501 582
218 4 108 504 506 582
219 17 506 504 582 501
220 3 328 383 512 381
221 3 328 383 512 389
222 3 328 383 381 389
223 14 512 383 381 389
224 2 510 319 316 321
225 2 510 319 465 321
226 13 321 319 316 465
227 3 510 319 316 465
228 27 22 26 32 534
229 5 86 84 82 317
230 5 86 84 552 317
231 15 82 84 552 317
232 4 86 84 82 552
233 25 218 425 374 426
234 25 462 255 217 256
235 1 85 89 111 225
236 1 85 89 111 62
237 3 85 89 225 62
238 13 111 89 225 62
239 25 371 188 216 184
240 6 568 571 573 570
241 6 568 571 573 566
242 4 568 571 570 566
243 17 570 571 566 573
244 25 14 17 15 18
245 24 89 111 268 91
246 24 219 218 425 216
247 26 111 91 112 95
248 25 33 32 26 535
249 19 105 108 504 107
250 18 105 108 504 19
251 20 105 108 107 19
252 20 504 108 107 19
253 5 4 3 99 95
254 5 4 3 2 95
255 15 99 3 2 95
256 4 4 3 99 2
257 5 108 105 106 95
258 5 108 105 104 95
259 15 106 105 104 95
260 4 108 105 106 104
261 6 4 8 9 7
262 6 4 8 9 6
263 4 4 8 7 6
264 17 7 8 6 9
265 25 425 374 371 376
266 27 188 371 374 369
267 25 255 217 424 220
268 6 368 367 369 365
269 6 368 367 369 364
270 4 368 367 365 364
271 17 365 367 364 369
272 25 575 577 578 574
273 25 12 14 17 16
274 5 368 372 375 155
275 5 368 372 373 155
276 15 375 372 373 155
277 4 368 372 375 373
278 13 112 92 93 94
279 13 112 92 93 38
280 13 112 92 94 38
281 14 93 92 94 38
282 19 3 4 8 1
283 18 3 4 8 5
284 20 3 4 1 5
285 20 8 4 1 5
286 28 3 95 105 91
287 19 372 368 367 370
288 18 372 368 367 366
289 20 372 368 370 366
290 20 367 368 370 366
291 24 262 267 109 268
292 24 92 112 91 109
293 5 251 250 102 155
294 5 251 250 103 155
295 15 102 250 103 155
296 4 251 250 102 103
297 28 372 155 250 109
298 3 89 85 110 83
299 3 89 85 110 87
300 3 89 85 83 87
301 14 110 85 83 87
302 5 247 244 245 173
303 5 247 244 242 173
304 15 245 244 242 173
305 4 247 244 245 242
306 25 469 470 585 468
307 25 470 585 516 584
308 24 515 516 333 585
309 25 475 477 479 562
310 24 515 475 477 478
311 22 523 521 520 519
312 21 523 521 520 525
313 23 523 521 519 525
314 23 520 521 519 525
315 11 521 520 358 518
316 11 521 520 358 524
317 7 521 520 518 524
318 17 518 520 524 358
319 12 516 515 475 513
320 12 516 515 475 514
321 13 516 515 513 514
322 13 475 515 513 514
323 25 516 333 331 272
324 25 480 478 475 476
325 27 470 469 331 467
326 25 333 331 469 330
327 24 229 231 201 445
328 25 231 201 404 237
329 12 233 229 231 228
330 12 233 229 231 226
331 13 233 229 228 226
332 13 231 229 228 226
333 8 521 523 522 519
334 8 521 523 526 519
335 16 522 523 526 519
336 7 521 523 522 526
337 25 397 445 231 444
338 25 201 404 400 409
339 25 580 456 453 457
340 6 472 473 467 471
341 6 472 473 467 443
342 4 472 473 471 443
343 17 471 473 443 467
344 24 187 185 136 180
345 19 244 247 252 243
346 18 244 247 252 246
347 20 244 247 243 246
348 20 252 247 243 246
349 25 185 136 135 191
350 25 24 148 146 145
351 25 29 24 148 28
352 24 229 233 235 232
353 25 128 180 185 179
354 25 498 497 499 495
355 25 477 479 482 563
356 12 417 581 580 460
357 12 417 581 580 549
358 13 417 581 460 549
359 13 580 581 460 549
360 24 581 580 456 578
361 27 350 353 352 358
362 25 353 350 343 517
363 25 482 480 478 481
364 25 235 239 238 240
365 8 312 311 308 313
366 8 312 311 314 313
367 16 308 311 314 313
368 7 312 311 308 314
369 25 136 135 130 137
370 27 480 482 479 484
371 25 348 352 353 290
372 25 233 235 239 236
373 25 342 348 352 284
374 8 211 210 207 213
375 8 211 210 212 213
376 16 207 210 212 213
377 7 211 210 207 212
378 22 311 312 310 313
379 21 311 312 310 315
380 23 311 312 313 315
381 23 310 312 313 315
382 24 337 342 348 343
383 25 415 418 417 419
384 11 312 310 306 309
385 11 312 310 306 377
386 7 312 310 309 377
387 17 309 310 377 306
388 22 210 211 208 213
389 21 210 211 208 214
390 23 210 211 213 214
391 23 208 211 213 214
392 11 211 208 413 206
393 11 211 208 413 209
394 7 211 208 206 209
395 17 206 208 209 413
396 27 415 414 412 413
397 25 414 415 418 416
398 27 301 304 305 306
399 25 302 305 304 307
400 25 299 302 305 303
401 27 128 130 135 129
402 24 581 417 455 418
403 25 304 301 298 300
404 25 455 412 414 411
405 25 417 455 412 454
406 25 301 298 299 296
407 24 295 299 302 298
408 24 337 334 390 392
409 12 299 295 499 293
410 12 299 295 499 458
411 13 299 295 293 458
412 13 499 295 293 458
413 9 490 487 485 484
414 9 490 487 491 484
415 17 485 487 491 484
416 7 490 487 485 491
417 25 334 390 386 391
418 22 487 490 492 486
419 21 487 490 492 488
420 23 487 490 486 488
421 23 492 490 486 488
422 25 350 343 342 339
423 12 342 337 334 338
424 12 342 337 334 336
425 13 342 337 338 336
426 13 334 337 338 336
427 10 490 492 486 493
428 10 490 492 486 494
429 7 490 492 493 494
430 16 493 492 494 486
431 24 295 499 502 497
432 25 400 397 445 396
433 27 397 400 404 402
434 12 186 187 185 189
435 12 186 187 185 183
436 13 186 187 189 183
437 13 185 187 189 183
438 6 247 252 461 459
439 6 247 252 461 253
440 4 247 252 459 253
441 17 459 252 253 461
442 27 149 146 148 143
443 25 60 190 186 192
444 24 187 186 182 190
445 19 84 86 561 559
446 18 84 86 561 88
447 20 84 86 559 88
448 20 561 86 559 88
449 25 58 60 190 61
450 10 405 544 543 548
451 10 405 544 543 541
452 7 405 544 548 541
453 16 548 544 541 543
454 6 79 55 59 52
455 6 79 55 59 54
456 4 79 55 52 54
457 17 52 55 54 59
458 22 406 405 544 543
459 21 406 405 544 538
460 23 406 405 543 538
461 23 544 405 543 538
462 27 60 58 181 59
463 25 186 182 181 178
464 25 182 181 58 51
465 9 405 406 410 402
466 9 405 406 408 402
467 17 410 406 408 402
468 7 405 406 410 408
469 6 86 561 558 90
470 6 86 561 558 537
471 4 86 561 90 537
472 17 90 561 537 558
473 22 196 197 195 199
474 21 196 197 195 200
475 23 196 197 199 200
476 23 195 197 199 200
477 27 255 462 421 461
478 8 197 196 198 199
479 8 197 196 194 199
480 16 198 196 194 199
481 7 197 196 198 194
482 27 560 556 554 558
483 25 500 498 497 496
484 25 149 25 29 27
485 24 31 29 24 25
486 25 146 149 25 147
487 12 30 31 29 35
488 12 30 31 29 34
489 13 30 31 35 34
490 13 29 31 35 34
491 25 30 33 32 36
492 25 556 560 557 536
493 24 31 30 33 23
494 2 263 262 261 267
495 2 263 262 260 267
496 13 267 262 261 260
497 3 263 262 261 260
498 12 436 434 555 431
499 12 436 434 555 429
500 13 436 434 431 429
501 13 555 434 431 429
502 25 188 216 218 215
503 25 423 421 462 420
504 25 502 503 500 505
505 27 498 500 503 501
506 25 111 268 267 266
507 25 555 553 554 550
508 12 424 219 218 221
509 12 424 219 218 427
510 13 424 219 221 427
511 13 218 219 221 427
512 24 434 436 439 435
513 25 553 554 556 551
514 3 262 263 264 259
515 3 262 263 264 265
516 3 262 263 259 265
517 14 264 263 259 265
518 25 442 438 435 437
519 25 439 393 442 395
520 25 424 423 421 422
521 25 438 435 436 433
522 24 434 555 553 557
523 27 438 442 393 394
524 25 560 557 555 440
525 25 577 578 580 579
526 11 197 195 394 163
527 11 197 195 394 398
528 7 197 195 163 398
529 17 163 195 398 394
530 25 499 502 503 463
531 25 436 439 393 441
532 24 219 424 423 217
533 6 251 131 129 134
534 6 251 131 129 133
535 4 251 131 134 133
536 17 134 131 133 129
537 19 78 79 55 77
538 18 78 79 55 81
539 20 78 79 77 81
540 20 55 79 77 81
