LAMMPS data file via write_data, version 4 Jul 2026, timestep = 4448500, units = real

585 atoms
11 atom types
615 bonds
18 bond types
1090 angles
35 angle types
1544 dihedrals
48 dihedral types
540 impropers
30 improper types

1.4232655695929974 19.730513440402873 xlo xhi
1.4232655695929974 19.730513440402873 ylo yhi
1.4232655695929974 19.730513440402873 zlo zhi

Masses

1 12.01115
2 12.01115
3 12.01115
4 12.01115
5 1.00797
6 1.00797
7 1.00797
8 14.0067
9 15.9994
10 15.9994
11 15.9994

Pair Coeffs # lj/class2/coul/long

1 0.054 4.01
2 0.054 4.01
3 0.054 4.01
4 0.064 4.01
5 0.02 2.995
6 0.013 1.098
7 0.013 1.098
8 0.065 4.07
9 0.24 3.535
10 0.24 3.535
11 0.24 3.535

Bond Coeffs # class2

1 1.53 299.67 -501.77 679.81
2 1.53 299.67 -501.77 679.81
3 1.53 299.67 -501.77 679.81
4 1.501 321.902 -521.821 572.163
5 1.101 345 -691.89 844.6
6 1.457 365.805 -699.637 998.484
7 1.42 400.395 -835.195 1313.01
8 1.42 400.395 -835.195 1313.01
9 1.101 345 -691.89 844.6
10 1.42 400.395 -835.195 1313.01
11 1.101 345 -691.89 844.6
12 1.42 400.395 -835.195 1313.01
13 1.417 470.836 -627.618 1327.63
14 1.0982 372.825 -803.453 894.317
15 1.412 257.775 0 0
16 1.3768 428.88 -738.235 1114.97
17 1.006 466.74 -1073.6 1251.11
18 0.965 532.506 -1282.9 2004.77

Angle Coeffs # class2

1 108.4 43.9594 -8.3924 -9.3379
2 110.77 41.453 -10.604 5.129
3 112.67 39.516 -7.443 -9.5583
4 110.77 41.453 -10.604 5.129
5 111.27 54.5381 -8.3642 -13.0838
6 112.67 39.516 -7.443 -9.5583
7 110.77 41.453 -10.604 5.129
8 111.27 54.5381 -8.3642 -13.0838
9 120.05 44.7148 -22.7352 0
10 112.444 47.2337 -10.6612 -10.2062
11 109 80 0 0
12 110.954 50.8652 -4.4522 -10.0298
13 104.5 35.7454 -10.0067 -6.2729
14 102.969 38.9739 -6.2595 -8.171
15 110.77 41.453 -10.604 5.129
16 111.91 60.7147 -13.3366 -13.0785
17 111.27 54.5381 -8.3642 -13.0838
18 105.8 52.7061 -12.109 -9.8681
19 110.77 41.453 -10.604 5.129
20 111.27 54.5381 -8.3642 -13.0838
21 111.27 54.5381 -8.3642 -13.0838
22 111 44.3234 -9.4454 0
23 111 44.3234 -9.4454 0
24 118.9 61.0226 -34.9931 0
25 117.94 35.1558 -12.4682 0
26 120 102 0 0
27 123.42 73.6781 -21.6787 0
28 110 41.6 0 0
29 107.66 39.641 -12.921 -2.4318
30 110.62 51.3137 -6.7198 -2.6003
31 108.728 58.5446 -10.8088 -12.4006
32 108.728 58.5446 -10.8088 -12.4006
33 108.728 58.5446 -10.8088 -12.4006
34 108.728 58.5446 -10.8088 -12.4006
35 107.067 45.252 -7.5558 -9.512

BondBond Coeffs

1 0 1.53 1.501
2 3.3872 1.53 1.101
3 0 1.53 1.53
4 3.3872 1.53 1.101
5 11.4318 1.53 1.42
6 0 1.53 1.53
7 3.3872 1.53 1.101
8 11.4318 1.53 1.42
9 12.0676 1.501 1.417
10 -2.1113 1.457 1.457
11 0 1.457 1.412
12 -6.4168 1.457 1.006
13 -7.1131 1.42 1.42
14 0 1.42 1.3768
15 3.3872 1.53 1.101
16 4.6217 1.53 1.457
17 11.4318 1.53 1.42
18 -9.6879 1.42 0.965
19 3.3872 1.53 1.101
20 11.4318 1.53 1.42
21 11.4318 1.53 1.42
22 0 1.501 1.501
23 2.9168 1.501 1.101
24 68.2856 1.417 1.417
25 1.0795 1.417 1.0982
26 0 1.417 1.412
27 48.4754 1.417 1.3768
28 0 1.412 1.006
29 5.3316 1.101 1.101
30 12.426 1.101 1.457
31 23.1979 1.101 1.42
32 23.1979 1.101 1.42
33 23.1979 1.101 1.42
34 23.1979 1.101 1.42
35 -1.8749 1.006 1.006

BondAngle Coeffs

1 0 0 1.53 1.501
2 20.754 11.421 1.53 1.101
3 8.016 8.016 1.53 1.53
4 20.754 11.421 1.53 1.101
5 2.6868 20.4033 1.53 1.42
6 8.016 8.016 1.53 1.53
7 20.754 11.421 1.53 1.101
8 2.6868 20.4033 1.53 1.42
9 47.0579 31.0771 1.501 1.417
10 -7.2229 -7.2229 1.457 1.457
11 0 0 1.457 1.412
12 31.8096 20.5799 1.457 1.006
13 -2.8112 -2.8112 1.42 1.42
14 0 0 1.42 1.3768
15 20.754 11.421 1.53 1.101
16 6.0876 16.5702 1.53 1.457
17 2.6868 20.4033 1.53 1.42
18 28.58 18.9277 1.42 0.965
19 20.754 11.421 1.53 1.101
20 2.6868 20.4033 1.53 1.42
21 2.6868 20.4033 1.53 1.42
22 0 0 1.501 1.501
23 26.4608 11.7717 1.501 1.101
24 28.8708 28.8708 1.417 1.417
25 20.0033 24.2183 1.417 1.0982
26 0 0 1.417 1.412
27 58.479 107.681 1.417 1.3768
28 0 0 1.412 1.006
29 18.103 18.103 1.101 1.101
30 13.4582 42.4332 1.101 1.457
31 4.6189 55.327 1.101 1.42
32 4.6189 55.327 1.101 1.42
33 4.6189 55.327 1.101 1.42
34 4.6189 55.327 1.101 1.42
35 28.0322 28.0322 1.006 1.006

Dihedral Coeffs # class2

1 -0.2802 0 -0.0678 0 -0.0122 0
2 0 0 0.0316 0 -0.1681 0
3 0.1764 0 0.1766 0 -0.5206 0
4 0.7137 0 0.266 0 -0.2545 0
5 -0.6732 0 -0.4778 0 -0.167 0
6 0 0 0.0316 0 -0.1681 0
7 0.7137 0 0.266 0 -0.2545 0
8 0.7137 0 0.266 0 -0.2545 0
9 -0.5203 0 -0.3028 0 -0.345 0
10 0 0 4.4072 0 0 0
11 0 0 1.559 0 0 0
12 0 0 3 0 0 0
13 -0.1406 0 0.4168 0 0.015 0
14 0.1904 0 -0.1342 0 -0.246 0
15 0 0 2.25 0 0 0
16 0.5302 0 0 0 -0.3966 0
17 0 0 1.5 0 0 0
18 0 0 0 0 0.05 180
19 -1.1506 0 -0.6344 0 -0.1845 0
20 0 0 0 0 0.13 180
21 0 0 0 0 0.13 180
22 0.5302 0 0 0 -0.3966 0
23 -0.0228 0 0.028 0 -0.1863 0
24 -0.2802 0 -0.0678 0 -0.0122 0
25 -0.2801 0 -0.0678 0 -0.0122 0
26 8.3667 0 1.1932 0 0 0
27 0 0 3.9661 0 0 0
28 0 0 3 0 0 0
29 0 0 4.8498 0 0 0
30 0 0 2.25 0 0 0
31 0 0 0 0 0.05 180
32 0.9513 0 0.1155 0 0.072 0
33 -0.1432 0 0.0617 0 -0.1083 0
34 -0.1432 0 0.0617 0 -0.1083 0
35 -0.1435 0 0.253 0 -0.0905 0
36 -0.1432 0 0.0617 0 -0.1083 0
37 -0.1435 0 0.253 0 -0.0905 0
38 -0.5187 0 -0.4837 0 -0.1692 0
39 -0.2428 0 0.4065 0 -0.3079 0
40 -0.1435 0 0.253 0 -0.0905 0
41 0.1863 0 -0.4338 0 -0.2121 0
42 -0.1435 0 0.253 0 -0.0905 0
43 -0.1435 0 0.253 0 -0.0905 0
44 0 0 1.8769 0 0 0
45 0 0 1.7234 0 0 0
46 0 0 0 0 0.158 180
47 -0.182 0 -0.1084 0 -0.7047 0
48 -0.182 0 -0.1084 0 -0.7047 0

AngleAngleTorsion Coeffs

1 0 108.4 120.05
2 -16.164 112.67 110.77
3 -27.3953 112.67 111.91
4 -29.042 112.67 111.27
5 -12.1038 111.27 105.8
6 -16.164 112.67 110.77
7 -29.042 112.67 111.27
8 -29.042 112.67 111.27
9 -19.0059 111.27 104.5
10 -14.4097 120.05 118.9
11 4.4444 120.05 117.94
12 0 120.05 120
13 -24.3818 112.444 111.91
14 -12.5567 112.444 110.62
15 0 109 120
16 -16.4438 104.5 108.728
17 0 102.969 123.42
18 0 111.91 109
19 -7.5499 111.91 110.954
20 0 111.27 102.969
21 0 111.27 102.969
22 -16.4438 104.5 108.728
23 0 108.4 110.77
24 0 111 120.05
25 -5.8888 120.05 111
26 0 118.9 118.9
27 -4.8141 118.9 117.94
28 0 118.9 120
29 -21.0247 118.9 123.42
30 0 120 110
31 0 109 110.62
32 0 102.969 108.728
33 -12.564 110.77 110.77
34 -12.564 110.77 110.77
35 -20.2006 110.77 111.27
36 -12.564 110.77 110.77
37 -20.2006 110.77 111.27
38 -10.4258 110.62 110.954
39 -15.7572 110.77 111.91
40 -20.2006 110.77 111.27
41 -10.5093 108.728 105.8
42 -20.2006 110.77 111.27
43 -20.2006 110.77 111.27
44 0.3598 117.94 117.94
45 4.2296 117.94 123.42
46 0 111.91 111.27
47 -14.0484 111.27 111.27
48 -14.0484 111.27 111.27

EndBondTorsion Coeffs

1 0 0 0 0 0 0 1.53 1.417
2 0.2486 0.2422 -0.0925 0.0814 0.0591 0.2219 1.53 1.101
3 0.1032 0.5896 -0.4836 0.0579 -0.0043 -0.1906 1.53 1.457
4 -0.319 0.4411 -0.7174 1.1538 0.8409 -0.9138 1.53 1.42
5 -0.58 0.9004 0 0 0.5343 0.9025 1.53 0.965
6 0.2486 0.2422 -0.0925 0.0814 0.0591 0.2219 1.53 1.101
7 -0.319 0.4411 -0.7174 1.1538 0.8409 -0.9138 1.53 1.42
8 -0.319 0.4411 -0.7174 1.1538 0.8409 -0.9138 1.53 1.42
9 -0.2456 1.0517 -0.7795 0.4741 1.2635 0.5576 1.53 1.42
10 0 0.2421 0 0 -0.6918 0 1.501 1.417
11 0 -1.797 0 0 -0.4879 0 1.501 1.0982
12 0 0 0 0 0 0 1.501 1.412
13 -0.0128 -0.0495 -0.1079 0.0997 -0.0046 -0.2657 1.457 1.53
14 0.0628 0.0873 -0.0882 -0.5892 0.714 0.3505 1.457 1.101
15 0 0 0 0 0 0 1.457 1.417
16 -0.162 0.1564 -1.1408 -0.6054 1.3339 0.9648 1.42 1.101
17 0 0 0 0 0 0 1.42 1.417
18 0 0 0 0 0 0 1.53 1.412
19 -0.9466 0.9356 -0.5542 0.057 0.0625 0.4112 1.53 1.006
20 0 0 0 0 0 0 1.53 1.3768
21 0 0 0 0 0 0 1.53 1.3768
22 -0.162 0.1564 -1.1408 -0.6054 1.3339 0.9648 1.42 1.101
23 0 0 0 0 0 0 1.501 1.101
24 0 0 0 0 0 0 1.501 1.417
25 -0.5835 1.122 0.3978 1.3997 0.7756 0 1.417 1.101
26 -0.1185 6.3204 0 -0.1185 6.3204 0 1.417 1.417
27 0 -6.8958 0 0 -0.4669 0 1.417 1.0982
28 0 0 0 0 0 0 1.417 1.412
29 0 0.2655 0 0 4.8905 0 1.417 1.3768
30 0 0 0 0 0 0 1.417 1.006
31 0 0 0 0 0 0 1.412 1.101
32 0 0 0 0 0 0 1.3768 1.101
33 0.213 0.312 0.0777 0.213 0.312 0.0777 1.101 1.101
34 0.213 0.312 0.0777 0.213 0.312 0.0777 1.101 1.101
35 0.9681 0.9551 0.0436 0.5903 0.6669 0.8584 1.101 1.42
36 0.213 0.312 0.0777 0.213 0.312 0.0777 1.101 1.101
37 0.9681 0.9551 0.0436 0.5903 0.6669 0.8584 1.101 1.42
38 -1.1685 0.9266 -0.0993 0.085 0.3061 0.2104 1.101 1.006
39 0.196 0.7056 0.112 0.1022 0.209 0.6433 1.101 1.457
40 0.9681 0.9551 0.0436 0.5903 0.6669 0.8584 1.101 1.42
41 -1.7554 1.3145 0.2263 0.2493 0.6803 0 1.101 0.965
42 0.9681 0.9551 0.0436 0.5903 0.6669 0.8584 1.101 1.42
43 0.9681 0.9551 0.0436 0.5903 0.6669 0.8584 1.101 1.42
44 0 -0.689 0 0 -0.689 0 1.0982 1.0982
45 0 -1.5867 0 0 4.2641 0 1.0982 1.3768
46 0 0 0 0 0 0 1.457 1.42
47 1.0165 0.7553 -0.4609 1.0165 0.7553 -0.4609 1.42 1.42
48 1.0165 0.7553 -0.4609 1.0165 0.7553 -0.4609 1.42 1.42

MiddleBondTorsion Coeffs

1 0 0 0 1.501
2 -14.879 -3.6581 -0.3138 1.53
3 -15.4174 -7.3055 -1.0749 1.53
4 -21.8842 -7.6764 -0.6868 1.53
5 1.2472 0 0.7485 1.42
6 -14.879 -3.6581 -0.3138 1.53
7 -21.8842 -7.6764 -0.6868 1.53
8 -21.8842 -7.6764 -0.6868 1.53
9 -5.9288 -2.7007 -0.3175 1.42
10 0 9.1792 0 1.417
11 0 3.9421 0 1.417
12 0 0 0 1.417
13 -8.0036 -7.7321 -3.064 1.457
14 -6.4529 -6.8122 -1.1632 1.457
15 0 0 0 1.412
16 -6.8007 -4.6546 -1.4101 1.42
17 0 0 0 1.3768
18 0 0 0 1.457
19 -2.2208 0.5479 -0.3527 1.457
20 0 0 0 1.42
21 0 0 0 1.42
22 -6.8007 -4.6546 -1.4101 1.42
23 0 0 0 1.53
24 0 0 0 1.501
25 -5.5679 1.4083 0.301 1.501
26 27.5989 -2.312 0 1.417
27 0 -1.1521 0 1.417
28 0 0 0 1.417
29 0 4.8255 0 1.417
30 0 0 0 1.412
31 0 0 0 1.457
32 0 0 0 1.42
33 -14.261 -0.5322 -0.4864 1.53
34 -14.261 -0.5322 -0.4864 1.53
35 -16.7975 -1.2296 -0.275 1.53
36 -14.261 -0.5322 -0.4864 1.53
37 -16.7975 -1.2296 -0.275 1.53
38 -3.4611 1.6996 -0.6007 1.457
39 -10.4959 -0.7647 -0.0545 1.53
40 -16.7975 -1.2296 -0.275 1.53
41 0 0.9241 -0.5889 1.42
42 -16.7975 -1.2296 -0.275 1.53
43 -16.7975 -1.2296 -0.275 1.53
44 0 4.8228 0 1.417
45 0 5.5432 0 1.417
46 0 0 0 1.53
47 -17.2585 -3.6157 -0.8364 1.53
48 -17.2585 -3.6157 -0.8364 1.53

BondBond13 Coeffs

1 0 1.53 1.417
2 0 1.53 1.101
3 0 1.53 1.457
4 0 1.53 1.42
5 0 1.53 0.965
6 0 1.53 1.101
7 0 1.53 1.42
8 0 1.53 1.42
9 0 1.53 1.42
10 2.5085 1.501 1.417
11 0.8743 1.501 1.0982
12 0 1.501 1.412
13 0 1.457 1.53
14 0 1.457 1.101
15 0 1.457 1.417
16 0 1.42 1.101
17 0 1.42 1.417
18 0 1.53 1.412
19 0 1.53 1.006
20 0 1.53 1.3768
21 0 1.53 1.3768
22 0 1.42 1.101
23 0 1.501 1.101
24 0 1.501 1.417
25 -3.4826 1.417 1.101
26 53 1.417 1.417
27 -6.2741 1.417 1.0982
28 0 1.417 1.412
29 -2.2436 1.417 1.3768
30 0 1.417 1.006
31 0 1.412 1.101
32 0 1.3768 1.101
33 0 1.101 1.101
34 0 1.101 1.101
35 0 1.101 1.42
36 0 1.101 1.101
37 0 1.101 1.42
38 0 1.101 1.006
39 0 1.101 1.457
40 0 1.101 1.42
41 0 1.101 0.965
42 0 1.101 1.42
43 0 1.101 1.42
44 -1.7077 1.0982 1.0982
45 2.0517 1.0982 1.3768
46 0 1.457 1.42
47 0 1.42 1.42
48 0 1.42 1.42

AngleTorsion Coeffs

1 0 0 0 0 0 0 108.4 120.05
2 -0.2454 0 -0.1136 0.3113 0.4516 -0.1988 112.67 110.77
3 -1.9225 -1.345 0.221 2.0125 0.944 -2.7612 112.67 111.91
4 0.5623 -0.3041 -0.4015 0.9672 -0.7566 -1.2331 112.67 111.27
5 -3.5903 2.5225 0.4888 0.8726 -0.3577 0.3888 111.27 105.8
6 -0.2454 0 -0.1136 0.3113 0.4516 -0.1988 112.67 110.77
7 0.5623 -0.3041 -0.4015 0.9672 -0.7566 -1.2331 112.67 111.27
8 0.5623 -0.3041 -0.4015 0.9672 -0.7566 -1.2331 112.67 111.27
9 -2.7466 1.4877 -0.8955 0.5676 0.945 0.0703 111.27 104.5
10 0 -4.4683 0 0 3.8987 0 120.05 118.9
11 0 -0.1242 0 0 3.4601 0 120.05 117.94
12 0 0 0 0 0 0 120.05 120
13 1.2031 1.3645 -0.7071 -2.7883 1.5193 1.4796 112.444 111.91
14 -1.3582 0.1465 -0.5729 -2.6321 0.9353 -0.8398 112.444 110.62
15 0 0 0 0 0 0 109 120
16 -0.7777 0.434 -0.6653 -1.8234 1.6393 0.5144 104.5 108.728
17 0 0 0 0 0 0 102.969 123.42
18 0 0 0 0 0 0 111.91 109
19 -3.343 4.4558 -0.0346 0.2873 -0.8072 -0.096 111.91 110.954
20 0 0 0 0 0 0 111.27 102.969
21 0 0 0 0 0 0 111.27 102.969
22 -0.7777 0.434 -0.6653 -1.8234 1.6393 0.5144 104.5 108.728
23 0 0 0 0 0 0 108.4 110.77
24 0 0 0 0 0 0 111 120.05
25 0.2251 0.6548 0.1237 4.6266 0.1632 0.0461 120.05 111
26 1.9767 1.0239 0 1.9767 1.0239 0 118.9 118.9
27 0 2.5014 0 0 2.7147 0 118.9 117.94
28 0 0 0 0 0 0 118.9 120
29 0 10.0155 0 0 1.7404 0 118.9 123.42
30 0 0 0 0 0 0 120 110
31 0 0 0 0 0 0 109 110.62
32 0 0 0 0 0 0 102.969 108.728
33 -0.8085 0.5569 -0.2466 -0.8085 0.5569 -0.2466 110.77 110.77
34 -0.8085 0.5569 -0.2466 -0.8085 0.5569 -0.2466 110.77 110.77
35 2.3668 2.492 -1.0122 -0.1892 0.4918 0.7273 110.77 111.27
36 -0.8085 0.5569 -0.2466 -0.8085 0.5569 -0.2466 110.77 110.77
37 2.3668 2.492 -1.0122 -0.1892 0.4918 0.7273 110.77 111.27
38 -3.9582 2.0063 0.3213 -0.4294 -0.4442 -0.6141 110.62 110.954
39 0.5111 1.6328 -1.0155 -1.1075 0.282 0.8318 110.77 111.91
40 2.3668 2.492 -1.0122 -0.1892 0.4918 0.7273 110.77 111.27
41 -3.406 1.6396 0.0737 0 -0.281 -0.5944 108.728 105.8
42 2.3668 2.492 -1.0122 -0.1892 0.4918 0.7273 110.77 111.27
43 2.3668 2.492 -1.0122 -0.1892 0.4918 0.7273 110.77 111.27
44 0 2.4501 0 0 2.4501 0 117.94 117.94
45 0 1.8729 0 0 2.5706 0 117.94 123.42
46 0 0 0 0 0 0 111.91 111.27
47 0.5511 0.9737 -0.6673 0.5511 0.9737 -0.6673 111.27 111.27
48 0.5511 0.9737 -0.6673 0.5511 0.9737 -0.6673 111.27 111.27

Improper Coeffs # class2

1 0 0
2 0 0
3 0 0
4 0 0
5 0 0
6 0 0
7 0 0
8 0 0
9 0 0
10 0 0
11 0 0
12 0 0
13 0 0
14 0 0
15 0 0
16 0 0
17 0 0
18 0 0
19 0 0
20 0 0
21 0 0
22 0 0
23 0 0
24 7.8153 0
25 4.8912 0
26 0 0
27 13.0421 0
28 0 0
29 0 0
30 0 0

AngleAngle Coeffs

1 2.0403 -1.8202 1.0827 108.4 110.77 111
2 1.0827 -1.8202 2.0403 110.77 108.4 111
3 0.2738 -0.4825 0.2738 110.77 110.77 107.66
4 0.2738 -0.4825 0.2738 110.77 110.77 107.66
5 2.4286 0.5381 -2.5301 110.77 111.91 110.62
6 0.1689 2.5926 3.9177 111.27 110.77 108.728
7 0.2738 -0.4825 0.2738 110.77 110.77 107.66
8 3.9177 2.5926 0.1689 110.77 111.27 108.728
9 3.9177 2.5926 0.1689 110.77 111.27 108.728
10 0.1689 2.5926 3.9177 111.27 110.77 108.728
11 0.1689 2.5926 3.9177 111.27 110.77 108.728
12 0 0 0 111 111 111
13 2.3794 3.0118 2.3794 111 111 107.66
14 -0.3157 -0.3157 -0.3157 107.66 107.66 107.66
15 2.4321 2.4321 -3.5496 107.66 110.62 110.62
16 2.4259 2.4259 2.1283 107.66 108.728 108.728
17 2.4259 2.4259 2.1283 107.66 108.728 108.728
18 -1.3199 -1.3199 0.1184 112.67 110.77 110.77
19 -0.833 -0.833 -3.5744 112.67 111.27 111.27
20 0.1689 2.5926 3.9177 111.27 110.77 108.728
21 -1.3199 -1.3199 0.1184 112.67 110.77 110.77
22 -0.833 -0.833 -3.5744 112.67 111.27 111.27
23 0.1689 2.5926 3.9177 111.27 110.77 108.728
24 0 0 0 120.05 120.05 118.9
25 0 0 0 118.9 117.94 117.94
26 0 0 0 118.9 120 120
27 0 0 0 118.9 123.42 123.42
28 0 0 0 112.444 109 109
29 0 0 0 110.954 109 110
30 0 0 0 110 110 107.067

Atoms # full

447 1 1 -0.159 2.933216471522952 4.718491237939818 3.6611442134563448 0 0 0
351 1 4 0 7.904827888566421 4.813358247963204 8.704648692843744 0 1 0
448 1 5 0.053 3.216364486176916 4.942566308316071 2.6383428514672396 0 0 0
446 1 5 0.053 2.642146697941867 3.634649815352009 3.760732258217588 0 0 0
285 1 8 -0.3314 3.46068528544778 7.426593262902212 3.7575325877343886 0 0 0
286 1 6 0.2487 4.12252818818526 6.751557820303133 4.000512418290745 0 0 0
349 1 4 0 7.782290112344776 7.4166877921146845 7.631572283601768 0 1 0
345 1 1 -0.106 7.600380345758691 8.878369703579123 7.174191323015337 0 1 0
47 1 4 -0.1268 7.567018754786584 5.380480616494376 4.211619711678801 0 0 0
45 1 5 0.1268 7.953598112625602 6.428446979829028 4.335658615793637 0 0 0
49 1 4 -0.1268 8.281832711755122 4.370895628547284 4.931314472010438 0 0 0
344 1 4 -0.1268 6.669460130477418 6.693104521799389 7.844045488987787 0 1 0
347 1 4 0 6.7004441623593145 5.353452204474204 8.273522261164311 0 1 0
403 1 1 -0.159 7.734990352779866 9.14109438635123 5.704716910000999 0 1 0
341 1 5 0.1268 5.664052456394696 7.103668232401955 7.658027981862319 0 1 0
165 1 1 -0.106 5.358662339231232 4.639605798898161 8.449126664019813 0 1 0
174 1 4 0.0265 6.544962318858326 5.039730130389176 3.292388969801622 0 0 0
356 1 4 0 9.08674691170451 5.511109369004698 8.350880959298335 0 1 0
354 1 4 0 8.991378652088342 6.855334840820292 7.863102807510046 0 1 0
346 1 5 0.053 8.529732449331163 9.4863126265671 7.600199688170585 0 1 0
283 1 4 0 2.1503927706667914 6.953970599808274 4.066196391776866 0 0 0
340 1 5 0.053 6.6626514892646345 9.264521310226021 7.6028228590918445 0 1 0
407 1 5 0.053 8.738014164510034 8.895040365810647 5.387915413275952 0 1 0
401 1 5 0.053 7.526907903114398 10.194021207735098 5.442550395515937 0 1 0
177 1 4 0 7.943674624046518 3.0190612224736713 4.822089893930979 0 0 0
162 1 1 -0.159 5.15754089683689 3.8292943385274367 7.169594083135401 0 1 0
50 1 5 0.1268 9.063944259208029 4.702171194561423 5.56815798723118 0 0 0
140 1 2 0.08 4.460285072651008 9.024594118089418 9.56271087902116 1 -1 1
138 1 5 0.053 4.550568446110965 8.910121628428861 8.433070252257975 1 -1 1
124 1 4 -0.1268 6.901507486147728 2.7152671298318056 3.9794986068005795 0 0 0
159 1 5 0.053 5.579457374832138 4.16125472453083 6.186544975248351 0 1 0
281 1 4 0 1.856823643733651 5.617509682427679 4.07150374684309 0 0 0
166 1 5 0.053 4.556950207331361 5.3718691264764615 8.507167569826498 0 1 0
164 1 5 0.053 5.272176124174006 4.084346344806038 9.453868533595175 0 1 0
533 1 5 0.053 2.167187587466687 3.132154717212208 5.826611855134987 1 0 1
359 1 6 0.2487 9.985915410046205 8.615435471221916 7.643290115294938 0 1 0
357 1 8 -0.3314 10.154022997538478 7.66693651547943 7.706212467203842 0 1 0
173 1 8 -0.3314 7.964703908811637 3.465038393063954 9.289282350020468 0 1 0
161 1 5 0.053 4.09453156212176 3.6237647708764738 6.997988581922539 0 1 0
160 1 5 0.053 5.637889402475657 2.86841294876404 7.35224647463339 0 1 0
171 1 6 0.2487 8.937236615394102 3.1674424177341183 9.220823781698773 0 1 0
167 1 5 0.053 5.901583848034175 7.486838060656572 3.8647621390220364 0 0 0
56 1 1 -0.106 8.499536393744844 1.9777147141504163 5.744491936174657 0 0 0
15 1 4 0 10.082245529536019 2.006163646225035 5.795604771294902 0 0 0
450 1 5 0.053 3.7818633763351546 4.822497203268245 4.3029958408424545 0 0 0
41 1 1 -0.0233 3.626274083531108 7.6159701642541116 2.280642525000569 0 0 0
257 1 1 -0.0233 5.517399387330162 10.189904555439737 10.009295685356802 1 -1 1
399 1 5 0.053 7.0283038431933225 8.560916400018513 5.218853316895351 0 1 0
127 1 5 0.1268 6.486049137418462 1.717340331047367 3.975636998838783 0 0 0
142 1 1 0.027 2.9516350719703652 9.466536032284768 9.847000486765822 1 -1 1
176 1 4 -0.1268 6.267907013726146 3.6814216249481317 3.200431616345071 0 0 0
57 1 5 0.053 8.047078652189997 1.9980137574018484 6.728587942278477 0 0 0
508 1 5 0.053 2.1796783792276773 1.872458248714625 7.805377528053441 1 0 1
73 1 7 0.4241 5.501939966990162 7.34848952223261 9.754433727788417 0 0 0
258 1 5 0.053 6.49213975013286 9.747992741737932 10.239814564533356 1 -1 1
42 1 5 0.053 2.7724517127685364 8.196939403736664 1.884127005166886 0 0 0
452 2 5 0.1268 9.552155993145021 9.245882288032881 9.591556428522622 0 0 0
18 1 5 0.1268 9.99874259477393 19.284763945997383 7.638962383074123 0 -1 0
288 1 5 0.053 2.665751349994842 9.405354140602796 6.279998039711822 0 0 0
141 1 5 0.053 2.3118598042449885 8.608811556670723 9.597098922480388 1 -1 1
179 1 5 0.1268 9.72201097638645 9.498398924912703 2.308428133513063 0 0 0
168 1 1 0.027 6.102180085877607 7.370828474727245 2.73043499005526 0 0 0
169 1 10 -0.1595 6.017043772231243 5.98866692380915 2.3957621392316346 0 0 0
39 1 11 -0.5571 5.278594890920858 9.5150609461016 2.3034203051327804 0 0 0
172 1 5 0.053 7.155846658880779 7.747870272700593 2.4731824944264504 0 0 0
43 1 2 0.08 5.057437851585621 8.17629189722959 1.9780708498386332 0 0 0
361 1 1 -0.159 10.443964380719626 4.902894578355243 8.620592258086546 0 1 0
279 1 5 0.053 2.2358687795364345 9.674140054282496 4.039356251322417 0 0 0
143 1 10 -0.1595 2.450462051683913 10.5970634866333 9.092903448153368 1 -1 1
120 1 5 0.1268 5.6601763817538275 3.268814200085986 2.341272612684596 0 0 0
40 1 5 0.053 3.511625060208647 6.643655285586745 1.7403610712589246 0 0 0
287 1 1 -0.159 1.6800040169574808 9.769167041241827 6.023763101894607 0 0 0
139 1 11 -0.5571 4.743835317327908 7.779740547926512 10.20722165179298 1 -1 1
17 1 4 -0.1268 10.689752928043372 1.457164762597727 6.9365108466758585 0 0 0
443 1 5 0.053 2.077084816144912 3.317176855210236 1.692686443149526 1 1 1
53 1 5 0.1268 10.560209676162431 3.155320327213433 4.009119011546378 0 0 0
226 1 5 0.053 2.6155433733500213 4.268324476211934 9.86117246834252 0 0 0
362 1 5 0.053 10.54005749469362 4.087066320644908 9.296370400418201 0 1 0
532 1 1 0.027 19.60895529212864 1.6878955106738613 7.119138021903178 0 0 1
227 1 7 0.4241 19.59197831850509 4.843767647782643 6.771315149492921 -1 0 0
453 2 4 -0.1268 10.166828770766871 9.878495608859879 10.215478880910545 0 0 0
449 1 7 0.4241 4.926348118346343 10.011365776426814 1.6543056070472968 0 0 0
472 1 2 0.08 18.308380182930954 4.319562351052289 1.6093530892384416 0 1 1
132 1 5 0.053 8.135748561454559 19.2191071344363 5.493085767988677 0 -1 0
459 1 5 0.053 9.306099129998483 19.595366444331596 10.135670678288644 0 0 0
531 1 2 0.08 19.512899594858446 2.9855448500004034 6.307476439389924 0 0 1
527 1 11 -0.5571 19.36852986725676 4.031050866837996 7.25034347098353 0 0 1
360 1 5 0.053 10.980296421366312 4.540452471286229 7.692705453514383 0 1 0
180 1 4 -0.1268 10.656400306413323 9.103146007636244 1.9132456100185853 0 0 0
282 1 1 -0.106 19.70572260913157 9.314083444317998 4.636885775075323 -1 0 0
363 1 5 0.053 11.116659802391572 5.693329702210632 9.048900907546518 0 1 0
13 1 4 -0.1268 10.985244484382305 2.6395058189622196 4.859970621046015 0 0 0
490 1 3 0.08 14.077664426987845 4.216413176370951 1.5327877414137296 1 1 1
289 1 5 0.053 19.271076860008876 9.41987936486634 6.780189096758599 -1 0 0
280 1 4 0 19.47681514713515 7.866418648640598 4.424458195783961 -1 0 0
230 1 5 0.1268 19.26136401480808 6.135555985846722 9.162365678229747 -1 0 0
222 1 5 0.053 10.675028992840446 7.901634224571746 5.647946933291834 -1 0 0
493 1 5 0.053 13.109955444115066 6.045645685156531 2.54949354209041 1 1 1
223 1 1 -0.0233 11.014608713553372 7.4081940842758796 6.546765057851744 -1 0 0
224 1 5 0.053 10.934362001591074 6.298898009424694 6.365121612652177 -1 0 0
130 1 4 0.0265 13.07036282473601 8.82418630853078 1.9047321664251033 0 0 0
486 1 9 -0.266 14.30396947108369 4.3219904935041455 2.9532971169909894 1 1 1
291 1 9 -0.266 13.327537231753038 3.520282591210903 9.864152391464447 -1 0 0
294 1 1 0.027 14.645865184865945 2.9497290278402755 10.248060324585156 -1 0 0
249 1 5 0.053 15.486794276740827 3.26507078390921 9.652859559606 -1 0 0
271 1 5 0.053 17.4531765206698 2.626346361153417 2.590071705824874 0 1 1
278 1 4 0 18.89422675824254 5.150643506578048 4.368677784668302 -1 0 0
277 1 4 -0.1268 18.20140379362256 7.356027938169063 4.629963437088875 -1 0 0
529 1 5 0.053 18.277566048323877 1.919126020983697 4.820534960645855 0 0 1
507 1 5 0.053 17.461302942575678 3.202451057154774 5.7350049326863575 0 0 1
528 1 1 -0.0233 18.37984100367656 2.9334209257098927 5.1955651455817815 0 0 1
269 1 1 -0.0233 17.730352403739708 3.6324016004925848 2.861012968724043 0 1 1
270 1 5 0.053 16.811155589773175 4.212115625816585 3.10458019427781 0 1 1
116 1 8 -0.1654 18.591400223474963 3.755481887641774 4.018473980661678 -1 0 0
115 1 5 0.053 16.753204012143367 5.209543330166982 7.280304028935414 -1 0 0
157 1 5 0.053 16.312248696410805 6.944502075056507 7.029028878594916 -1 0 0
276 1 4 0 17.887832446406897 6.007690727467816 4.722788882942371 -1 0 0
355 1 7 0.4241 13.453061500254798 9.537132350834524 6.245945803724838 0 1 0
432 1 5 0.053 12.386182689633046 8.452076012282111 8.891453348988112 -1 0 0
113 1 1 -0.159 16.10577039353483 5.87906276787067 6.651176313876465 -1 0 0
117 1 5 0.053 15.936975789448951 4.800571655135326 4.861313491706746 -1 0 0
274 1 1 -0.106 16.393116733464517 5.760230484274776 5.1359814664080226 -1 0 0
158 1 5 0.053 15.129586046052376 5.469140701347129 6.811109416031264 -1 0 0
193 1 11 -0.5571 12.476277533415617 9.270584219032363 6.089715244409081 -1 0 0
275 1 5 0.1268 17.321161083150628 8.053801457011705 4.782316970028319 -1 0 0
379 1 2 0.08 12.436552034402165 7.964524556686589 6.74912883619546 -1 0 0
273 1 5 0.053 15.69509072229044 6.442539569536587 4.612487034730144 -1 0 0
428 1 5 0.053 13.182077944636914 6.976174504793736 8.553899244697238 -1 0 0
430 1 1 0.027 13.033530081375497 7.956948709770052 8.159471571947513 -1 0 0
378 1 5 0.053 13.158099010382308 7.358165441908443 6.144143537231377 -1 0 0
380 1 10 -0.1595 14.311791172416866 8.51107426836961 8.06770705586969 -1 0 0
384 1 4 0.0265 14.864960360280184 9.008256899837285 9.198768171734855 -1 0 0
388 1 4 -0.1268 16.270942718515215 9.31838173934351 9.176333954161553 -1 0 0
387 1 5 0.1268 16.729252633742064 9.024101787837552 8.198685019645465 -1 0 0
248 1 5 0.053 16.672737728537342 9.66656526836255 3.1420939052942396 0 0 0
128 1 4 -0.1268 11.926811929211393 9.37793246300391 2.41012788381808 0 0 0
126 1 5 0.1268 12.007046390889593 10.073965549633073 3.244216861333168 0 0 0
12 1 4 0.0265 12.971572090200473 1.8818893650720983 6.099597309731016 0 0 0
297 1 5 0.053 14.606541349979324 1.8476102299651918 10.26532499796585 -1 0 0
129 1 10 -0.1595 14.293257672777944 9.031291858662714 2.487303336052304 0 0 0
370 1 11 -0.5571 15.158331839164557 9.938136976841639 5.527517947987254 0 0 0
37 1 7 0.4241 15.13767020303905 9.505716891669342 4.653262869211929 0 0 0
251 1 2 0.08 16.573199245125657 9.906548449375254 2.067270080890441 0 0 0
483 1 5 0.053 18.8959227403749 9.949578051680696 4.232101736832039 -1 0 0
14 1 4 -0.1268 12.056744645325011 1.4992358030343722 7.113637784628844 0 0 0
9 1 10 -0.1595 14.320053201266107 1.7103465982840627 6.171948621181404 0 0 0
492 1 1 0.027 14.008573855215927 5.532127376078768 2.2196144894610272 1 1 1
494 1 5 0.053 14.8759480733741 6.185913491985851 2.1633497717134826 1 1 1
574 2 5 0.1268 12.535204690383138 12.347347342711632 10.071830957789562 0 0 0
11 1 4 -0.1268 12.385668575657911 2.464508040548414 4.959223485341878 0 0 0
474 1 5 0.053 18.686928357376836 5.339311621764196 1.8539806463722404 0 1 1
118 1 5 0.1268 16.749778674322037 6.532104333787741 9.26811459469598 -1 0 0
234 1 4 -0.1268 17.28105330675333 5.9986069993825275 10.018985799597568 -1 0 0
232 1 4 -0.1268 18.627942702866925 5.711561756435774 9.990487794838154 -1 0 0
10 1 5 0.1268 13.0724202015005 2.727504310315107 4.158941525346909 0 0 0
386 1 4 -0.1268 14.248684974112813 9.222171653737561 10.417708711586254 -1 0 0
392 1 4 -0.1268 16.940516672977516 9.824700250709089 10.31309253804955 -1 0 0
329 2 7 0.4241 11.27729616229828 10.41606338583547 5.7051936924844755 0 -1 1
93 1 5 0.053 17.928050037123384 14.728181133920593 3.755555633969925 0 0 0
335 1 5 0.1268 18.020300814880756 10.093912764179468 10.155442973008281 -1 0 0
425 1 4 -0.1268 13.43306337745901 15.131739607979487 8.994522741071385 0 0 0
131 1 1 0.027 15.389271839329506 9.092525438050231 1.579953146392204 0 0 0
153 1 7 0.4241 17.97130365029855 8.601582523453613 1.7789719746398294 0 0 0
48 1 5 0.053 8.019986317112927 11.511662516065854 10.295699017785317 0 0 0
464 2 6 0.2487 5.241903781024547 12.735137082038973 1.9870709631032077 0 -1 1
63 1 1 -0.106 5.536257870003536 16.769918985338805 9.62073675313186 0 0 0
150 2 5 0.053 6.504481842677946 11.630796961886034 2.734370929037478 0 -1 1
509 2 5 0.053 4.823551039517397 17.83081309858668 4.685533653173127 0 -1 1
324 2 5 0.1268 7.096180583900905 17.375405342199365 4.011015012444325 0 -1 1
72 1 8 -0.3314 5.862330874949547 11.078709836253864 8.877423565374112 0 0 0
74 1 6 0.2487 5.288659708593952 10.86741496785796 8.058511523264517 0 0 0
511 2 5 0.053 4.0245978955862185 16.334343638975607 4.8846941057930175 0 -1 1
539 1 5 0.053 4.564348823132553 17.151950615032952 9.18629413991232 0 0 0
572 1 5 0.053 6.4779501587025 16.870889967351687 7.627658570694723 0 0 0
323 2 4 -0.1268 7.171869444534174 16.280093944364566 3.718394743203172 0 -1 1
545 1 1 -0.159 6.6385813328459715 17.271899322727936 8.710489755484389 0 0 0
152 2 1 -0.159 7.529628749799145 12.102671416236799 2.711811000318227 0 -1 1
70 1 4 0 5.762276463215445 12.549499176655424 9.223623333240216 0 0 0
66 1 4 -0.1268 5.049171547696535 14.71915291441292 8.525817585088072 0 0 0
68 1 4 0 5.116559969592151 13.323073165098544 8.322515580969398 0 0 0
327 2 8 -0.3314 9.537535524765273 13.468199335394187 4.136559873788277 0 -1 1
322 2 4 0 7.3556690156219995 13.553087570850295 3.0265274729452534 0 -1 1
320 2 4 0 6.233970033603769 14.325253959280039 2.656766001066254 0 -1 1
325 2 4 0 8.322758464109562 14.207435041386276 3.790093755489078 0 -1 1
326 2 4 0 8.292143339816633 15.575255191023038 4.061387164449183 0 -1 1
569 2 1 -0.0233 9.380749252141264 13.00180930421451 5.543805918061354 0 0 0
100 1 5 0.1268 4.570740262809089 15.352689912690904 7.636297585978595 0 0 0
71 1 1 -0.106 4.356983858045853 12.812230083524954 7.0116559087107735 0 0 0
204 1 1 -0.159 5.2544326687507965 12.97771009087431 5.784494327091172 0 0 0
75 1 5 0.053 3.9976905355442316 11.761412815854365 7.081525446471211 0 0 0
101 1 5 0.053 3.4725663826751636 13.39139110021144 6.86605190529041 0 0 0
321 2 4 0 6.1774999297478645 15.70088239532769 3.023030050510899 0 -1 1
156 2 6 0.2487 9.464088184103701 12.611359428368308 3.5742064832076217 0 -1 1
576 1 5 0.053 6.660157767469833 18.396514167598248 8.642662407473495 0 0 0
510 2 1 -0.159 4.221064803162475 17.122862049871785 4.039535034696396 0 -1 1
583 2 5 0.053 3.2706198246277154 17.59028967668592 3.9679317593062984 0 -1 1
203 1 5 0.053 6.306565606583231 12.57470685636553 5.982439301714335 0 0 0
451 2 5 0.053 8.633072361845645 12.168512699516995 5.608937795150281 0 0 0
205 1 5 0.053 4.769933954236891 12.712743330137414 4.821509842937681 0 0 0
202 1 5 0.053 5.46340409918277 14.048744956913959 5.683831068363592 0 0 0
570 2 5 0.053 9.27647472464055 11.867664845633453 7.882492069178586 0 0 0
328 2 1 -0.106 9.482956568792027 16.423569841300367 4.653154645571867 0 -1 1
383 2 1 -0.159 9.22655758212478 16.679452509390284 6.171051853405394 0 -1 1
319 2 1 -0.106 4.917320173724869 16.535953056431442 2.7665182738310277 0 -1 1
381 2 5 0.053 8.282052950831636 17.125093339019664 6.346918282706535 0 -1 1
154 2 5 0.053 8.1294587915182 11.430866680367535 3.3445043541394517 0 -1 1
512 2 5 0.053 9.084881585779257 15.714538201068033 6.7580500330943565 0 -1 1
64 1 4 0 5.579203252997261 15.323002493686783 9.654924027447988 0 0 0
567 2 5 0.053 8.872793437121633 13.772500724422729 6.1790969961693305 0 0 0
571 2 1 0.027 10.355974763687085 12.000373039367725 7.649209610601408 0 0 0
67 1 4 0 6.504414160988667 13.132899368954792 10.255615327781666 0 0 0
546 1 5 0.053 7.630969752420354 17.009362031116652 9.002500063128226 0 0 0
317 2 8 -0.3314 5.156657860128147 13.729708522898076 1.9182917809182416 0 -1 1
146 1 4 0.0265 1.8963474983865725 11.665680671980871 9.704809007090898 1 -1 1
385 2 5 0.053 9.655738961804891 17.38554480685587 4.106069403064451 0 -1 1
566 2 5 0.053 10.557896393777192 12.915941822573995 8.209812712103833 0 0 0
151 2 5 0.053 7.890051908640046 11.921597521326815 1.7150244848123435 0 -1 1
489 1 5 0.053 1.7736704578860172 10.861247995767052 6.115514105264571 0 0 0
389 2 5 0.053 9.998254385957345 17.294326052432694 6.61874274780325 0 -1 1
530 1 5 0.053 1.620103987879567 19.259537697454192 6.379574536170355 1 -1 1
21 1 5 0.1268 1.7163581156218162 15.73347728452232 9.097463452236482 1 -1 1
20 1 5 0.1268 1.4955851438931487 17.403371541786512 7.432236600448978 1 -1 1
22 1 4 -0.1268 19.364315518452003 17.561501366637117 8.393782860724125 0 -1 1
23 1 4 -0.1268 19.49045500300757 16.615065566231177 9.332422447480564 0 -1 1
316 2 5 0.053 5.183168726934657 17.423088863312255 2.167612851157407 0 -1 1
564 2 11 -0.5571 10.697225368137685 11.061898656864411 5.302986072341259 0 0 0
332 2 5 0.053 10.51843157981494 15.887031626494638 4.468116828275301 0 -1 1
465 2 5 0.053 4.147569833211486 15.951223091953322 2.2318704839224175 0 -1 1
256 1 5 0.1268 11.537781864123422 19.59291905835569 10.277450109547626 0 0 0
89 1 1 -0.106 13.799908560469877 17.700085891337544 1.7532512591318063 0 0 0
16 1 5 0.1268 12.52161102675649 19.29170375761403 7.967794405899179 0 -1 0
111 1 4 0 14.45863553464733 16.314695945599134 1.9338179539964138 0 0 0
110 1 5 0.053 11.909339648425325 18.524937651730262 2.0825786625258633 0 0 0
577 2 4 -0.1268 11.768945158074942 11.671320283817176 10.506115409733852 0 0 0
568 2 2 0.08 10.636249826980169 12.278967386105196 6.127837366646664 0 0 0
85 1 1 -0.159 12.251128799635563 17.534564847531577 1.9177055675780788 0 0 0
225 1 5 0.053 14.251189269447151 18.43150261303461 2.469622525410281 0 0 0
218 1 4 0 14.317520504260175 15.178716299060177 10.083719994340813 0 0 0
112 1 4 0 15.889637394856088 14.712089435773077 3.110740253891643 0 0 0
220 1 5 0.1268 13.722684759037078 18.580082502385387 10.050709892615323 0 0 0
184 1 5 0.1268 15.854206535160808 12.235015525059548 9.476618393324266 0 0 0
373 1 5 0.053 14.503057577791088 12.929935028368497 4.550919561100985 0 0 0
372 1 1 -0.0233 14.928635112167877 11.98296879936844 4.161054458725404 0 0 0
155 1 8 -0.1654 15.469122929164016 12.223272341969604 2.813451873273338 0 0 0
83 1 5 0.053 11.999100746070734 16.98244696464142 2.8807359554596337 0 0 0
107 1 11 -0.5571 18.80028810219396 17.683083910815 4.403104836856546 0 -1 1
104 1 5 0.053 16.72351850241307 18.023468013032385 1.894203907941338 0 -1 1
375 1 5 0.053 14.004092475992039 11.436196283844984 3.9874595107817257 0 0 0
506 1 5 0.053 19.306484814588835 15.788818179760561 2.7829276595495553 0 -1 1
26 1 4 0.0265 18.631197723819668 18.749784181389913 8.719495715968229 0 -1 1
582 1 5 0.053 18.019290580210097 16.039893414880726 1.6748012310503158 0 -1 1
32 1 4 -0.1268 17.915985817533567 18.764802994702123 9.891909771428475 0 -1 1
534 1 10 -0.1595 18.365341980514124 19.717399286314837 7.8085246762226435 0 -1 1
6 1 5 0.053 15.245261207139018 19.17470820781719 7.8180712975582685 0 -1 0
216 1 4 -0.1268 15.19270396948954 14.124611437067857 10.179471240171353 0 0 0
2 1 5 0.053 14.484165468514512 16.622461284593726 5.087507106640844 0 -1 0
368 1 2 0.08 15.752200903201022 11.186052674549607 5.234713300751215 0 0 0
91 1 4 0 15.435952331465359 16.00043405231734 2.920040806554162 0 0 0
374 1 4 -0.1268 13.37117773375945 14.161259372145562 8.040304334514712 0 0 0
366 1 5 0.053 16.792966895756237 11.087404327281925 4.966448379894413 0 0 0
367 1 1 0.027 15.800302282207229 11.962188316925422 6.5817363268902485 0 0 0
145 1 5 0.1268 18.77958720849182 12.182666245401519 8.10391744355771 0 -1 1
106 1 5 0.053 16.687809491877836 19.06981710475158 3.3322689019380753 0 -1 1
24 1 4 -0.1268 18.79565784107878 13.672084367670962 9.69810920398779 0 -1 1
38 1 5 0.053 16.86768965091047 14.97101344022447 5.161301656390099 0 0 0
535 1 5 0.1268 17.45807212509518 19.685929249599283 10.303198346936101 0 -1 1
565 2 5 0.053 11.650093260713705 12.700546662216828 6.0160480205839 0 0 0
365 1 5 0.053 16.453666857644244 11.466240829502333 7.283370741044961 0 0 0
188 1 4 -0.1268 15.164211981559946 13.10227504254347 9.295407209916036 0 0 0
96 1 7 0.4241 18.188842100402212 17.1142775594615 4.816894901338426 0 0 0
19 1 5 0.053 18.784540942663 18.615854865093198 2.6182589570955628 0 -1 1
108 1 2 0.08 18.332980385436322 17.71561713747038 3.085964659520548 0 -1 1
97 1 7 0.4241 16.81764110709594 17.458348784811044 7.58602760562788 0 0 0
265 1 5 0.053 11.835742373833703 12.497340820895774 1.8137859692728098 0 0 0
5 1 5 0.053 16.613216625209677 18.79882183755422 5.544674441736023 0 -1 0
371 1 4 0.0265 14.372681813617241 13.131395406228865 8.094519783646376 0 0 0
28 1 5 0.1268 18.04374885210575 14.272701341252231 9.212887113230881 0 -1 1
3 1 1 -0.0233 15.178496043339411 17.49925275113557 4.797183769214282 0 -1 0
504 1 1 0.027 18.823115917275373 16.58612897650235 2.203793897636518 0 -1 1
575 2 4 0.0265 10.982626955733958 10.877528068217849 9.684680654963406 0 0 0
103 1 5 0.053 17.581267140968983 11.803162583412037 2.4217213552212384 0 0 0
94 1 5 0.053 17.163145691517006 13.37996183109442 4.428244405211448 0 0 0
105 1 1 -0.0233 16.85704201191946 18.061354436452156 2.9909759303651926 0 -1 1
426 1 5 0.1268 12.739110640491761 15.94839259310881 8.652896605560777 0 0 0
95 1 8 -0.1654 16.01603264163393 17.03794734667222 3.706408819904298 0 0 0
4 1 2 0.08 15.886527804238778 18.11125364507773 6.015978265848284 0 -1 0
1 1 11 -0.5571 16.576526180358123 17.098746506314768 6.70997675031181 0 -1 0
148 1 4 -0.1268 19.233675451091088 12.528624762649669 9.069827810005531 0 -1 1
376 1 5 0.1268 12.84656381646909 14.23062836002026 7.068476148538287 0 0 0
364 1 5 0.053 16.247333231429884 12.956862156115278 6.498870040446648 0 0 0
573 2 10 -0.1595 11.157802249900705 11.034000058692689 8.34074471823305 0 0 0
250 1 1 -0.0233 16.57245753530089 11.547760410250289 2.039980630937249 0 0 0
7 1 5 0.053 14.016600540037155 18.108242418862545 7.1907319428817855 0 -1 0
99 1 5 0.053 14.409314512619652 18.3710127742933 4.49067382618532 0 -1 0
109 1 4 0 15.318353762338411 13.625357338303731 2.3748281836558474 0 0 0
92 1 1 -0.159 16.97528300820357 14.446825599233556 4.120069135820762 0 0 0
8 1 1 0.027 14.815062312687768 18.889179447993378 6.837729060977387 0 -1 0
369 1 10 -0.1595 14.468564133110512 12.196149353283186 7.1268288080714495 0 0 0
484 1 10 -0.1595 11.541085241769839 3.7777892592047406 1.6312440331758915 1 1 1
382 1 5 0.1268 13.153126491186448 9.11649240246227 10.552590849458008 -1 0 0
30 1 4 0 18.806553443617773 16.61011099725622 10.536200143640414 0 -1 1
485 1 5 0.053 13.07918353971716 2.378469813320394 1.490927732543895 1 1 1
134 1 5 0.053 15.75459244497586 8.051918579140764 1.4853570658239121 0 0 0
584 1 5 0.1268 5.457592669035935 5.321901288207423 15.916918970624309 1 1 0
470 1 4 -0.1268 3.639561753763443 4.701325320502675 16.98046159305943 1 1 0
585 1 4 -0.1268 4.982023739209998 4.549993222708026 16.559589771794414 1 1 0
468 1 5 0.1268 3.0743482897155046 5.55063203624721 16.59390916338054 1 1 0
519 1 9 -0.266 6.755679715499138 6.797228486732042 14.141150669313143 0 0 0
469 1 4 0.0265 2.9861095137587963 3.7624640423060973 17.822217337324588 1 1 0
237 1 5 0.1268 3.9307861442226018 4.617588078233854 13.132241999888814 0 0 0
231 1 4 0 2.7796548369538066 3.3389689784771517 11.826954730743637 0 0 0
358 1 10 -0.1595 3.820990506872217 8.600495967431225 14.158617827753787 0 0 0
521 1 3 0.08 5.82555365957671 7.443039213874743 13.250653471844105 0 0 0
520 1 1 0.027 4.331761363323525 7.419191557396386 13.443315462018706 0 0 0
192 1 5 0.1268 6.971495847159316 7.798919777010914 16.813648022171186 0 0 -1
353 1 4 0.0265 2.5166718948731046 9.007254597877155 13.98604220538752 0 0 0
524 1 5 0.053 3.8587399236012274 7.387802016238714 12.450865747828173 0 0 0
518 1 5 0.053 3.9752986390429568 6.553481850806612 14.046930225819368 0 0 0
525 1 5 0.053 6.193447362413256 8.487360609828094 12.915262051024486 0 0 0
523 1 1 0.027 6.557299079626708 6.190333538414278 12.859748522388962 0 0 0
201 1 4 -0.1268 3.705979286141013 3.549208004466084 12.886545781884937 0 0 0
170 1 5 0.053 5.199304357286628 8.090898700829067 19.18270836171476 0 0 -1
243 1 11 -0.5571 7.613993934936968 2.4246056183596325 12.831824656856332 0 1 0
522 1 5 0.053 5.958740242467809 5.2073296085670915 12.906111129736978 0 0 0
526 1 5 0.053 7.444753742408603 6.181764339274162 12.187714259428148 0 0 0
247 1 2 0.08 7.873460271194912 2.250419094057193 11.446419948093666 0 1 0
190 1 4 -0.1268 7.365143851626903 8.826317105039106 16.925902647105698 0 0 -1
61 1 5 0.1268 5.956403940541632 9.521240295695627 15.487539838708834 0 0 -1
186 1 4 0 8.481764211032342 9.120203119234084 17.648679679938482 0 0 -1
60 1 4 -0.1268 6.746465181065326 9.791766706004916 16.151511145058343 0 0 -1
228 1 5 0.053 3.049977189145136 5.354758118343749 11.005276588008051 0 0 0
229 1 1 -0.106 2.3962824304882044 4.4760038214449605 10.938708960501557 0 0 0
242 1 5 0.053 8.488655933718738 4.319068295472676 11.25782089556419 0 1 0
253 1 5 0.053 10.03736745908461 2.5102213464252228 11.288011568076572 0 1 0
480 1 4 -0.1268 9.480310880530729 4.5163591511419305 19.030838792580077 1 1 0
314 1 5 0.053 8.869725254423162 5.275197337971685 14.145295076175259 0 0 0
478 1 4 -0.1268 8.445982502413425 4.408418365802552 18.114965660587913 1 1 0
476 1 5 0.1268 7.557108001122664 5.0805446700664945 18.257228575237136 1 1 0
182 1 4 -0.1268 8.833477582468031 10.464215562848311 17.7287741946882 0 0 -1
331 1 4 -0.1268 3.7336105938824184 2.695679751741692 18.299862962602056 1 1 0
311 1 1 0.027 9.874705670635143 5.403782132035342 14.352464515929453 0 0 0
516 1 4 0 5.686333960854147 3.416829247732728 16.955481900274847 1 1 0
475 1 4 0 8.272521134842062 3.2575891079531445 17.304699654383118 1 1 0
187 1 1 -0.106 9.141642861183861 7.940700926100038 18.354001019643782 0 0 -1
183 1 5 0.053 9.301171665304537 7.194299182930798 17.6059834994793 0 0 -1
252 1 1 0.027 9.348511169009015 1.6632276793625138 11.183112196490425 0 1 0
330 1 5 0.1268 3.310309339843478 1.8635656983861935 18.951507324968233 1 1 0
513 1 5 0.053 7.309822020524084 3.6730885074241284 15.49988503324285 1 1 0
333 1 4 -0.1268 5.074758692689237 2.5413705903564354 17.804536136123666 1 1 0
515 1 1 -0.106 7.1065699857184494 3.0922784573487894 16.405683279892788 1 1 0
477 1 4 -0.1268 9.292193116036035 2.32415813984123 17.3795682197987 1 1 0
549 2 5 0.053 9.646784190429655 10.027699403318517 14.105404810227569 0 0 0
457 2 5 0.1268 9.319239573648797 9.163586190678117 12.054613077948513 0 0 0
456 2 4 -0.1268 10.035093999562527 9.843984410582754 11.583947173210698 0 0 0
445 1 4 -0.1268 2.353924305690181 2.043723398072777 11.602998146908163 0 0 0
479 1 4 -0.1268 10.401177404718828 2.4860784680296115 18.186610556526688 1 1 0
290 1 5 0.1268 1.8966473467432496 7.147082335076784 12.867793487558755 0 0 0
144 1 5 0.053 2.8365494493084116 9.600203635699726 10.923235148915305 1 -1 1
404 1 4 -0.1268 4.259019560445186 2.504896544331917 13.622247356025747 0 0 0
409 1 5 0.1268 4.895537515870089 2.8287979799323764 14.468219466893284 0 0 0
467 1 10 -0.1595 1.6834611759531903 4.022719235214039 18.105939781070575 1 1 0
581 2 1 -0.106 10.517944262955021 10.530722789558872 13.972499769980436 0 0 0
272 1 5 0.1268 5.668956380110806 1.6703232328290398 18.193035794300286 1 1 0
514 1 5 0.053 7.017200206952031 2.0697007655095083 16.020820946468618 1 1 0
189 1 5 0.053 8.41452984118624 7.475458729363261 19.03738578700321 0 0 -1
246 1 5 0.053 7.234386662704264 1.5147055017632312 10.964125747157109 0 1 0
175 1 7 0.4241 7.432344472866456 1.5414799456222623 13.185964641979377 0 1 0
562 1 5 0.1268 9.238527195426489 1.5001843545497497 16.68760983895755 1 1 0
315 1 5 0.053 10.40866396354382 3.2172690946004607 13.74527725837711 0 0 0
178 1 5 0.1268 9.76286746627938 10.819931221891558 18.20029089000505 0 0 -1
244 1 1 -0.0233 7.757511082570311 3.6360642885029355 10.757683230885261 0 1 0
245 1 5 0.053 6.779167026677664 4.164335061884681 10.974571124558194 0 1 0
352 1 4 -0.1268 1.6489643769562377 8.232410875227671 13.131711247774767 0 0 0
185 1 4 0 10.513630879687222 8.266333793665586 19.090712551194926 0 0 -1
580 2 4 0 10.783114528864523 10.660531563975537 12.472986150054808 0 0 0
482 1 4 0.0265 10.49620406509358 3.594063246536611 19.01950622436182 1 1 0
444 1 5 0.1268 1.5275987851786983 1.8160543937733462 10.913618343728244 0 0 0
350 1 4 -0.1268 2.057925965616641 10.251662051734858 14.381239056917844 0 0 0
308 1 5 0.053 10.170956047433224 6.097925977967148 15.089831101167498 0 0 0
313 1 9 -0.266 10.710079185593946 5.291460494887721 13.186406223437428 0 0 0
123 1 3 0.08 13.816965586901363 3.7003205257940386 11.236814683501603 -1 0 0
212 2 5 0.053 19.490927273316466 8.147976326454494 16.50580152822247 0 0 0
312 1 3 0.08 10.75887389449644 4.211218122813706 14.145891048896965 0 0 0
233 1 4 0 19.270833988086572 4.879228064267113 10.980953225796412 -1 0 0
292 1 5 0.053 13.222441205902458 3.1319559356479507 12.064548784522882 -1 0 0
473 1 1 0.027 19.460084530124504 3.4825499569972926 19.364551111274807 0 1 0
133 1 5 0.053 15.107223945215976 9.477239597575178 18.88723634387737 0 0 -1
119 1 5 0.053 13.078705821129837 5.754642555962494 11.41435546793013 -1 0 0
377 1 5 0.053 12.726792322950331 4.846137424707479 14.679616638369016 0 0 0
310 1 1 0.027 12.036782689044646 4.081739974087382 14.913076606493828 0 0 0
309 1 5 0.053 11.891215526956298 4.010926958459162 15.979580536143747 0 0 0
210 2 1 0.027 18.37916113602229 7.979989566439097 16.670402813620086 0 0 0
236 1 5 0.1268 18.658539765174503 3.811304543253525 12.784748720894733 -1 0 0
471 1 5 0.053 19.047354056155605 2.5188071534072183 19.067531184403613 0 1 0
235 1 4 -0.1268 18.39726894881416 4.496061370925576 11.995604873963044 -1 0 0
466 1 11 -0.5571 17.177257872996485 4.494733947576011 19.064888668198 0 1 0
487 1 1 0.027 12.866848157489336 3.379631146825189 19.417026865061523 1 1 0
191 1 5 0.1268 11.609601912038544 7.052293971542432 17.720073231425005 0 0 -1
114 1 7 0.4241 17.572582127121763 5.154409660162292 18.481586907560263 -1 0 -1
348 1 4 -0.1268 18.764108539366426 8.817862237059451 12.791493100245294 -1 0 0
136 1 4 -0.1268 11.700579977296616 7.714803304028381 18.566109677013145 0 0 -1
214 2 5 0.053 18.176207678882612 6.773351287950219 14.810250921562718 0 0 0
213 2 9 -0.266 17.914612055910375 6.688316944570108 16.885499103137207 0 0 0
207 2 5 0.053 18.006308262721014 8.858210185646616 17.16331497883216 0 0 0
419 2 5 0.1268 11.57280381882722 8.24357054970526 13.192519182839668 0 0 0
418 2 4 -0.1268 12.151589812113412 8.67080454834165 14.043009918401605 0 0 0
211 2 3 0.08 17.609488649144765 7.233359194940746 15.640057090913256 0 0 0
208 2 1 0.027 16.111453503697838 7.519053070955412 15.110247567150807 0 0 0
414 2 4 0.0265 14.101777955592224 8.732881243354813 15.500790114409982 0 0 0
416 2 5 0.1268 13.737009612956964 7.246437483840459 13.871729262370737 0 0 0
415 2 4 -0.1268 13.335468811249344 8.12013295627266 14.430290654332843 0 0 0
413 2 10 -0.1595 15.36384072146482 8.408553301649352 15.925825024628352 0 0 0
206 2 5 0.053 15.666089954949753 6.575341231484976 15.099433846086198 0 0 0
305 1 4 -0.1268 14.854237316939313 3.3812907033455413 15.365913729380562 0 0 0
209 2 5 0.053 16.01553364317875 7.844926946724639 14.091457635847222 0 0 0
307 1 5 0.1268 14.485667761392754 4.363553001980769 15.878069694927706 0 0 0
240 1 5 0.1268 16.49895575611272 4.460868929900882 12.997542747961436 -1 0 0
284 1 5 0.1268 18.060435429822434 8.284478065705846 12.102265951332342 -1 0 0
239 1 4 -0.1268 17.0568599720383 4.783229131743781 12.11313836863889 -1 0 0
137 1 5 0.1268 13.6907966912221 7.388421873303168 18.67643011397478 0 0 -1
306 1 10 -0.1595 12.592916309577513 2.7780512877101833 14.635328539981902 0 0 0
304 1 4 0.0265 13.952394340589205 2.5630538686981232 14.683864926079211 0 0 0
303 1 5 0.1268 16.830771685298593 3.775642842936559 16.118951852117714 0 0 0
302 1 4 -0.1268 16.181164300604088 3.0756285485631536 15.502833829971188 0 0 0
122 1 5 0.053 14.01829409583223 5.247726370242717 12.802915599685543 -1 0 0
390 1 4 -0.1268 14.915492808360854 9.710912523334994 11.538983387940291 -1 0 0
491 1 5 0.053 12.841490589702952 3.357351620871096 18.30125795621973 1 1 0
135 1 4 -0.1268 12.920842439801765 8.045284241107538 19.0596525272568 0 0 -1
391 1 5 0.1268 14.359352941842108 9.785236442689532 12.466563928964579 -1 0 0
417 2 4 0 11.688215858831487 9.83285804088635 14.600059320663053 0 0 0
412 2 4 -0.1268 13.465241090622682 9.792461041935399 16.18015190154244 0 0 0
121 1 1 0.027 13.999885387922983 5.218199942957866 11.665905177642252 -1 0 0
238 1 4 0.0265 16.47376007909277 5.555333484918671 11.06882634851114 -1 0 0
458 1 5 0.053 18.71530011729756 2.5390938632251054 14.941827218106088 0 0 0
87 1 5 0.053 11.75706445781174 16.927349829594785 19.501781436579968 0 0 -1
455 2 4 -0.1268 12.264982919013363 10.335833271502864 15.780043482859252 0 0 0
241 1 10 -0.1595 15.174279614424409 6.018641717630886 11.204086706961604 -1 0 0
342 1 4 0 18.331302197124238 10.113518799124117 13.122283732851573 -1 0 0
334 1 4 0 16.2740909603421 10.026262085766614 11.535030549540366 -1 0 0
299 1 4 0 16.651667289427806 1.8911300018530184 14.877045218317733 0 0 0
301 1 4 -0.1268 14.423676223527309 19.71826829892139 14.059561560473094 0 -1 0
563 1 5 0.1268 11.059960046821026 1.6259523804993465 18.26050745729423 1 1 0
125 1 11 -0.5571 17.764171935159204 9.424648959890282 19.67015885326817 0 0 -1
295 1 1 -0.106 18.082770885766195 1.5436174280052835 14.900461936478083 0 0 0
411 2 5 0.1268 13.967240294297007 10.296545998104374 17.030979268753132 0 0 0
488 1 5 0.053 14.953319452360327 3.9296705235787366 19.19873821734933 1 1 0
267 1 4 0 14.323155915372938 13.93923430602353 19.68739927734422 0 0 -1
254 1 5 0.053 5.114742631482498 10.61915454491527 10.929972322472363 1 -1 1
501 1 10 -0.1595 1.4836645736547234 17.20061844354164 19.55418424073367 1 -1 0
503 1 4 -0.1268 18.004963482956477 17.45587213405107 17.881685801910827 0 -1 0
517 1 5 0.1268 2.7405387895637086 10.870284907569479 14.933847783684433 0 0 0
460 2 5 0.053 10.359625744847259 11.617068323807706 14.28762571079847 0 0 0
495 1 5 0.1268 2.312857426273134 19.589069942769854 15.8954021396857 1 -1 0
54 1 5 0.053 6.167460083508484 11.086759616378906 13.771380972794958 0 0 -1
58 1 4 0.0265 7.111357716350806 11.154261834958012 16.246251414572583 0 0 -1
46 1 5 0.053 8.320782603930255 13.10155423986725 11.126273367058628 0 0 0
149 1 4 -0.1268 2.194847062804126 11.984970513000906 11.025543994591828 1 -1 1
52 1 5 0.053 4.697581322953475 11.556345562351526 14.750103644526737 0 0 -1
181 1 4 -0.1268 8.174436267058585 11.47318384066738 17.080539591854226 0 0 -1
44 1 5 0.053 7.152261785747157 11.912051359330288 11.839485325829376 0 0 0
55 1 1 0.027 5.671353917601597 11.897792344215562 14.318348746477392 0 0 -1
461 1 10 -0.1595 9.609511069941261 18.838847915995586 11.99141306158971 0 0 0
198 2 5 0.053 7.2987662174390815 16.804173690969773 18.716740512497275 -1 0 0
318 2 7 0.4241 5.511475054572383 11.751391389809022 17.8704514885313 0 -1 0
541 1 5 0.053 7.20932384370693 16.939392662548624 11.400496815849158 0 -1 0
547 1 7 0.4241 7.413831925544295 17.80882721391194 14.894202097740346 0 0 0
559 2 11 -0.5571 4.606571908745144 11.720155066405981 18.237565872866178 0 0 0
397 1 4 -0.1268 2.836699864957035 19.291756895241257 12.368076941434138 0 -1 0
540 1 7 0.4241 4.21548605358636 14.692709584977733 13.391647899593151 0 0 0
90 2 5 0.053 2.2292604749554434 12.200037496979418 17.96999052699121 0 0 0
552 2 5 0.053 4.5485070538692 15.107810088250236 18.65748456270491 0 0 0
400 1 4 0.0265 3.763222336807369 19.543301586205438 13.367107297550032 0 -1 0
410 1 5 0.053 4.536742251662256 17.046372771058202 12.50819428144544 0 -1 0
408 1 5 0.053 5.416412101787163 18.57898288627748 12.233409870801273 0 -1 0
86 2 2 0.08 4.220894081311762 13.053554277619888 18.087900823723345 0 0 0
402 1 10 -0.1595 4.357044814214968 18.500187940177852 14.036945886293624 0 -1 0
543 1 11 -0.5571 7.333277193307837 18.115529619783736 13.979300120353587 0 -1 0
544 1 1 -0.0233 7.078455757353945 16.25099374694694 12.298610068721182 0 -1 0
538 1 5 0.053 6.1179225442883265 16.540182527678805 14.27140257567771 0 -1 0
548 1 5 0.053 8.170191432231036 15.978426289956543 12.497317485671475 0 -1 0
405 1 2 0.08 6.40728231100379 17.119539206549447 13.430994813533001 0 -1 0
59 1 10 -0.1595 6.524192487203398 12.224959849613125 15.457598603407645 0 0 -1
406 1 1 0.027 5.145106477984746 17.813645943863314 12.974949899518714 0 -1 0
561 2 1 0.027 2.6943714723940078 13.136668473240974 18.36078974455701 0 0 0
88 2 5 0.053 4.342030316733597 13.281711875929801 17.019737437815067 0 0 0
79 1 2 0.08 5.404896119302937 13.110057593581802 13.374864094115809 0 0 -1
51 1 5 0.1268 8.579426523646525 12.460525558922999 17.275922890415956 0 0 -1
77 1 11 -0.5571 4.362189115587478 13.9546136188452 13.99629807700513 0 0 -1
76 1 5 0.053 6.9165850325966876 14.515859980089365 14.106625406777423 0 0 -1
82 2 5 0.053 5.992898374498936 14.158154250050702 18.299830594762774 0 0 0
84 2 1 -0.0233 5.019034441155054 14.121305296186604 18.809108694101077 0 0 0
27 1 5 0.1268 2.0545332595868677 13.353961320726722 12.626151587730684 1 -1 1
199 2 9 -0.266 7.9219006057007215 16.956902639143276 16.642093105449277 -1 0 0
81 1 5 0.053 4.947034567659584 12.811557692982284 12.390109082647925 0 0 -1
197 2 3 0.08 8.409451122874886 15.79349606588708 17.30594894358006 -1 0 0
78 1 1 -0.0233 6.638425475114503 13.991680815880462 13.20891975704418 0 0 -1
80 1 5 0.053 7.576865171894622 13.35536957641344 13.118297386488814 0 0 -1
542 1 8 -0.1654 6.493465595690914 14.960659500477124 12.042755619272755 0 0 0
558 2 10 -0.1595 2.095491115886101 14.190137495742603 17.659845748667905 0 0 0
196 2 1 0.027 8.156277587160437 17.000218142511848 18.022373948152854 -1 0 0
194 2 5 0.053 8.849783894806732 17.719223915474963 18.43719765156409 -1 0 0
147 1 5 0.1268 2.801072342288879 11.353973714577602 11.686546696635379 1 -1 1
200 2 5 0.053 7.7122606302601175 14.948257460479372 17.398881766985618 -1 0 0
195 2 1 0.027 9.78527343021787 15.185064171676675 16.834865987870852 -1 0 0
496 1 5 0.1268 2.9719548207473747 18.390438869509296 17.86501123629128 1 -1 0
25 1 4 -0.1268 1.6861747228256208 13.154098430566266 11.621689403718289 1 -1 1
498 1 4 -0.1268 1.9647217314847225 18.277248511319947 17.546610830480923 1 -1 0
396 1 5 0.1268 2.5066923513611905 18.149110681878426 12.29828974492862 0 -1 0
497 1 4 -0.1268 1.5701629808329025 18.956584441767177 16.436115067854995 1 -1 0
536 2 5 0.1268 19.71112256112216 15.707315688597093 15.483334287387473 -1 0 0
398 2 5 0.053 9.629640493360098 14.55743666997362 15.904817391722357 -1 0 0
420 1 5 0.1268 10.423535207386829 16.641967597628174 13.231015880689553 0 0 0
163 2 5 0.053 10.04920439383846 14.422234573715405 17.58094780644597 -1 0 0
69 1 1 -0.159 7.556663842243011 12.285281555556491 10.909975262566375 0 0 0
65 1 4 0 6.27666096743874 14.499506347548893 10.594474923851884 0 0 0
537 2 5 0.053 2.4129002975715528 13.0249954536417 19.460080803774154 0 0 0
264 1 5 0.053 11.493147914097904 13.644324994689583 18.90855496379026 0 0 -1
33 1 4 -0.1268 17.95101954970285 17.70114464891595 10.770817243798305 0 -1 1
217 1 4 -0.1268 12.957137139666328 18.13377626360041 10.686064490173253 0 0 0
102 1 5 0.053 16.520969762550354 11.9487736670086 19.347447474130362 0 0 -1
551 2 5 0.1268 18.31174574013764 12.327313562909518 17.949898557083735 -1 0 0
462 1 4 0.0265 10.842174408603553 18.272173615600664 11.833185204829302 0 0 0
421 1 4 -0.1268 11.105956142878377 17.040868343947807 12.523586436036044 0 0 0
557 2 4 -0.1268 17.811633828946114 14.90964081255831 15.063247641100828 -1 0 0
263 1 1 -0.159 12.07385402988253 12.731977439384929 19.092870134710182 0 0 -1
221 1 5 0.053 15.229139720376297 17.018775510896038 10.599872246286376 0 0 0
259 1 5 0.053 11.593994091004213 11.922623232318065 18.436566260086707 0 0 -1
293 1 5 0.053 18.32593416999616 19.518072811918714 13.863014705978198 0 -1 0
338 1 5 0.053 16.344991721776626 10.637765208329899 13.586211752018048 -1 0 0
436 2 4 0 14.399027029370934 14.458724181930695 15.035999684887726 -1 0 0
337 1 1 -0.106 17.005364341541593 10.720684253604116 12.705071166221423 -1 0 0
343 1 4 -0.1268 19.1261692564114 10.713999879606046 14.116501013655158 -1 0 0
422 1 5 0.1268 12.419660376621383 15.273162246370747 12.521354456749936 0 0 0
219 1 1 -0.106 14.534979569127731 16.256002998345338 11.004534478519362 0 0 0
439 2 4 -0.1268 13.2878221006827 13.649093672443362 15.193534844004661 -1 0 0
255 1 4 -0.1268 11.749303972776575 18.765846140295828 10.918315267670085 0 0 0
560 2 4 -0.1268 19.04171398590062 14.89486540275634 15.75851397935855 -1 0 0
556 2 4 0.0265 19.235900381567077 14.110451861216925 16.866174235525932 -1 0 0
296 1 5 0.1268 16.164388995456548 18.457609420037286 13.831196211251601 0 -1 0
441 2 5 0.1268 13.377945247268988 12.674711037351878 14.732061401648785 -1 0 0
578 2 4 -0.1268 11.636532034054445 11.582157323420045 11.915022754489392 0 0 0
336 1 5 0.053 17.098410615359363 11.831035445216179 12.551334814074744 -1 0 0
62 1 5 0.053 14.019609310391475 18.0626302259528 19.065333385938253 0 0 -1
438 2 4 -0.1268 13.117581340880628 16.361514186055576 15.779750292568131 -1 0 0
34 1 5 0.053 19.569263061491817 15.7760270333741 12.339725522381409 0 -1 1
262 1 1 -0.106 13.552829308165235 12.915309676871573 18.842940075245096 0 0 -1
215 1 5 0.1268 15.786061154562304 13.996557102111097 11.047626464568078 0 0 0
29 1 4 0 19.222889726331317 14.066678982521786 10.935800366652145 0 -1 1
437 2 5 0.1268 13.030433807330592 17.40943559481608 16.112760404731496 -1 0 0
298 1 4 -0.1268 15.774507624443302 19.42369252472934 14.178195745519217 0 -1 0
442 2 4 0.0265 12.043383504920543 15.526209688075722 16.069347475983616 -1 0 0
500 1 4 0.0265 19.380771812218768 17.56769295810588 18.292530022335114 0 -1 0
454 2 5 0.1268 11.905765085497025 11.142376521478871 16.37356590342177 0 0 0
427 1 5 0.053 14.988507426055861 15.98990263120829 12.005089256988985 0 0 0
553 2 4 -0.1268 17.04855949335731 13.112859819952792 16.393902912613413 -1 0 0
339 1 5 0.1268 18.811038762561417 11.739611203190393 14.4252981215616 -1 0 0
555 2 4 0 16.811702518624887 13.95512364076472 15.310866593452891 -1 0 0
429 2 5 0.053 15.560510445459247 12.851848408059976 14.098999741099716 -1 0 0
36 1 5 0.1268 17.4454953149557 17.804398088515526 11.719993643585601 0 -1 1
434 2 1 -0.106 15.593098208440946 13.855104156891011 14.411588508489597 -1 0 0
266 1 5 0.1268 13.283774321447833 15.45733083492197 18.659599145761945 0 0 -1
31 1 1 -0.106 18.827046938485537 15.446250661447698 11.534128827454275 0 -1 1
505 1 5 0.1268 17.356591832117914 16.934299113790065 18.51451761360176 0 -1 0
431 2 5 0.053 15.748872012337536 14.333128676496584 13.449311520496403 -1 0 0
393 2 4 -0.1268 12.135667536687581 14.119518076110678 15.73949842254267 -1 0 0
268 1 4 -0.1268 13.993605916584878 15.237333773984895 19.45961120578196 0 0 -1
424 1 4 0 13.223058983964851 16.918646657287837 11.314712499938079 0 0 0
433 2 5 0.1268 15.097766334199175 16.51475879755524 15.137909897683283 -1 0 0
423 1 4 -0.1268 12.24855604150943 16.33630830887297 12.144920216489913 0 0 0
260 1 5 0.053 13.805520214082964 12.862014506988418 17.786177400292438 0 0 -1
395 2 5 0.1268 11.279592221132576 13.440526868961229 15.857427716335092 -1 0 0
261 1 5 0.053 14.097997288121888 11.922674439542638 19.024958995297546 0 0 -1
579 2 5 0.1268 12.074546950803986 12.321279183846764 12.593196391757663 0 0 0
550 2 5 0.1268 16.21396417365233 12.500108175682007 16.64888197464323 -1 0 0
502 1 4 -0.1268 17.632392377778316 18.275334887300595 16.88044831574846 0 -1 0
300 1 5 0.1268 13.754449074525555 18.94234848445454 13.695504830331481 0 -1 0
394 2 10 -0.1595 10.907021974693826 16.033233946447535 16.588880644459266 -1 0 0
554 2 4 -0.1268 18.209391659131015 13.118294595856822 17.16227229738488 -1 0 0
440 2 5 0.1268 17.614453289062347 15.618818708183293 14.252261808953039 -1 0 0
499 1 4 0 18.522944013570886 18.960900775384204 16.033465457023915 0 -1 0
463 1 5 0.1268 16.591398031039127 18.293097080013915 16.595581319335203 0 -1 0
35 1 5 0.053 17.827147757445807 15.360528671635569 11.984958960421057 0 -1 1
435 2 4 -0.1268 14.284443712197975 15.845546512490515 15.240153521349816 -1 0 0
98 1 5 0.053 5.620965374483215 17.268902750104587 10.614658101765562 0 0 0
481 1 5 0.1268 9.45072089903658 5.396383760814351 19.66531511723528 1 1 0

Velocities

447 -0.0016469612517336955 0.0028247274575942606 0.008227479055812309
351 -0.0009338406965808566 0.007640703167379789 0.00270057907622002
448 -0.03664143587160382 -0.018792198882059814 -0.024002931236076518
446 -0.01715259283920644 0.0025395751699196206 0.005347385454117181
285 0.010874392085024342 -0.0021906042514389574 -0.0016080406725633722
286 -0.006094597109928869 0.03832939014141501 -0.022447973018885202
349 0.004012105040465234 3.8851317918284754e-05 0.010435486143452275
345 -0.0034604102409524773 0.0011115832223749953 0.004138954235013793
47 -0.005127643552807312 0.00044573359247346837 0.004740986797751424
45 -0.005781346278195061 0.0009999196050649462 0.0039583531144966365
49 -0.006919887508748266 0.0016185125832689142 -0.004695899756569423
344 0.008697547289257136 0.0024189733045960047 -0.003163828616545462
347 0.0005358836533254185 -0.008744367276451453 -0.001665465273046742
403 -0.0009645648022048151 -0.007598155002265522 -0.0069662916002162355
341 0.01536677264084147 -0.02182693572491285 0.008104791505037972
165 0.004569350737700538 -0.0019319987118542304 -0.0073249223269187275
174 0.003426725298362532 -0.009051106807450141 -0.0019616132650397697
356 0.007392161013044023 -0.002830625060849493 -0.0023740227000582227
354 0.003712940512023995 0.004436365267463604 -0.009177070189826534
346 0.020330949596235777 0.009896163966999187 -0.008071725354613545
283 -0.00026615679846713543 -0.005851904570805236 0.005173042729873809
340 -0.002146238828215639 -0.016817319046948366 -0.0037954810901538885
407 0.022854659435997623 -0.004767852718621045 0.007566206600799384
401 0.010741158967948394 0.005528719634746596 0.003577617410060335
177 -0.00025879421826529073 0.00016689586354796173 0.0032388008697181855
162 -0.0031046108693253915 0.006666262507932483 -0.0022140404880784128
50 0.02520597321644463 0.0025852399562106194 0.01308103880461032
140 -0.001988379617066386 -0.002415373146433644 0.0034648826265897105
138 -0.01292807890298431 -0.0019179367759423905 0.004617175901673665
124 -0.007625133695072638 -0.0016274898910396038 -0.003298479037788212
159 0.004367594679120981 -0.008756922137274714 -0.01917045564874524
281 0.0011548304505877428 -9.982431354682103e-05 0.000878703849182462
166 -0.002205715177808723 0.0036617474419275457 0.021368312633078385
164 -0.0032812776690249127 0.013893796231272881 0.023547183745307423
533 -0.009425929921898581 0.015780858403359115 -0.0163010241956
359 -0.009228034275062164 -0.026040450865131345 -0.013673409777565627
357 -0.004586992261535247 -0.0032349928447723522 0.0001535721064768693
173 -0.0005608798490161107 -0.0075995660955958085 -0.0033971953367717845
161 0.020900775774254973 -0.012870675839205023 0.011007230395869903
160 -0.01131115761920868 0.003274622119838248 0.004058664829407641
171 0.005546277834155583 0.04504118508482888 0.002249411945957392
167 -0.00261642046139747 0.012313340268546517 0.03388476809812841
56 0.0032876939950097816 -0.007313866138098227 0.0018064740908503483
15 -0.0017501131623891652 -0.004483106530478913 -0.002854579269041021
450 -0.0041117792618886135 -0.006444856390572732 -0.006205957632494518
41 0.004112369058831439 -0.0006542480052288232 0.0024894772983537292
257 -0.0012883967303260293 0.0021377467729926615 0.004918005176106683
399 0.03168792167154514 0.013095377337417934 0.005300550761674955
127 -0.01677065308906902 -0.006731704633019271 -0.0284092785746612
142 0.0005671693294421992 0.0029278813814533327 -0.0025055048125888456
176 0.001525854186274056 -0.009254488836848502 -0.0048173803370211606
57 0.0044897835382727794 0.0029917474403767883 -0.002240835443081126
508 -0.00887488297707359 -0.012918284675417311 -0.003567425372199749
73 0.028156817927041028 -0.013617867969430729 0.018694287557384046
258 -0.002872789706380622 0.026699955391097506 0.023015831721683585
42 -0.018358784963252228 0.0028882651181687674 -0.017499676897082365
452 0.00878321193950533 0.019094351794316403 0.005083705336725546
18 -0.012726813610738295 -0.010660139718129128 -0.017846337120718966
288 0.0151648787796889 0.01782974911405005 -0.03128331445093813
141 -0.014604732546609859 -0.02834959795074604 -0.01817896217040281
179 0.002682704438660449 0.003855098018181561 -0.007331172656490042
168 0.0048736782522776625 0.0013688657230356152 -0.008634797975835405
169 -0.003731980565922918 0.0012756632008985717 -0.006897641065739503
39 -0.0012764572549965776 0.0038618256716154873 -0.0030879568769120406
172 0.023677741388386412 0.013129442683434396 0.005126452856880477
43 -0.0013892714970860393 -0.005092747692470979 0.0003139716630144459
361 0.00617795790717266 -0.00420436566571311 -0.002539172126311713
279 -0.032602564375343514 -0.02394728283130007 0.01547190481137353
143 0.002429280861770713 0.001045360657021705 0.006639721153710099
120 -0.01008890505171194 -0.046490024556104646 0.0031820181465285076
40 0.007953258440403876 -0.0013167691188010376 0.0043421866340342015
287 0.0008814500036089562 0.0027732548329512633 0.0005769100858121789
139 0.0016974973046739892 -0.00013671412425261275 0.009171529898395718
17 -0.005775500155199502 -0.0034886616924221328 0.002854868473275918
443 -0.0084669080617113 -0.013908177990175808 -0.017762699076553572
53 0.031180589837194933 -0.0020080298566422026 -0.004701160780612151
226 -0.0003815404500935418 -0.009850519208434055 0.001738019107700533
362 0.01248395371187515 -0.015847951299613947 -0.012058066747903665
532 0.0032771882874194982 0.00865011247048551 0.0006086378952956962
227 -0.006834829264900872 0.016638211813558974 -0.02768968385787789
453 0.007038613349823207 0.004275267389312283 0.0023484173728819248
449 -0.0006026414748881241 -0.007513117176168985 -0.004010036636816093
472 0.0014231246764061256 0.006186526742072198 -0.005364582762142273
132 0.013693794464959292 0.005909603310385324 -0.015003089102139044
459 -0.02464989662093687 0.0033718448822747616 0.0035952114613674543
531 -0.004780522772638951 -0.0038093356977855473 0.004088772901643255
527 0.00018152544222014706 0.0016699925195583305 -0.004388618566154476
360 -0.03649191072594826 0.0026047604231770314 -0.026137356905301543
180 0.006442870524165594 0.002655287101290703 -0.0071641041894941965
282 0.0013161075295221533 -0.0025633202045830697 0.005897321759131487
363 0.011740910742019252 0.00011120737425048335 -0.0072515893183218525
13 0.0011037715063392343 -0.003000678402131568 -0.00476687169795215
490 0.0052933237836013045 0.0005654620330395219 -0.005546288106653333
289 -0.01806977161117132 0.019661224954123493 -0.015333264322818885
280 -0.0046923477163411205 0.0003303146581656893 2.7721257627589624e-06
230 -0.002543150707685053 -0.007010044364904265 -0.00026444158865290086
222 -0.0030167232080057045 -0.009520839291181273 0.00962769065153664
493 0.013776384948006381 0.03557891730301731 0.02305277448609716
223 -0.006297404707005482 0.0001208398315708553 0.0022928916029961617
224 -0.0025856284371657385 0.01165984467774174 -0.021562766175127923
130 -6.360761478251585e-06 0.008734036520749293 0.0011679013288454015
486 -0.0009107890376371421 0.005325798365058831 -0.0006505678030558138
291 0.0003207094750741305 -0.0017235077743281307 0.00838756547294946
294 0.0003221700781505741 -0.0022500127029969966 -0.004160799566742185
249 -0.002170926625905482 0.016054151131321363 -0.010494651009447237
271 0.023832160865764205 -0.00917598230211357 -0.011029584192520089
278 0.0034523442090966224 0.00028638604198977143 0.0027458088067739157
277 0.008358355932579288 -0.00045228574592090807 0.002192139308074447
529 -0.014788981686529395 0.015515361826711455 -0.005313614908300249
507 -0.029272666290434287 -0.015064931570152729 -0.0040563978792659775
528 -0.0033298817900558504 0.0005315817472784542 0.0019288172284710411
269 -0.000984962869098598 0.0025296307592590577 0.003255686400719569
270 -0.009635239584843023 0.0032249513146515607 -0.02621292003599874
116 0.0001009602434033647 0.0008503212993351237 0.0068279811548915305
115 0.00282001109610948 0.01328527764973858 -0.01576095915144417
157 -0.0010320480914001323 0.015221781983462433 -0.011276494401235902
276 -0.002403389017730785 0.011182626810146574 0.0035971338144474897
355 0.0021546796008676296 -0.03214248143274308 1.8850843805634243e-06
432 0.008106553124343783 -0.013440934142041585 0.047660199280184445
113 0.005182428082338469 -0.0018934226072737604 -0.0035693906173982345
117 0.02810321166342061 0.03216043751544049 -0.0002501285011684061
274 0.0023057929609335754 0.006246868804041941 -0.008239646560386149
158 0.012793509316009942 -0.022798907432638158 0.0029781725879953866
193 0.005679602284325115 0.00976473037400101 0.004251406189706612
275 -0.01720566302505102 -0.01165303487964527 -0.006938836782959843
379 -0.006635285981192677 -0.002411756154798585 -0.004756601733756662
273 -0.024089683129677263 0.018745675878018297 0.020426647942723357
428 -0.0028568521045300027 0.022679617128821074 0.01423830152236207
430 0.003646261825358081 0.0007275617123404304 0.003275710386970997
378 -0.026912129739016678 -0.002793624916428379 -0.0040602921010576675
380 -0.001494508710129558 -0.003885867293429876 0.002527682976582646
384 -0.004437467480554711 -0.0006444536192399428 -0.00019091321186196945
388 -0.00047679386258273705 -0.0029400231722451907 0.003584532192115066
387 -0.0034588841139898767 0.02022777168239187 0.008178615746562465
248 -0.00037183993951784146 0.027668721408577894 0.001520520540705908
128 -0.000178207562328288 -0.004729080592235382 0.002697462579513393
126 0.005827040733925393 -0.002931472482435077 0.0011739316760557739
12 -0.002117246868620435 0.000842414863780318 0.0001045607913305163
297 -0.014173698558270578 -0.0031664515978573563 0.005405778983398061
129 0.0002570767083307396 0.0023580402864189455 -0.004498051783415463
370 5.004252775310906e-05 -0.0031844446354498484 -0.003365949029157867
37 -0.016410307733164303 -0.019084981222510886 -0.006376613281010177
251 0.0031485199491379594 0.0019356269688313385 -0.011340599543825812
483 -0.04440119756918746 0.00554823819398815 0.02480878752939907
14 0.004602162305340107 0.004510150511923633 0.006350780776618427
9 0.003461241668260268 -0.0014688949815706003 -0.005220986402235713
492 -0.0040030331816461335 -0.006794025613045802 -0.010961983556794681
494 -0.0016072244360304895 0.004745655108096185 -0.0005892664947689514
574 0.010303053294529005 -0.007276061105772957 0.00048694791725681206
11 0.0013993017711554274 0.0023301299236444324 0.002546302793959286
474 -0.014054772595350583 0.0015574865633700833 -0.03240057493461459
118 -0.001141714058966964 0.0026402108209493836 -0.007262025760394237
234 0.0041847516697462355 0.003009370865995722 -0.007678766554519901
232 0.003646527906466436 -0.0008206114710300978 -0.001919695318286134
10 0.01969080776551394 -0.0055614109419047115 0.018770617813602394
386 0.0008618532756195832 -0.002943175393729888 0.0009248783665693427
392 -0.003378580653626786 -0.013182249375224372 0.0024376118104997126
329 -0.02342396467372176 -0.008092004790785142 0.010314891673745913
93 -0.013419121937027838 0.022814274005979508 0.010962883660845791
335 -0.012510783041719549 -0.01890832715342531 0.012750173458726647
425 0.0077676093706484615 -0.0032584801867462368 0.0011117454667423656
131 0.0036820404435790937 0.002447368371459347 0.003533108966069559
153 -0.049902770355822794 -0.023015199625345574 -0.009488327400950684
48 -0.005228677665010387 0.022076853361270927 -0.00873034881780578
464 -0.01919042554171006 0.012787715145854075 -0.00353490775876646
63 -0.0018870099706407263 -0.009102221633272426 0.0002307818499517171
150 0.00012984322502939476 0.02086150664432005 0.029463472066140778
509 -0.027321459722837418 0.005813148823615193 -0.0028168183232035334
324 0.008719154593120629 0.0006548334857091247 -0.0002491324382429998
72 0.00015337527336345478 -4.273253679805229e-05 0.0024720035377863193
74 0.01615121309583749 0.018261131706636846 0.00028134094965293256
511 0.026639720659338423 0.013435701790355411 0.006016447658684103
539 0.011506440404758435 0.013001495707330902 0.007778591313686864
572 -0.016257179427392535 -0.011420497727102559 -0.025694113762355076
323 0.00023064743773877966 -0.00482509089366504 0.004077144195872001
545 0.0023800618857290064 -0.006082463429484879 -0.002343900201788619
152 0.0054201493585270795 0.006746776077383218 -0.006536185735681256
70 -0.0037340716430121217 -0.0009539537661681834 -0.0020803815038854213
66 -0.011693663574438197 0.008512399218164558 -0.0005710247145973271
68 0.0037843554999786987 -0.001426169521805052 -0.0038680025868060765
327 0.0032349772510962753 -0.0027993903694474446 0.001654205591048008
322 -0.0038664520422914163 -0.005457014943779742 0.0013001084034233847
320 -0.0007218531509139478 -0.008915959128705141 -0.004254172283307287
325 -0.005149119748454915 -0.004410934159558586 0.0012518053824238362
326 0.0012842856432016938 -0.00495496531070037 0.005610547424798662
569 -0.0029605267670006043 -0.00831625120931341 -0.0014724689453978444
100 0.020531969612536245 0.014037120017137425 0.028837148984412714
71 -0.001180352762969506 0.006388705712261642 0.0001575388639317619
204 0.003321799533439466 0.0007310835629474677 -0.0028492992820510136
75 -0.017282445681300256 0.011865354413174134 0.01503844634744539
101 -0.021556619579036648 -0.018887986814474407 -0.0010725133652547858
321 0.0003017012340781196 0.0034090943599492268 0.004328069253918325
156 -0.02003869698504272 -0.006545549145707002 0.026450602432635455
576 0.017512525181729483 0.020012892892192713 -0.0033692684629350687
510 -0.0016636502640827752 -0.003941480029426263 -0.0024977453410375285
583 -0.01787673393838069 -0.01309348478706927 0.0018824105057410098
203 0.006233465510317804 0.0011062982621748818 -0.012713198139941958
451 0.002914518390009811 0.005370818816729221 -0.00399285873119472
205 -0.01991242894546317 0.019137197089832365 0.03095325189874897
202 -0.014201400403479466 -0.016879370256935356 -0.0020773523152724177
570 -0.028471387722116038 0.01827239016921633 -0.012472227402696233
328 -0.00032789678882633676 -0.010599643347592998 0.00463123014144684
383 -0.0057894224974041454 0.005874694740831484 -0.005159309633636306
319 -0.011235202792546632 0.003711895734697917 0.004592885676498364
381 0.0008937305264779642 -0.012901899048125545 -0.0028229933901854397
154 -0.002582504149136056 -0.007950334153527187 0.0038081463191837403
512 0.014801210101951795 -0.01759919617137932 -0.029821064025866977
64 0.006301559897474201 0.009605253751960861 0.000654756512824151
567 -0.009744074345328653 0.021259806398364046 -0.0005348385340224933
571 -0.00417197258539234 -0.0023379352305751664 -0.002403262680444103
67 0.00263923995158022 0.0028119239072256948 9.872662906710111e-05
546 0.003266492387336263 -0.004054279599009844 0.027092130725761162
317 -0.0002678510078735153 -0.0010335909803786622 0.009199702978514959
146 0.0010795798006822334 0.0015902357987682349 -0.003742367759853738
385 0.002506128454731419 0.014756908489150683 0.013287730225467786
566 0.0015686023185242474 0.016167188791858123 0.006161506282570635
151 0.03697461366640071 -0.023020042680101258 -0.031234412749153534
489 0.004514470540356499 -0.021507101490561592 0.01208562056766557
389 0.020764805811681643 -0.0011678941748865291 0.015826632531591178
530 0.0026215800269183383 0.024055215016212803 -0.001322429054540341
21 0.014984689635151626 -0.017320261782353578 -0.019279897739905565
20 -0.03399819519995791 -0.01466420799043041 0.023784049834005182
22 -0.00028312038129912437 -0.0016838316099118803 0.00017909638727054369
23 -0.000342870414690129 -0.004211059694588917 -0.011052099134901676
316 0.01891358344537578 -0.031797849920872194 -0.005000894528843889
564 -0.0019248450270007522 -0.005182165775388885 0.0029303518945661693
332 0.0026883274838225995 0.0028492187514031994 -0.0059882289823941035
465 -0.01838731039986215 -0.013391937745653483 0.0023423849010868734
256 -0.02396084750231473 0.012627063910363716 -0.01646625456511471
89 -0.00035548907538209733 0.00042725294439150443 0.007273498983527954
16 -0.004131750136137021 0.0022674724755438512 -0.014738346846461284
111 -0.00037126250640644474 -0.0018475004551390137 -0.0018976787643782906
110 -0.0009445565615797403 0.0023954401243223107 0.022886646921669182
577 0.004678216345539617 0.0025426103907733185 0.007830316321055276
568 -0.0050614486120514855 -0.004051658477713026 0.0008981707598159696
85 -0.0049570072961383225 0.0008603464076204335 -0.013082120548153048
225 0.020723493194517943 -0.005046944749736135 0.003171376116011976
218 -0.003429567235083915 0.01182810959355446 -0.006653783782007491
112 0.007125811367087454 -0.0033913031091708933 0.00743688929990018
220 -0.019464989287415618 -0.0014884572371564818 0.004110733081426062
184 0.03701430926363839 0.01252954623411646 -0.014538234710002537
373 0.0018022796602086704 0.027958667283528017 0.019120814231845078
372 -0.005913803827340119 0.007048727433226309 -0.003258874555981561
155 -0.0005706383796559084 -0.003545224606350571 -0.008018873612019943
83 0.025375322386217883 -0.034907776925022255 0.02444575163513647
107 -0.011604056358983724 -0.00328673311423958 -0.010274057862152049
104 0.02563095736615335 -0.02225580333347848 -9.762609401502846e-05
375 -0.011876934227951668 0.04051672261393487 0.002351667945428258
506 0.03699695891781821 0.016385767495667145 0.002847489739675344
26 -0.0034425816890954024 0.00043290955284448627 0.003427602214480478
582 -0.0550680593427105 -0.02104577606079323 -0.007324895672173786
32 0.0010535564818365028 0.004134631532338517 -0.002787200672502374
534 -0.005579381850284142 0.0006876235480663529 -0.0032928491448579542
6 0.009093933511587627 -0.0024348813910600488 0.0024569104393135266
216 0.00351225023391582 -0.001077736810190185 0.0014866639474754987
2 -0.017465578066450497 0.002117604976545388 0.02447123275831752
368 -0.006296123056067969 0.004555170858944035 0.005442484821282742
91 0.002514732695143354 0.0017237740124057973 -0.0071142074501185214
374 -0.003522340659335031 -1.8358048354226787e-05 0.0009329348987247777
366 -0.03533526969157258 -0.008577888319289479 -0.00783502862466296
367 -0.008565299560477935 0.001997260641654692 0.006030093702774533
145 -0.03491277330663922 -0.013825448304903632 0.01350996293140695
106 -0.006335052806798041 -0.014581332498502717 0.013791595210169994
24 -0.003979989121681006 0.0031903327212701007 -0.0031042270368786167
38 -0.03391800168789707 0.010104249656112875 -0.02246687854203467
535 0.0032025767142071955 0.008587865463542062 -0.011436975621977074
565 -0.014219696351076547 0.016317713522016813 -0.022416445714124045
365 -0.00349067464595886 -0.014944027274345883 -6.543031591259085e-05
188 0.001086716623614894 -0.002235440804547347 0.010595420797709337
96 0.001847056744338465 -0.03151457912733207 0.022387772364406856
19 0.005185542554299933 -0.018986023564900232 0.033473198377717533
108 0.0014731270449774411 0.0024927439793766227 0.0009522172666336171
97 0.013379424502001577 0.005502108196243191 0.014862666543315715
265 -0.016797690821023954 0.008681941446628809 0.010007716266233405
5 0.006963347277690435 0.005704259393775304 -0.0011240434390617508
371 -0.005756194642364463 -0.0010307261196869414 0.0042770463894781265
28 -0.005426352559584346 -0.011706879315421592 0.001552290649630239
3 0.005661887760335251 0.006174166226010472 -0.0019028999707900597
504 0.00047050566790030616 0.0061861103089590926 3.908162175476345e-05
575 -0.009496657969503523 0.0001903841264205137 0.000541408917409492
103 -0.0036017213603565554 0.005142019710138188 -0.030513537062605497
94 -0.016501233929874508 0.01746304671699959 -0.021765270898830468
105 -0.002369252402976315 -0.0029066124209302098 -0.003801181774977404
426 0.011771864372746582 0.0012356055593990872 -0.0019714068165883405
95 0.0025895321345229755 -0.0005559033210357232 0.004021994947118738
4 0.0032112594929254944 -0.0031897877101561027 0.00471788534654207
1 -0.0014083758569522877 -0.002026933352556571 -0.00022403153733570493
148 0.005704872952029037 0.0047617556022717345 0.0011982600003851507
376 0.008158561350794947 0.002383285010302508 0.0016413124517379565
364 0.0009226218401199341 -0.009207810640154135 9.83382867138902e-05
573 -0.002871413615954444 0.0027331112487231192 -0.0030721617452265774
250 0.003332131448389535 -0.004171178101121544 0.012244407536872885
7 0.01772047461209563 -0.026903935332401274 -0.0040153117413826425
99 -0.007075337928696858 0.002502645320133794 -0.021752172619000386
109 0.004294892180952635 -0.0024339036208826112 -0.0009204320265586456
92 0.00031191928836694606 -0.0008428049594801135 -0.00020535189124897408
8 0.00316251835481257 0.0010861924486513617 -0.000316675182538361
369 -0.0012197516668706978 0.00020784227185646195 -0.0003511533110191358
484 -0.0004318561029001976 -0.0001613510529383507 0.005974213648489578
382 -0.00026947334038573544 -0.018245502557572364 -0.0034511947367313078
30 0.004786692257500492 0.0035354032467586763 -3.528502608085678e-05
485 -0.011897197260631175 0.026728934386766764 -0.0055555256849777615
134 0.002022609118249311 0.003600997945038151 -0.010996337330499234
584 0.0024708982869688922 -0.012845109815063139 -0.015947023886626575
470 -0.008037714436895486 0.0006525594192417066 0.00734620075023508
585 0.002669198997594932 -0.011608697801724134 -0.00825354954533434
468 0.012415039232041486 0.02231792606409335 0.020108683973397466
519 -0.00013938012759810738 -0.0016780351976948156 -3.4637256968781906e-05
469 0.005627138513404541 -0.0033587844504015347 0.0015321032345538834
237 -0.018012052168415307 -0.020686940949330525 -0.012896106937431246
231 0.0007087877567238507 -0.009990775605964572 -0.002753815074613641
358 -0.01001678519542318 0.002532473342973316 0.0007437924412945129
521 -0.006145491721913515 -0.006012486345117224 0.0047689287984281695
520 0.002090653734974783 -0.007891383590484411 0.0003643466598893788
192 -0.00907572469732953 -0.01966662203801974 -0.002974643115554436
353 0.0009340363676252904 -0.0038501727265326433 -0.0021556492058112013
524 0.0017332510949155538 0.015806814421036534 0.0006349543353748519
518 0.015616842218658283 0.012750483182922386 0.013175666693280564
525 0.003624748301301162 -0.010892258635177324 -0.018126365086559015
523 -0.0011357488101190398 -0.0024741330215574705 -0.004951081326902109
201 0.0020564040198148897 0.0032608380646282657 -0.006426281468532341
170 0.02057524223668591 -0.008451794675011516 0.007636570700922012
243 -0.0035418865817332884 -0.004531162186156074 -0.005266557925817276
522 -0.008975505451380116 0.029362498423089627 -0.013211160436829517
526 0.027126449834247484 0.04411937539815709 -0.020394411451950298
247 -0.0018460868729836366 -0.0026300492976411064 0.0018369972567354993
190 -0.0028177241342417407 0.008437263380346553 -0.00012869414421173652
61 0.003711481929165148 0.007249205197365836 -0.030290733236406308
186 -0.0059693803707437125 -0.006311811860430354 0.0035893064888618256
60 0.007108072852103706 0.001501164439920701 -0.004842342152692883
228 0.011617733045192286 0.02803451661171213 -0.009492024728097005
229 -0.00171896947591046 -0.004162145721195662 0.0018620638877485855
242 -0.004946822842236497 0.007487851598307529 -0.010187661848096198
253 0.018784593943867355 0.036939246532856865 -0.0034612607780116814
480 0.002884901863756603 -0.0030714355447964974 0.005350598438947831
314 0.021692726455197972 0.007068630220737431 0.007107941398506927
478 0.0012024960558848724 0.003647961225196672 0.002584040248690536
476 -0.006215864192633193 -0.018590685971066504 -0.013211056719315432
182 0.00023065606534982314 0.0042779627916845 0.006031617486343544
331 -0.00210352057903752 -0.002815203597166778 -0.004414941993433456
311 -0.003181728859284036 -0.005820955029701165 -0.008294828180758263
516 0.002106954475945151 -0.0007674308103466122 0.0002032608362719608
475 0.002939209503096367 0.005194841016990209 -0.002942229524976538
187 0.002338145646142438 -0.0008022380551663355 -0.001256458002603713
183 -0.009155972065083272 0.014278978521511432 0.037394649177833736
252 0.0018703787553732308 0.005641093245559405 -0.005555180635254373
330 0.011143975284125467 -0.0043922859979710314 0.016693961399350078
513 -0.017628528337823825 -0.018341272446060455 0.014554016297300477
333 0.012689770939852778 -0.004347566312596504 0.0009307218543328923
515 0.0021919769540642065 0.006734540596659235 0.0005507746804903387
477 -0.0036312866434057888 -0.0007794423521464349 0.00020998033083200255
549 0.009337677407872013 0.012407626717652075 0.024635240007039687
457 -0.0009693949724615127 0.011659387422428388 0.004596325573032699
456 0.006553857302003134 -0.005420705850596473 0.0018023817712308778
445 0.0031460197470153605 0.0042514548663832455 -0.0033015127616607964
479 0.003697692986930476 -0.004909327524849397 0.007116725598944356
290 0.006956236927876888 0.018887222808141188 -0.0012141020713201018
144 -0.032338697817475594 -0.0031042047106468614 0.001515478214988777
404 0.0010972518005903892 -0.0035973746502281035 0.004603616143529668
409 0.002293720128760141 0.012311597013924487 0.01437924252420402
467 0.007276141350303694 0.00977640761251558 -0.00099994272927098
581 -0.0007758444444339208 0.009377618892447303 0.0019571321022117684
272 0.011469102408039345 0.009333065054634297 -0.01126983406778186
514 0.020428353264384642 0.0029090426294443215 0.012410324503160566
189 0.011339836252200525 -0.006635972546769076 0.0024463119037317284
246 0.015265242507410988 0.007878953425025825 0.025013812549455585
175 0.020744861636269523 -0.007402433794793116 -0.024275393879490875
562 0.004260357071170893 -0.011292551960177704 -0.0009998289702064244
315 -0.0034392767188486024 0.003629092756927852 -0.013287924790708772
178 -0.006842599318510409 -0.009876734667521998 -0.013471648545193449
244 -0.00793671891932036 0.0013522970327705306 -0.008312240936977048
245 0.010822471968390162 -0.011543557648567425 0.014025882208665068
352 -0.00041042339343993556 0.004502574453751844 0.00391003992214327
185 -0.009321826519060335 0.003020850482791377 -0.0021575520038809772
580 -0.004325637451967894 0.0021060946371395293 0.005615682650000326
482 -0.005687976575514298 -0.0026681521680878184 0.0008921165449303506
444 0.018000715906595383 0.0044843742944698 0.008853814597497067
350 0.007772078841448734 -0.0056386885146600604 -0.003421752960737007
308 -0.0055055673805635905 -0.01857784489227072 0.010565232577571927
313 -0.008267029073174472 0.0005629018005326488 0.006272134703812014
123 0.006476754251594499 0.003280639043009707 0.0011351793689443341
212 0.0006764066538415222 0.007795568591958943 0.00964188187237955
312 -0.007350010019380674 -0.007398736680135303 0.0031925234581758892
233 0.0013939165223072866 -0.0014072363286869354 0.003307786591535435
292 -0.004053192634138718 -0.008896814355530035 0.0211567915226211
473 -0.005312815411075946 0.005543820260347633 -0.00130361902640229
133 -0.013157132414165027 -0.018874525175838073 -0.002769554554371222
119 0.026474715943746754 -0.0004647871962810908 0.021072015676558902
377 0.011427249528383369 -0.0021943613606842747 0.014854071376090567
310 0.003779750195330742 0.001997772818927239 0.0017220464960630245
309 0.002489234021457607 0.01795635321128481 0.017172927116215292
210 -0.00292070190851348 -0.0010368253383177238 -0.008479122964497238
236 0.013413543858786481 0.0063045850569451245 -0.024045456768786007
471 -0.025338639310674222 0.005516345867671989 -0.006828744325764805
235 -0.0045502859878183595 -0.0064078962683489435 0.005899467629962038
466 0.004177510969283184 -0.0013590544783926644 0.008806013682841542
487 -0.0016638216764677273 0.006057324451595401 0.0064097688494879
191 0.0035676392335150815 -0.009915980632108086 0.011270093645992152
114 0.024925546483005743 0.04519091924851229 -0.033163694234592665
348 -0.0018312816566705913 -0.005699459430046946 -0.00684164384465592
136 0.007041383952222894 -0.006656405510628326 0.003901458617747782
214 -0.008965432565207893 0.02286229035268447 -0.005335294530376599
213 0.002048948604537878 -0.0006644766862891445 -0.0014139991438977535
207 -0.021041891503133632 -0.006847226307037704 0.02592602934149402
419 0.02763339310550235 -0.0031488886548475367 -0.0016532051321411698
418 0.004320579725356821 -0.0016555014356419656 -0.0037626870620391228
211 0.0008671373843099821 0.006576630522807213 0.005916427615187926
208 0.006805596656788275 -0.0015740414980916922 0.0037173083924390248
414 0.0052089925170956146 0.003266668453623218 -0.0002568556891383344
416 -0.0002798001798769259 0.003247843798072426 -0.026626916559417332
415 -0.002457073232746134 -0.0036064537163293894 -0.0021769666461561228
413 0.005870809749659524 -0.004447910267009752 -0.0027094365413270483
206 -0.011393907259062497 0.018970943125060005 -0.011093621545372254
305 0.002322292240573731 0.005852324940546482 -0.0032062912788799343
209 -0.007254035306749591 -0.015426849948853039 -0.009753056470845685
307 0.006253782456757961 0.003936948181242348 -0.017048140352419753
240 0.0026276577422003787 0.013168300486599713 0.011274976475370874
284 -0.00039291208742218433 0.002010696191929192 0.00943872094235124
239 0.0026774543519739423 -0.0014745105079049365 0.0018981661587319698
137 -0.040525035448172084 0.012260365118096602 -0.006813748783918958
306 -0.0017655514720068125 0.00577783710858076 0.0025816998273989044
304 -0.0012870383572810087 -0.007385757624350893 -0.001154289171529713
303 0.03844457074941716 0.0038270212079487354 0.027733659774939832
302 -0.0013991361855446628 0.002680725929495956 -0.001841991401151874
122 -0.01913841354090012 0.013491680117256257 -0.00016765953935198643
390 0.004629028634511923 -0.0011531125548611793 0.0007514558857418213
491 0.015460952997537124 -0.011606270862202624 -0.010227295750373677
135 -0.002254690308005752 -0.00044230265944220825 0.0026628081929848464
391 -0.015885858241332932 0.0026923318178307416 -0.011937924719825512
417 -0.0033116754908984183 -0.0005765120574247786 0.0010958748308564064
412 -0.0008127899895672181 0.0022667982204290244 -0.00034145908330140783
121 -0.0009353645904170897 0.006020728197176242 -0.0061941102229161596
238 0.005749711904566741 0.006613349105872696 -6.260956168659334e-05
458 0.006917593390766451 -0.0012325422533015784 -0.016572683484520023
87 0.007667347287286916 0.00526664473813669 0.0136187708079928
455 0.00046962444554367875 0.0017768034336864459 -0.003650795932940961
241 -0.0006386825453636314 0.002350761743529151 0.004509835893362082
342 -0.0029894258925504697 -0.0022663734410537473 0.005400542781938432
334 -0.004891000036678226 0.00014345001017108507 0.003934829908636039
299 -0.0005380777095168582 -0.002212301575970369 -0.00027432177563545637
301 -0.004942904039062023 -0.0029293234460886657 0.00710990304235066
563 0.008960566926403632 0.020699819555632312 -0.002281497143799072
125 0.0026480985586462913 -0.0006284284624980439 0.0027101754475787948
295 0.00020094555165868142 -0.005451277896194325 0.0008686915597868463
411 0.0023463337236596885 0.01778148677726512 0.01212257714102821
488 0.004477786143708594 0.0038303899292240376 -0.02803001686163178
267 0.008885677893265706 -0.009816359295012659 0.0030603078855859444
254 0.01694431930856266 0.00914102554097992 0.010332248094914004
501 -0.0057680300347736765 2.362834488709427e-05 0.0025826238653550815
503 -0.00341025906111952 -0.0010829899773652737 0.0010155555781609213
517 -0.004309952633235038 0.020045191838102418 0.005824710537867844
460 0.010804719762141632 -0.04308621189258527 -0.026662475606608876
495 -0.0253133577718054 0.018327315769047746 -0.017351436322646147
54 -0.011856428002244252 -0.004773940663410675 -0.0027852136878514
58 0.00037341368735644895 0.0011505421974463321 -0.008595070830350299
46 0.010109851198145874 0.037544060866995806 -0.0048541254549070885
149 0.00565274665580729 0.009524993684581227 0.002831533247050794
52 -0.00721833455291611 0.018115589746726276 -0.0031267207597114725
181 -0.0031746219633357903 0.006325236509956431 0.0028567598897466994
44 0.002315055877395691 0.009401917277354515 0.002159931154332507
55 0.0037917905098309537 0.003276940487730661 0.0006585474625234323
461 -0.0010973934040306617 -0.00307521290392983 0.0011803616933678833
198 -0.01161191857785107 -0.009681006453032862 -0.001346194806776574
318 0.042945376373143856 0.03925156232074179 0.005857960945796609
541 -0.012625589329322538 -0.0038652980235995876 0.016851610487757067
547 -0.012952864243004802 -0.017024226439180237 -0.00041073384517158597
559 -0.006339305475920666 -0.000736977747492862 0.0012946871000986218
397 -0.0006010619902394326 0.001611459749479299 -0.0034480458136133562
540 -0.006967027624753323 -0.011665163646926654 -0.007950517111933123
90 0.01898267009421285 -0.0069424864946941115 -0.016503577355707857
552 0.019712906459194584 -0.008982141482225021 0.01254481941413173
400 -0.004332999039219562 0.011721750795641748 0.004291611754183634
410 0.021967774412689753 -0.0044128733067921744 0.030729300374543744
408 -0.004235738945693341 -0.01589531435782979 0.019509401463850246
86 -0.0014501417816364767 -0.0012801653532165643 0.00017479739655078657
402 0.0023724769265883816 -0.0025411291097874765 0.0019995661721608623
543 -0.0028290205274534683 -0.002945294818366524 0.002203393500019126
544 0.0011826788565719821 -0.00472470464908879 0.005783038536818436
538 0.0017408538532655098 -0.015479108051896107 0.006068685496042389
548 0.004871192922009497 -0.00040821783360033784 -0.018712435274241594
405 0.0044718781179380294 -0.0007059141735837801 0.003570657392603794
59 0.0019415768736569861 0.002705761225319319 -0.0004575109304253095
406 0.0029351488815466185 0.003690702153148587 0.004162829594616509
561 -0.001553135788465381 -0.004710520766168194 -0.0029143309421488183
88 -0.005948406653971879 0.02144777287075238 0.013027987602708069
79 0.0034728614491100996 -0.001344135118479228 -0.0061054266351489046
51 0.0035705331718874156 0.028187899915685807 -0.020500782730676407
77 -0.006696810654345901 0.0020533957523211736 0.005247603827049079
76 -0.008156996192601011 -0.010577006047680153 -0.0032005943513980636
82 -0.018950691499571022 0.009959604932254406 0.016292036556456193
84 0.003985325595472538 0.008484816824791411 -0.0020257900631723935
27 -0.022526364536133044 -0.0072719792028524315 0.0021622802572977087
199 0.002862875195563378 0.001420478088419439 -0.0006551464000168399
81 -0.006624892067340612 0.008251773420967463 -0.002012148769755654
197 -0.004034065007514722 -0.0005065194176429016 -0.004379705572810733
78 -6.330102843091429e-05 0.002304788769467328 0.0009204410860548721
80 -0.008126682670524554 -0.011429956142092093 -0.02986015110261768
542 0.009168075215473503 0.0025155622490082023 -0.0030502802265964294
558 0.0030554865836749825 0.0008605892775205575 -0.008886549986968495
196 -0.00021860570199513774 0.0038659279828358252 0.0038312412713877217
194 0.01633529456325795 0.005103642326227315 0.0017408087668075837
147 -0.008012612125632375 0.010019436357669395 -0.0026359022780422497
200 -0.007069024405181678 0.0027861418966325904 -0.012266816714159592
195 0.003701480620882148 0.0024965328061417914 0.0017594706628050417
496 -0.021316826000057562 0.005311524217881873 0.014390346667926416
25 -0.0005805909616112587 0.0033452954756688566 -0.00400281838331342
498 0.003500234711489089 -0.0025471194202416505 -0.007372548528032268
396 -0.003854572234024703 0.010573776286584778 0.0019695935157811118
497 0.00028693436755480167 0.0038166975173768536 0.0043658435120822355
536 0.005029932766315332 0.03966381190008612 -0.010394449575188425
398 0.005994922259966418 0.00040203316078611597 0.0303012739947866
420 -0.008481975558215029 0.011668800314203857 -0.009513323763862765
163 0.016604563502863094 0.006419008305714977 -0.013032769552873578
69 -0.00276178475766091 0.0029392019123827356 -0.00023230556145541643
65 -0.0025970338024860623 -0.004045409185969256 0.004115365617607805
537 0.016524752105044054 0.03342832204544042 -0.014602950583975465
264 -0.0020519535233502924 -0.015638449870004265 0.010222339550188596
33 -0.005840491779375091 0.0023569458730719047 -0.002820927373229874
217 -0.001967909701691535 -0.0010380834014149284 -0.00046462361159277886
102 -0.0013318316153233165 0.008775887316000966 0.015572814106463835
551 -6.200929686231427e-05 -0.01016991547681617 4.623891791601366e-05
462 -0.0047378547495183915 0.0032093448778339425 -0.009091566824791671
421 0.008622343082232945 -0.007049576266841772 0.003901941803418906
557 -0.006535075773174426 -0.0011165781376495394 0.002804458701572187
263 0.0015896187123296828 -0.003540484644685418 -0.0047661680849783224
221 -0.022894396275375126 -0.00150808899670925 -0.020033872141795576
259 0.03126419888791077 0.025522034513830796 0.0028830208070356952
293 -0.00499898950215947 -0.0002962340314775535 0.025354663485193572
338 0.032745462558455625 -0.0061378464959422905 -0.006889907464135232
436 0.009298553408121489 -0.006635665311561198 0.0048549060554724565
337 0.004857051776435638 -0.0071482764324565535 0.0018060044302988462
343 -0.00471613005549048 -0.000679118885929383 -0.002387267238022185
422 0.0010247993948415794 0.01840879729872544 -0.011970204259948734
219 0.00509348346059982 0.002426188762514541 -0.0010748801519122242
439 0.0008736083724566295 0.003030762737152083 -0.0029051576823182837
255 0.00041357054906358815 -0.010290742026991593 -0.003667160639357116
560 0.0018538725171828524 0.0029814944858193243 -0.007682287482152071
556 -0.0052636180993209545 0.0010588304916732247 -0.0025625954682429843
296 0.011622048428130225 0.004082385170088193 0.016641825921483527
441 0.002476627139656449 0.013645899519620336 -0.013644025262471436
578 0.0038768100360035023 -0.0007038000757931944 0.003953925827331536
336 0.027362978910285562 -0.010227788242122476 0.017098381691845608
62 -0.04181013581744781 -0.012668313436400574 0.011527668938383995
438 -0.002958426749966436 0.00039671244942354457 -0.0009328703431539651
34 -0.0264437883356401 -0.007724047546728364 -0.008664553022928592
262 0.0033680414476181977 0.0005233548161238761 0.009783829767050077
215 -0.01341359528125965 -0.007786635002677776 -0.020950608093404318
29 0.0035231812721545626 0.0005001127116576014 0.003668105880296418
437 0.0021025266300310486 0.0012506159618762165 -0.012336138633111317
298 -0.0017616304854159517 -0.004033561770565758 -0.001059698268119251
442 -0.006821312190279442 -0.0030110024464108753 -0.005323566413429648
500 0.0064361601449175986 0.005307284096662402 -0.000865676610822603
454 -0.033731526167874226 0.028089685750147357 0.019487626931008344
427 0.007817100211161832 0.0061643859596994454 0.00782260528557572
553 0.003063000952478333 0.005971451955071381 -0.0033602895314173925
339 0.014815192234362937 -0.0008642415275445344 -0.014388819149917204
555 0.0021545287500801657 -0.0018368429032179605 0.0015821584426403963
429 0.025065473425892482 -0.0014027824563172247 -0.002202298202944526
36 0.004741394866282787 -0.002981429123596503 0.005449996410014984
434 -0.0006538590931781989 -0.00448090438000954 0.005349671795914597
266 -0.004903102461386251 0.02146218985516143 -0.014637420817096286
31 -0.0029133551548170254 0.004658430409906109 0.005595204968046241
505 -0.027474800447545245 -0.01299761747778709 0.0003720140515909031
431 -0.005502654293758601 -0.0033539172049604454 0.004528959337373686
393 -0.0010143915533000424 -0.003159738449101643 0.004153922258226333
268 -0.00752564644035156 -0.005563900141274806 -0.0007302043708772291
424 -0.0022168792749420363 0.0049205759391443395 -0.0030110358217153373
433 0.0025113527051447574 -0.019859480193055563 0.015129461721561828
423 -0.0019799910853601 -0.009987307174026882 -0.003380887444286467
260 0.02550661685869416 -0.027754294830647404 -0.026671904287827532
395 -0.016908126366057413 -0.01253347885145481 -0.001482602868062436
261 -0.0213064632626516 -0.0015057251284251838 -0.03884040914933422
579 -0.006591436953799934 -0.029574691775705767 0.02212705545923898
550 0.022817453252950773 -0.005627699479505147 0.00477664098531524
502 0.003028794315330131 0.0051917207370288845 0.008213971041296782
300 -0.020704470623388843 0.015129945539882712 -0.019822295313762665
394 0.00487189645969651 -4.0751435029797054e-05 -0.013550504404894081
554 -0.003997598486227279 0.0020485922654389106 0.004890160430784103
440 -0.011778041330099328 0.0012015565791413827 -0.007313117849988125
499 -0.0032280050445843327 0.008602271741633258 -0.0052808333333771666
463 0.016327889044547288 -0.0033594124877397553 -0.003139020528654895
35 -0.006847140863838763 0.01495207479313346 0.0023673775503412608
435 0.0032096508528256123 0.0024021752775227633 -0.001310974814802816
98 -0.011433648469097458 -0.017223372208624764 0.011800921668269878
481 0.005251581940154617 0.00834401117085559 -0.006102289323985777

Bonds

1 4 447 281
2 5 447 446
3 5 447 450
4 5 447 448
5 15 351 173
6 17 286 285
7 13 349 354
8 4 345 349
9 1 345 403
10 5 345 346
11 5 345 340
12 13 47 174
13 14 47 45
14 13 49 47
15 14 49 50
16 13 344 349
17 14 344 341
18 13 347 344
19 13 347 351
20 5 403 401
21 5 403 407
22 5 403 399
23 4 165 347
24 5 165 164
25 5 165 166
26 16 174 169
27 13 174 176
28 13 356 351
29 13 354 356
30 15 354 357
31 13 283 281
32 15 283 285
33 13 177 49
34 13 177 124
35 1 162 165
36 5 162 160
37 5 162 161
38 5 162 159
39 10 140 139
40 9 140 138
41 14 124 127
42 13 281 278
43 17 359 357
44 17 171 173
45 4 56 15
46 4 56 177
47 5 56 132
48 5 56 57
49 13 15 13
50 6 41 285
51 2 41 43
52 5 41 40
53 5 41 42
54 6 257 72
55 2 257 140
56 5 257 254
57 5 257 258
58 8 142 143
59 2 142 140
60 5 142 144
61 5 142 141
62 13 176 124
63 14 176 120
64 18 73 139
65 8 168 169
66 2 168 43
67 5 168 172
68 5 168 167
69 10 43 39
70 9 43 170
71 4 361 356
72 5 361 363
73 5 361 360
74 5 361 362
75 5 287 289
76 5 287 288
77 5 287 489
78 13 17 15
79 14 17 18
80 8 532 534
81 2 532 531
82 5 532 530
83 5 532 508
84 18 227 527
85 13 453 575
86 14 453 452
87 18 449 39
88 10 472 466
89 9 472 474
90 10 531 527
91 9 531 533
92 14 180 179
93 4 282 280
94 1 282 287
95 5 282 279
96 5 282 483
97 13 13 11
98 14 13 53
99 12 490 486
100 11 490 488
101 13 280 283
102 6 223 357
103 2 223 379
104 5 223 224
105 5 223 222
106 16 130 129
107 13 130 128
108 7 294 291
109 3 294 123
110 5 294 297
111 5 294 249
112 15 278 116
113 13 277 280
114 14 277 275
115 2 528 531
116 6 528 116
117 5 528 507
118 5 528 529
119 6 269 116
120 2 269 472
121 5 269 270
122 5 269 271
123 13 276 277
124 13 276 278
125 18 355 193
126 1 113 274
127 5 113 115
128 5 113 158
129 5 113 157
130 4 274 276
131 5 274 117
132 5 274 273
133 10 379 193
134 9 379 378
135 8 430 380
136 2 430 379
137 5 430 428
138 5 430 432
139 16 384 380
140 13 384 388
141 13 388 392
142 14 388 387
143 13 128 180
144 14 128 126
145 16 12 9
146 13 12 14
147 13 12 11
148 18 37 370
149 10 251 125
150 9 251 248
151 13 14 17
152 14 14 16
153 3 492 490
154 7 492 486
155 5 492 493
156 5 492 494
157 14 11 10
158 13 234 232
159 14 234 118
160 13 232 233
161 14 232 230
162 13 386 384
163 14 386 382
164 14 392 335
165 18 329 564
166 13 425 374
167 14 425 426
168 8 131 129
169 2 131 251
170 5 131 134
171 5 131 133
172 18 153 125
173 17 464 317
174 4 63 64
175 1 63 545
176 5 63 98
177 5 63 539
178 17 74 72
179 13 323 321
180 14 323 324
181 5 545 576
182 5 545 572
183 5 545 546
184 4 152 322
185 5 152 154
186 5 152 151
187 5 152 150
188 15 70 72
189 13 66 64
190 14 66 100
191 13 68 66
192 13 68 70
193 13 322 325
194 13 320 322
195 15 320 317
196 15 325 327
197 13 326 323
198 13 326 325
199 6 569 327
200 2 569 568
201 5 569 567
202 5 569 451
203 4 71 68
204 5 71 75
205 5 71 101
206 1 204 71
207 5 204 203
208 5 204 202
209 5 204 205
210 13 321 320
211 17 156 327
212 5 510 583
213 5 510 509
214 5 510 511
215 4 328 326
216 5 328 385
217 5 328 332
218 1 383 328
219 5 383 512
220 5 383 381
221 5 383 389
222 4 319 321
223 1 319 510
224 5 319 316
225 5 319 465
226 13 64 65
227 8 571 573
228 2 571 568
229 5 571 570
230 5 571 566
231 13 67 70
232 16 146 143
233 13 146 149
234 13 22 23
235 14 22 20
236 13 23 30
237 14 23 21
238 4 89 111
239 5 89 225
240 5 89 62
241 13 111 268
242 13 111 91
243 13 577 578
244 14 577 574
245 10 568 564
246 9 568 565
247 1 85 89
248 5 85 110
249 5 85 83
250 5 85 87
251 13 218 425
252 13 218 216
253 13 112 91
254 2 372 368
255 6 372 155
256 5 372 375
257 5 372 373
258 16 26 534
259 13 26 22
260 13 26 32
261 14 32 535
262 14 216 215
263 10 368 370
264 9 368 366
265 15 91 95
266 13 374 371
267 14 374 376
268 8 367 369
269 2 367 368
270 5 367 365
271 5 367 364
272 13 24 148
273 14 24 28
274 13 188 216
275 14 188 184
276 18 96 107
277 10 108 107
278 9 108 19
279 18 97 1
280 16 371 369
281 13 371 188
282 2 3 4
283 6 3 95
284 5 3 99
285 5 3 2
286 8 504 501
287 2 504 108
288 5 504 506
289 5 504 582
290 16 575 573
291 13 575 577
292 6 105 95
293 2 105 108
294 5 105 106
295 5 105 104
296 10 4 1
297 9 4 5
298 13 148 146
299 14 148 145
300 6 250 155
301 2 250 251
302 5 250 102
303 5 250 103
304 13 109 112
305 15 109 155
306 4 92 112
307 5 92 93
308 5 92 94
309 5 92 38
310 8 8 9
311 2 8 4
312 5 8 7
313 5 8 6
314 13 30 33
315 13 470 585
316 14 470 468
317 13 585 516
318 14 585 584
319 16 469 467
320 13 469 470
321 13 469 331
322 13 231 201
323 13 231 445
324 12 521 519
325 11 521 525
326 3 520 521
327 8 520 358
328 5 520 518
329 5 520 524
330 16 353 358
331 13 353 350
332 13 353 352
333 7 523 519
334 3 523 521
335 5 523 522
336 5 523 526
337 13 201 404
338 14 201 237
339 10 247 243
340 9 247 246
341 13 190 186
342 14 190 192
343 13 186 182
344 13 60 190
345 14 60 61
346 4 229 233
347 4 229 231
348 5 229 228
349 5 229 226
350 13 480 478
351 14 480 481
352 14 478 476
353 13 182 181
354 14 182 178
355 14 331 330
356 7 311 313
357 3 311 312
358 5 311 308
359 5 311 314
360 13 516 333
361 13 475 477
362 13 475 478
363 4 187 186
364 4 187 185
365 5 187 189
366 5 187 183
367 8 252 461
368 2 252 247
369 5 252 459
370 5 252 253
371 13 333 331
372 14 333 272
373 4 515 516
374 4 515 475
375 5 515 513
376 5 515 514
377 13 477 479
378 14 477 562
379 13 456 453
380 14 456 457
381 14 445 444
382 13 479 482
383 14 479 563
384 13 404 400
385 14 404 409
386 4 581 417
387 4 581 580
388 5 581 460
389 5 581 549
390 18 175 243
391 6 244 173
392 2 244 247
393 5 244 245
394 5 244 242
395 14 352 290
396 13 185 136
397 13 185 180
398 13 580 456
399 13 580 578
400 16 482 484
401 13 482 480
402 13 350 343
403 14 350 517
404 12 123 291
405 11 123 292
406 12 312 313
407 11 312 315
408 13 233 235
409 8 473 467
410 2 473 472
411 5 473 471
412 5 473 443
413 3 310 312
414 8 310 306
415 5 310 309
416 5 310 377
417 7 210 213
418 3 210 211
419 5 210 207
420 5 210 212
421 13 235 239
422 14 235 236
423 8 487 484
424 3 487 490
425 5 487 485
426 5 487 491
427 18 114 466
428 13 348 352
429 14 348 284
430 13 136 135
431 14 136 191
432 13 418 417
433 14 418 419
434 12 211 213
435 11 211 214
436 3 208 211
437 8 208 413
438 5 208 206
439 5 208 209
440 16 414 413
441 13 414 415
442 13 414 412
443 13 415 418
444 14 415 416
445 14 305 307
446 14 239 240
447 16 304 306
448 13 304 301
449 13 304 305
450 13 302 305
451 14 302 303
452 13 390 386
453 14 390 391
454 13 135 130
455 14 135 137
456 13 417 455
457 14 412 411
458 3 121 123
459 8 121 241
460 5 121 119
461 5 121 122
462 16 238 241
463 13 238 234
464 13 238 239
465 13 455 412
466 14 455 454
467 13 342 348
468 13 334 390
469 13 334 392
470 13 299 302
471 13 301 298
472 14 301 300
473 4 295 299
474 4 295 499
475 5 295 293
476 5 295 458
477 13 267 109
478 13 503 500
479 14 503 505
480 16 58 59
481 13 58 60
482 13 58 181
483 13 149 25
484 14 149 147
485 14 181 51
486 8 55 59
487 2 55 79
488 5 55 52
489 5 55 54
490 18 318 559
491 18 547 543
492 13 397 445
493 14 397 396
494 18 540 77
495 16 400 402
496 13 400 397
497 10 86 559
498 9 86 88
499 6 544 542
500 2 544 405
501 5 544 541
502 5 544 548
503 10 405 543
504 9 405 538
505 8 406 402
506 2 406 405
507 5 406 410
508 5 406 408
509 8 561 558
510 2 561 86
511 5 561 90
512 5 561 537
513 10 79 77
514 9 79 81
515 6 84 317
516 2 84 86
517 5 84 82
518 5 84 552
519 12 197 199
520 11 197 200
521 2 78 79
522 6 78 542
523 5 78 80
524 5 78 76
525 7 196 199
526 3 196 197
527 5 196 198
528 5 196 194
529 3 195 197
530 8 195 394
531 5 195 163
532 5 195 398
533 14 25 27
534 13 498 497
535 14 498 496
536 14 497 495
537 4 69 67
538 5 69 46
539 5 69 44
540 5 69 48
541 13 65 67
542 15 65 542
543 13 33 32
544 14 33 36
545 13 217 424
546 14 217 220
547 16 462 461
548 13 462 255
549 13 462 421
550 14 421 420
551 14 557 440
552 5 263 264
553 5 263 259
554 5 263 265
555 13 436 439
556 4 337 342
557 4 337 334
558 5 337 338
559 5 337 336
560 13 343 342
561 14 343 339
562 4 219 424
563 4 219 218
564 5 219 221
565 5 219 427
566 13 439 393
567 14 439 441
568 13 255 217
569 14 255 256
570 13 560 557
571 14 560 536
572 16 556 558
573 13 556 560
574 14 578 579
575 13 438 435
576 14 438 437
577 4 262 267
578 1 262 263
579 5 262 261
580 5 262 260
581 13 29 24
582 13 29 25
583 13 298 299
584 14 298 296
585 16 442 394
586 13 442 438
587 13 442 393
588 16 500 501
589 13 500 498
590 13 553 554
591 14 553 550
592 13 555 553
593 13 555 557
594 4 434 436
595 4 434 555
596 5 434 431
597 5 434 429
598 4 31 30
599 4 31 29
600 5 31 35
601 5 31 34
602 14 393 395
603 13 268 267
604 14 268 266
605 13 424 423
606 13 423 421
607 14 423 422
608 13 502 503
609 14 502 463
610 13 554 556
611 14 554 551
612 13 499 502
613 13 499 497
614 13 435 436
615 14 435 433

Angles

1 23 281 447 446
2 23 281 447 450
3 23 281 447 448
4 29 446 447 450
5 29 446 447 448
6 29 450 447 448
7 24 347 351 356
8 26 356 351 173
9 26 347 351 173
10 11 41 285 283
11 28 283 285 286
12 12 41 285 286
13 9 345 349 344
14 24 344 349 354
15 9 345 349 354
16 1 403 345 349
17 23 349 345 346
18 23 349 345 340
19 2 403 345 346
20 29 346 345 340
21 2 403 345 340
22 24 49 47 174
23 25 49 47 45
24 25 174 47 45
25 24 177 49 47
26 25 177 49 50
27 25 47 49 50
28 24 347 344 349
29 25 347 344 341
30 25 349 344 341
31 9 165 347 344
32 9 165 347 351
33 24 344 347 351
34 2 345 403 401
35 2 345 403 407
36 2 345 403 399
37 29 401 403 407
38 29 401 403 399
39 29 407 403 399
40 1 162 165 347
41 2 162 165 164
42 2 162 165 166
43 23 347 165 164
44 29 164 165 166
45 23 347 165 166
46 27 47 174 169
47 24 47 174 176
48 27 176 174 169
49 9 361 356 354
50 24 354 356 351
51 9 361 356 351
52 24 349 354 356
53 26 356 354 357
54 26 349 354 357
55 24 280 283 281
56 26 281 283 285
57 26 280 283 285
58 9 56 177 49
59 9 56 177 124
60 24 49 177 124
61 2 165 162 160
62 29 160 162 161
63 29 160 162 159
64 2 165 162 161
65 29 161 162 159
66 2 165 162 159
67 3 257 140 142
68 5 257 140 139
69 4 257 140 138
70 4 142 140 138
71 33 138 140 139
72 5 142 140 139
73 24 177 124 176
74 25 177 124 127
75 25 176 124 127
76 9 447 281 283
77 24 283 281 278
78 9 447 281 278
79 11 223 357 354
80 28 354 357 359
81 12 223 357 359
82 11 244 173 351
83 28 351 173 171
84 12 244 173 171
85 22 15 56 177
86 23 15 56 132
87 23 15 56 57
88 23 177 56 132
89 29 132 56 57
90 23 177 56 57
91 9 56 15 17
92 24 17 15 13
93 9 56 15 13
94 16 43 41 285
95 30 40 41 285
96 30 42 41 285
97 15 43 41 40
98 29 40 41 42
99 15 43 41 42
100 16 140 257 72
101 30 254 257 72
102 30 258 257 72
103 15 140 257 254
104 29 254 257 258
105 15 140 257 258
106 17 140 142 143
107 15 140 142 144
108 15 140 142 141
109 32 144 142 143
110 29 144 142 141
111 32 141 142 143
112 24 174 176 124
113 25 174 176 120
114 25 124 176 120
115 17 43 168 169
116 15 43 168 172
117 15 43 168 167
118 32 172 168 169
119 29 172 168 167
120 32 167 168 169
121 14 168 169 174
122 18 43 39 449
123 3 41 43 168
124 5 41 43 39
125 4 41 43 170
126 4 168 43 170
127 33 170 43 39
128 5 168 43 39
129 23 356 361 363
130 23 356 361 360
131 23 356 361 362
132 29 363 361 360
133 29 363 361 362
134 29 360 361 362
135 14 142 143 146
136 2 282 287 289
137 2 282 287 288
138 2 282 287 489
139 29 289 287 288
140 29 289 287 489
141 29 288 287 489
142 18 140 139 73
143 24 14 17 15
144 25 14 17 18
145 25 15 17 18
146 17 531 532 534
147 15 531 532 530
148 15 531 532 508
149 32 530 532 534
150 29 530 532 508
151 32 508 532 534
152 24 456 453 575
153 25 456 453 452
154 25 575 453 452
155 3 269 472 473
156 5 269 472 466
157 4 269 472 474
158 4 473 472 474
159 33 474 472 466
160 5 473 472 466
161 3 528 531 532
162 5 528 531 527
163 4 528 531 533
164 4 532 531 533
165 33 533 531 527
166 5 532 531 527
167 18 531 527 227
168 24 185 180 128
169 25 185 180 179
170 25 128 180 179
171 1 287 282 280
172 23 280 282 279
173 23 280 282 483
174 2 287 282 279
175 29 279 282 483
176 2 287 282 483
177 24 15 13 11
178 25 15 13 53
179 25 11 13 53
180 6 487 490 492
181 8 487 490 486
182 7 487 490 488
183 7 492 490 488
184 34 488 490 486
185 8 492 490 486
186 9 282 280 277
187 24 277 280 283
188 9 282 280 283
189 16 379 223 357
190 30 224 223 357
191 30 222 223 357
192 15 379 223 224
193 29 224 223 222
194 15 379 223 222
195 27 135 130 129
196 24 135 130 128
197 27 128 130 129
198 13 492 486 490
199 13 294 291 123
200 31 297 294 291
201 19 123 294 297
202 29 297 294 249
203 31 249 294 291
204 19 123 294 249
205 20 123 294 291
206 24 276 278 281
207 26 276 278 116
208 26 281 278 116
209 24 276 277 280
210 25 276 277 275
211 25 280 277 275
212 16 531 528 116
213 30 507 528 116
214 30 529 528 116
215 15 531 528 507
216 29 507 528 529
217 15 531 528 529
218 16 472 269 116
219 30 270 269 116
220 30 271 269 116
221 15 472 269 270
222 29 270 269 271
223 15 472 269 271
224 11 528 116 278
225 11 269 116 278
226 10 528 116 269
227 9 274 276 277
228 9 274 276 278
229 24 277 276 278
230 2 274 113 115
231 29 115 113 158
232 29 115 113 157
233 2 274 113 158
234 29 158 113 157
235 2 274 113 157
236 1 113 274 276
237 2 113 274 117
238 2 113 274 273
239 23 276 274 117
240 29 117 274 273
241 23 276 274 273
242 18 379 193 355
243 3 223 379 430
244 5 223 379 193
245 4 223 379 378
246 4 430 379 378
247 33 378 379 193
248 5 430 379 193
249 17 379 430 380
250 15 379 430 428
251 15 379 430 432
252 32 428 430 380
253 29 428 430 432
254 32 432 430 380
255 14 430 380 384
256 27 386 384 380
257 24 386 384 388
258 27 388 384 380
259 24 384 388 392
260 25 384 388 387
261 25 392 388 387
262 24 130 128 180
263 25 130 128 126
264 25 180 128 126
265 27 14 12 9
266 27 11 12 9
267 24 14 12 11
268 14 131 129 130
269 18 368 370 37
270 3 250 251 131
271 5 250 251 125
272 4 250 251 248
273 4 131 251 248
274 33 248 251 125
275 5 131 251 125
276 24 12 14 17
277 25 12 14 16
278 25 17 14 16
279 14 8 9 12
280 20 490 492 486
281 19 490 492 493
282 19 490 492 494
283 31 493 492 486
284 29 493 492 494
285 31 494 492 486
286 24 12 11 13
287 25 12 11 10
288 25 13 11 10
289 24 238 234 232
290 25 238 234 118
291 25 232 234 118
292 24 234 232 233
293 25 234 232 230
294 25 233 232 230
295 24 390 386 384
296 25 390 386 382
297 25 384 386 382
298 24 334 392 388
299 25 334 392 335
300 25 388 392 335
301 24 218 425 374
302 25 218 425 426
303 25 374 425 426
304 17 251 131 129
305 15 251 131 134
306 15 251 131 133
307 32 134 131 129
308 29 134 131 133
309 32 133 131 129
310 1 545 63 64
311 23 64 63 98
312 23 64 63 539
313 2 545 63 98
314 29 98 63 539
315 2 545 63 539
316 11 257 72 70
317 28 70 72 74
318 12 257 72 74
319 24 326 323 321
320 25 326 323 324
321 25 321 323 324
322 2 63 545 576
323 2 63 545 572
324 2 63 545 546
325 29 576 545 572
326 29 576 545 546
327 29 572 545 546
328 23 322 152 154
329 23 322 152 151
330 23 322 152 150
331 29 154 152 151
332 29 154 152 150
333 29 151 152 150
334 24 68 70 67
335 26 68 70 72
336 26 67 70 72
337 24 68 66 64
338 25 68 66 100
339 25 64 66 100
340 9 71 68 66
341 9 71 68 70
342 24 66 68 70
343 11 569 327 325
344 28 325 327 156
345 12 569 327 156
346 9 152 322 320
347 24 320 322 325
348 9 152 322 325
349 24 321 320 322
350 26 322 320 317
351 26 321 320 317
352 24 326 325 322
353 26 326 325 327
354 26 322 325 327
355 9 328 326 323
356 9 328 326 325
357 24 323 326 325
358 16 568 569 327
359 30 567 569 327
360 30 451 569 327
361 15 568 569 567
362 29 567 569 451
363 15 568 569 451
364 1 204 71 68
365 2 204 71 75
366 2 204 71 101
367 23 68 71 75
368 29 75 71 101
369 23 68 71 101
370 2 71 204 203
371 29 203 204 202
372 29 203 204 205
373 2 71 204 202
374 29 202 204 205
375 2 71 204 205
376 9 319 321 323
377 24 323 321 320
378 9 319 321 320
379 2 319 510 583
380 2 319 510 509
381 2 319 510 511
382 29 583 510 509
383 29 583 510 511
384 29 509 510 511
385 1 383 328 326
386 2 383 328 385
387 2 383 328 332
388 23 326 328 385
389 29 385 328 332
390 23 326 328 332
391 2 328 383 512
392 29 512 383 381
393 29 512 383 389
394 2 328 383 381
395 29 381 383 389
396 2 328 383 389
397 1 510 319 321
398 23 321 319 316
399 23 321 319 465
400 2 510 319 316
401 29 316 319 465
402 2 510 319 465
403 9 63 64 66
404 24 66 64 65
405 9 63 64 65
406 17 568 571 573
407 15 568 571 570
408 15 568 571 566
409 32 570 571 573
410 29 570 571 566
411 32 566 571 573
412 9 69 67 65
413 24 65 67 70
414 9 69 67 70
415 11 84 317 320
416 28 320 317 464
417 12 84 317 464
418 27 148 146 143
419 24 148 146 149
420 27 149 146 143
421 24 26 22 23
422 25 26 22 20
423 25 23 22 20
424 24 22 23 30
425 25 22 23 21
426 25 30 23 21
427 18 568 564 329
428 1 85 89 111
429 2 85 89 225
430 2 85 89 62
431 23 111 89 225
432 29 225 89 62
433 23 111 89 62
434 9 89 111 268
435 9 89 111 91
436 24 268 111 91
437 24 575 577 578
438 25 575 577 574
439 25 578 577 574
440 3 569 568 571
441 5 569 568 564
442 4 569 568 565
443 4 571 568 565
444 33 565 568 564
445 5 571 568 564
446 2 89 85 110
447 29 110 85 83
448 29 110 85 87
449 2 89 85 83
450 29 83 85 87
451 2 89 85 87
452 9 219 218 425
453 9 219 218 216
454 24 425 218 216
455 9 92 112 109
456 24 109 112 91
457 9 92 112 91
458 16 368 372 155
459 30 375 372 155
460 30 373 372 155
461 15 368 372 375
462 29 375 372 373
463 15 368 372 373
464 11 372 155 109
465 11 250 155 109
466 10 372 155 250
467 18 108 107 96
468 27 22 26 534
469 27 32 26 534
470 24 22 26 32
471 24 26 32 33
472 25 26 32 535
473 25 33 32 535
474 14 532 534 26
475 24 218 216 188
476 25 218 216 215
477 25 188 216 215
478 3 372 368 367
479 5 372 368 370
480 4 372 368 366
481 4 367 368 366
482 33 366 368 370
483 5 367 368 370
484 24 111 91 112
485 26 111 91 95
486 26 112 91 95
487 24 425 374 371
488 25 425 374 376
489 25 371 374 376
490 17 368 367 369
491 15 368 367 365
492 15 368 367 364
493 32 365 367 369
494 29 365 367 364
495 32 364 367 369
496 24 29 24 148
497 25 29 24 28
498 25 148 24 28
499 24 371 188 216
500 25 371 188 184
501 25 216 188 184
502 3 105 108 504
503 5 105 108 107
504 4 105 108 19
505 4 504 108 19
506 33 19 108 107
507 5 504 108 107
508 27 374 371 369
509 24 374 371 188
510 27 188 371 369
511 16 4 3 95
512 30 99 3 95
513 30 2 3 95
514 15 4 3 99
515 29 99 3 2
516 15 4 3 2
517 17 108 504 501
518 15 108 504 506
519 15 108 504 582
520 32 506 504 501
521 29 506 504 582
522 32 582 504 501
523 27 453 575 573
524 24 453 575 577
525 27 577 575 573
526 16 108 105 95
527 30 106 105 95
528 30 104 105 95
529 15 108 105 106
530 29 106 105 104
531 15 108 105 104
532 11 3 95 91
533 11 105 95 91
534 10 3 95 105
535 3 3 4 8
536 5 3 4 1
537 4 3 4 5
538 4 8 4 5
539 33 5 4 1
540 5 8 4 1
541 18 4 1 97
542 24 24 148 146
543 25 24 148 145
544 25 146 148 145
545 14 571 573 575
546 16 251 250 155
547 30 102 250 155
548 30 103 250 155
549 15 251 250 102
550 29 102 250 103
551 15 251 250 103
552 24 267 109 112
553 26 112 109 155
554 26 267 109 155
555 23 112 92 93
556 23 112 92 94
557 23 112 92 38
558 29 93 92 94
559 29 93 92 38
560 29 94 92 38
561 17 4 8 9
562 15 4 8 7
563 15 4 8 6
564 32 7 8 9
565 29 7 8 6
566 32 6 8 9
567 14 367 369 371
568 14 487 484 482
569 9 31 30 23
570 24 23 30 33
571 9 31 30 33
572 24 469 470 585
573 25 469 470 468
574 25 585 470 468
575 24 470 585 516
576 25 470 585 584
577 25 516 585 584
578 13 523 519 521
579 27 470 469 467
580 27 331 469 467
581 24 470 469 331
582 9 229 231 201
583 9 229 231 445
584 24 201 231 445
585 14 520 358 353
586 6 523 521 520
587 8 523 521 519
588 7 523 521 525
589 7 520 521 525
590 34 525 521 519
591 8 520 521 519
592 21 521 520 358
593 19 521 520 518
594 19 521 520 524
595 32 518 520 358
596 29 518 520 524
597 32 524 520 358
598 27 350 353 358
599 27 352 353 358
600 24 350 353 352
601 31 522 523 519
602 19 521 523 522
603 29 522 523 526
604 31 526 523 519
605 19 521 523 526
606 20 521 523 519
607 24 231 201 404
608 25 231 201 237
609 25 404 201 237
610 18 247 243 175
611 3 244 247 252
612 5 244 247 243
613 4 244 247 246
614 4 252 247 246
615 33 246 247 243
616 5 252 247 243
617 24 60 190 186
618 25 60 190 192
619 25 186 190 192
620 9 187 186 190
621 24 190 186 182
622 9 187 186 182
623 24 58 60 190
624 25 58 60 61
625 25 190 60 61
626 22 233 229 231
627 23 233 229 228
628 23 233 229 226
629 23 231 229 228
630 29 228 229 226
631 23 231 229 226
632 24 482 480 478
633 25 482 480 481
634 25 478 480 481
635 24 475 478 480
636 25 475 478 476
637 25 480 478 476
638 24 186 182 181
639 25 186 182 178
640 25 181 182 178
641 24 469 331 333
642 25 469 331 330
643 25 333 331 330
644 31 308 311 313
645 19 312 311 308
646 29 308 311 314
647 31 314 311 313
648 19 312 311 314
649 20 312 311 313
650 9 515 516 585
651 24 585 516 333
652 9 515 516 333
653 9 515 475 477
654 9 515 475 478
655 24 477 475 478
656 22 186 187 185
657 23 186 187 189
658 23 186 187 183
659 23 185 187 189
660 29 189 187 183
661 23 185 187 183
662 17 247 252 461
663 15 247 252 459
664 15 247 252 253
665 32 459 252 461
666 29 459 252 253
667 32 253 252 461
668 24 516 333 331
669 25 516 333 272
670 25 331 333 272
671 22 516 515 475
672 23 516 515 513
673 23 516 515 514
674 23 475 515 513
675 29 513 515 514
676 23 475 515 514
677 24 475 477 479
678 25 475 477 562
679 25 479 477 562
680 24 580 456 453
681 25 580 456 457
682 25 453 456 457
683 24 231 445 397
684 25 231 445 444
685 25 397 445 444
686 24 477 479 482
687 25 477 479 563
688 25 482 479 563
689 24 201 404 400
690 25 201 404 409
691 25 400 404 409
692 14 473 467 469
693 22 417 581 580
694 23 417 581 460
695 23 417 581 549
696 23 580 581 460
697 29 460 581 549
698 23 580 581 549
699 16 247 244 173
700 30 245 244 173
701 30 242 244 173
702 15 247 244 245
703 29 245 244 242
704 15 247 244 242
705 24 353 352 348
706 25 353 352 290
707 25 348 352 290
708 9 187 185 136
709 9 187 185 180
710 24 136 185 180
711 9 581 580 456
712 9 581 580 578
713 24 456 580 578
714 27 479 482 484
715 24 479 482 480
716 27 480 482 484
717 24 353 350 343
718 25 353 350 517
719 25 343 350 517
720 13 311 313 312
721 6 294 123 121
722 8 294 123 291
723 7 294 123 292
724 7 121 123 292
725 34 292 123 291
726 8 121 123 291
727 6 311 312 310
728 8 311 312 313
729 7 311 312 315
730 7 310 312 315
731 34 315 312 313
732 8 310 312 313
733 9 229 233 232
734 24 232 233 235
735 9 229 233 235
736 17 472 473 467
737 15 472 473 471
738 15 472 473 443
739 32 471 473 467
740 29 471 473 443
741 32 443 473 467
742 21 312 310 306
743 19 312 310 309
744 19 312 310 377
745 32 309 310 306
746 29 309 310 377
747 32 377 310 306
748 31 207 210 213
749 19 211 210 207
750 29 207 210 212
751 31 212 210 213
752 19 211 210 212
753 20 211 210 213
754 24 233 235 239
755 25 233 235 236
756 25 239 235 236
757 18 472 466 114
758 21 490 487 484
759 32 485 487 484
760 32 491 487 484
761 19 490 487 485
762 29 485 487 491
763 19 490 487 491
764 24 342 348 352
765 25 342 348 284
766 25 352 348 284
767 24 185 136 135
768 25 185 136 191
769 25 135 136 191
770 13 210 213 211
771 24 415 418 417
772 25 415 418 419
773 25 417 418 419
774 6 210 211 208
775 8 210 211 213
776 7 210 211 214
777 7 208 211 214
778 34 214 211 213
779 8 208 211 213
780 21 211 208 413
781 19 211 208 206
782 19 211 208 209
783 32 206 208 413
784 29 206 208 209
785 32 209 208 413
786 27 415 414 413
787 27 412 414 413
788 24 415 414 412
789 24 414 415 418
790 25 414 415 416
791 25 418 415 416
792 14 208 413 414
793 24 304 305 302
794 25 304 305 307
795 25 302 305 307
796 24 238 239 235
797 25 238 239 240
798 25 235 239 240
799 14 310 306 304
800 27 301 304 306
801 27 305 304 306
802 24 301 304 305
803 24 299 302 305
804 25 299 302 303
805 25 305 302 303
806 24 334 390 386
807 25 334 390 391
808 25 386 390 391
809 24 136 135 130
810 25 136 135 137
811 25 130 135 137
812 9 581 417 418
813 24 418 417 455
814 9 581 417 455
815 24 414 412 455
816 25 414 412 411
817 25 455 412 411
818 21 123 121 241
819 19 123 121 119
820 19 123 121 122
821 32 119 121 241
822 29 119 121 122
823 32 122 121 241
824 27 234 238 241
825 27 239 238 241
826 24 234 238 239
827 24 417 455 412
828 25 417 455 454
829 25 412 455 454
830 14 121 241 238
831 9 337 342 343
832 24 343 342 348
833 9 337 342 348
834 9 337 334 390
835 9 337 334 392
836 24 390 334 392
837 9 295 299 298
838 24 298 299 302
839 9 295 299 302
840 24 304 301 298
841 25 304 301 300
842 25 298 301 300
843 18 251 125 153
844 22 299 295 499
845 23 299 295 293
846 23 299 295 458
847 23 499 295 293
848 29 293 295 458
849 23 499 295 458
850 9 262 267 268
851 24 268 267 109
852 9 262 267 109
853 14 504 501 500
854 24 502 503 500
855 25 502 503 505
856 25 500 503 505
857 27 60 58 59
858 27 181 58 59
859 24 60 58 181
860 24 146 149 25
861 25 146 149 147
862 25 25 149 147
863 24 58 181 182
864 25 58 181 51
865 25 182 181 51
866 17 79 55 59
867 15 79 55 52
868 15 79 55 54
869 32 52 55 59
870 29 52 55 54
871 32 54 55 59
872 14 252 461 462
873 18 86 559 318
874 24 400 397 445
875 25 400 397 396
876 25 445 397 396
877 27 404 400 402
878 24 404 400 397
879 27 397 400 402
880 3 84 86 561
881 5 84 86 559
882 4 84 86 88
883 4 561 86 88
884 33 88 86 559
885 5 561 86 559
886 14 406 402 400
887 18 405 543 547
888 16 405 544 542
889 30 541 544 542
890 30 548 544 542
891 15 405 544 541
892 29 541 544 548
893 15 405 544 548
894 3 544 405 406
895 5 544 405 543
896 4 544 405 538
897 4 406 405 538
898 33 538 405 543
899 5 406 405 543
900 14 55 59 58
901 17 405 406 402
902 15 405 406 410
903 15 405 406 408
904 32 410 406 402
905 29 410 406 408
906 32 408 406 402
907 17 86 561 558
908 15 86 561 90
909 15 86 561 537
910 32 90 561 558
911 29 90 561 537
912 32 537 561 558
913 3 78 79 55
914 5 78 79 77
915 4 78 79 81
916 4 55 79 81
917 33 81 79 77
918 5 55 79 77
919 18 79 77 540
920 16 86 84 317
921 30 82 84 317
922 30 552 84 317
923 15 86 84 82
924 29 82 84 552
925 15 86 84 552
926 13 196 199 197
927 6 196 197 195
928 8 196 197 199
929 7 196 197 200
930 7 195 197 200
931 34 200 197 199
932 8 195 197 199
933 16 79 78 542
934 30 80 78 542
935 30 76 78 542
936 15 79 78 80
937 29 80 78 76
938 15 79 78 76
939 11 78 542 65
940 11 544 542 65
941 10 78 542 544
942 14 561 558 556
943 31 198 196 199
944 19 197 196 198
945 29 198 196 194
946 31 194 196 199
947 19 197 196 194
948 20 197 196 199
949 21 197 195 394
950 19 197 195 163
951 19 197 195 398
952 32 163 195 394
953 29 163 195 398
954 32 398 195 394
955 24 29 25 149
956 25 29 25 27
957 25 149 25 27
958 24 500 498 497
959 25 500 498 496
960 25 497 498 496
961 24 499 497 498
962 25 499 497 495
963 25 498 497 495
964 23 67 69 46
965 23 67 69 44
966 23 67 69 48
967 29 46 69 44
968 29 46 69 48
969 29 44 69 48
970 24 64 65 67
971 26 64 65 542
972 26 67 65 542
973 24 30 33 32
974 25 30 33 36
975 25 32 33 36
976 24 255 217 424
977 25 255 217 220
978 25 424 217 220
979 27 255 462 461
980 27 421 462 461
981 24 255 462 421
982 24 462 421 423
983 25 462 421 420
984 25 423 421 420
985 24 555 557 560
986 25 555 557 440
987 25 560 557 440
988 2 262 263 264
989 2 262 263 259
990 2 262 263 265
991 29 264 263 259
992 29 264 263 265
993 29 259 263 265
994 9 434 436 435
995 24 435 436 439
996 9 434 436 439
997 22 342 337 334
998 23 342 337 338
999 23 342 337 336
1000 23 334 337 338
1001 29 338 337 336
1002 23 334 337 336
1003 24 350 343 342
1004 25 350 343 339
1005 25 342 343 339
1006 22 424 219 218
1007 23 424 219 221
1008 23 424 219 427
1009 23 218 219 221
1010 29 221 219 427
1011 23 218 219 427
1012 24 436 439 393
1013 25 436 439 441
1014 25 393 439 441
1015 24 462 255 217
1016 25 462 255 256
1017 25 217 255 256
1018 24 556 560 557
1019 25 556 560 536
1020 25 557 560 536
1021 27 554 556 558
1022 24 554 556 560
1023 27 560 556 558
1024 24 580 578 577
1025 25 580 578 579
1026 25 577 578 579
1027 24 442 438 435
1028 25 442 438 437
1029 25 435 438 437
1030 1 263 262 267
1031 23 267 262 261
1032 23 267 262 260
1033 2 263 262 261
1034 29 261 262 260
1035 2 263 262 260
1036 9 31 29 24
1037 9 31 29 25
1038 24 24 29 25
1039 24 301 298 299
1040 25 301 298 296
1041 25 299 298 296
1042 27 438 442 394
1043 27 393 442 394
1044 24 438 442 393
1045 27 503 500 501
1046 24 503 500 498
1047 27 498 500 501
1048 24 555 553 554
1049 25 555 553 550
1050 25 554 553 550
1051 9 434 555 553
1052 9 434 555 557
1053 24 553 555 557
1054 22 436 434 555
1055 23 436 434 431
1056 23 436 434 429
1057 23 555 434 431
1058 29 431 434 429
1059 23 555 434 429
1060 22 30 31 29
1061 23 30 31 35
1062 23 30 31 34
1063 23 29 31 35
1064 29 35 31 34
1065 23 29 31 34
1066 24 442 393 439
1067 25 442 393 395
1068 25 439 393 395
1069 24 111 268 267
1070 25 111 268 266
1071 25 267 268 266
1072 9 219 424 217
1073 24 217 424 423
1074 9 219 424 423
1075 24 424 423 421
1076 25 424 423 422
1077 25 421 423 422
1078 24 499 502 503
1079 25 499 502 463
1080 25 503 502 463
1081 14 195 394 442
1082 24 553 554 556
1083 25 553 554 551
1084 25 556 554 551
1085 9 295 499 502
1086 9 295 499 497
1087 24 502 499 497
1088 24 438 435 436
1089 25 438 435 433
1090 25 436 435 433

Dihedrals

1 26 347 351 356 354
2 30 356 351 173 171
3 30 347 351 173 171
4 15 41 285 283 281
5 31 283 285 41 40
6 31 283 285 41 42
7 15 41 285 283 280
8 10 345 349 344 347
9 25 344 349 345 346
10 25 344 349 345 340
11 26 344 349 354 356
12 11 345 349 344 341
13 27 354 349 344 341
14 25 354 349 345 346
15 25 354 349 345 340
16 10 345 349 354 356
17 12 345 349 354 357
18 28 344 349 354 357
19 1 403 345 349 344
20 23 349 345 403 401
21 23 349 345 403 407
22 23 349 345 403 399
23 1 403 345 349 354
24 33 346 345 403 401
25 33 346 345 403 407
26 33 346 345 403 399
27 33 340 345 403 401
28 33 340 345 403 407
29 33 340 345 403 399
30 29 49 47 174 169
31 26 49 47 174 176
32 27 174 47 49 50
33 45 45 47 174 169
34 26 177 49 47 174
35 27 177 49 47 45
36 44 50 49 47 45
37 26 47 49 177 124
38 26 347 344 349 354
39 26 349 344 347 351
40 10 165 347 344 349
41 11 165 347 344 341
42 10 165 347 351 356
43 25 344 347 165 164
44 25 351 347 165 164
45 25 344 347 165 166
46 25 351 347 165 166
47 26 344 347 351 356
48 27 351 347 344 341
49 12 165 347 351 173
50 28 344 347 351 173
51 1 162 165 347 344
52 1 162 165 347 351
53 23 347 165 162 160
54 23 347 165 162 161
55 23 347 165 162 159
56 26 47 174 176 124
57 27 47 174 176 120
58 27 176 174 47 45
59 10 361 356 351 347
60 10 361 356 354 349
61 25 354 356 361 363
62 25 354 356 361 360
63 25 354 356 361 362
64 25 351 356 361 363
65 25 351 356 361 360
66 25 351 356 361 362
67 12 361 356 351 173
68 28 354 356 351 173
69 12 361 356 354 357
70 28 351 356 354 357
71 26 349 354 356 351
72 30 356 354 357 359
73 30 349 354 357 359
74 26 280 283 281 278
75 30 281 283 285 286
76 30 280 283 285 286
77 10 56 177 49 47
78 11 56 177 49 50
79 10 56 177 124 176
80 11 56 177 124 127
81 25 49 177 56 132
82 25 124 177 56 132
83 25 49 177 56 57
84 25 124 177 56 57
85 26 49 177 124 176
86 27 49 177 124 127
87 27 124 177 49 50
88 33 160 162 165 164
89 33 160 162 165 166
90 33 161 162 165 164
91 33 161 162 165 166
92 33 159 162 165 164
93 33 159 162 165 166
94 3 142 140 257 72
95 39 138 140 257 72
96 4 257 140 142 143
97 2 257 140 142 144
98 2 257 140 142 141
99 5 257 140 139 73
100 2 142 140 257 254
101 2 142 140 257 258
102 40 138 140 142 143
103 41 138 140 139 73
104 5 142 140 139 73
105 26 177 124 176 174
106 27 177 124 176 120
107 10 447 281 278 276
108 10 447 281 283 280
109 25 283 281 447 446
110 25 283 281 447 450
111 25 283 281 447 448
112 25 278 281 447 446
113 25 278 281 447 450
114 25 278 281 447 448
115 12 447 281 283 285
116 28 278 281 283 285
117 12 447 281 278 116
118 28 283 281 278 116
119 15 223 357 354 356
120 31 354 357 223 224
121 31 354 357 223 222
122 15 223 357 354 349
123 15 244 173 351 356
124 31 351 173 244 245
125 31 351 173 244 242
126 15 244 173 351 347
127 24 177 56 15 17
128 24 15 56 177 49
129 24 15 56 177 124
130 24 177 56 15 13
131 10 56 15 17 14
132 25 17 15 56 132
133 25 17 15 56 57
134 26 17 15 13 11
135 27 17 15 13 53
136 11 56 15 17 18
137 27 13 15 17 18
138 25 13 15 56 132
139 25 13 15 56 57
140 11 56 15 13 53
141 10 56 15 13 11
142 18 43 41 285 283
143 46 285 41 43 39
144 19 43 41 285 286
145 38 40 41 285 286
146 38 42 41 285 286
147 35 40 41 43 39
148 34 40 41 43 170
149 35 42 41 43 39
150 34 42 41 43 170
151 18 140 257 72 70
152 46 72 257 140 139
153 19 140 257 72 74
154 38 254 257 72 74
155 38 258 257 72 74
156 35 254 257 140 139
157 34 254 257 140 138
158 35 258 257 140 139
159 34 258 257 140 138
160 20 140 142 143 146
161 34 144 142 140 138
162 34 141 142 140 138
163 48 143 142 140 139
164 35 144 142 140 139
165 35 141 142 140 139
166 27 174 176 124 127
167 45 120 176 174 169
168 44 120 176 124 127
169 29 124 176 174 169
170 20 43 168 169 174
171 34 172 168 43 170
172 34 167 168 43 170
173 48 169 168 43 39
174 35 172 168 43 39
175 35 167 168 43 39
176 17 168 169 174 47
177 17 168 169 174 176
178 32 174 169 168 167
179 32 174 169 168 172
180 3 168 43 41 285
181 39 170 43 41 285
182 4 41 43 168 169
183 2 41 43 168 172
184 2 41 43 168 167
185 5 41 43 39 449
186 2 168 43 41 40
187 2 168 43 41 42
188 40 170 43 168 169
189 41 170 43 39 449
190 5 168 43 39 449
191 17 142 143 146 148
192 17 142 143 146 149
193 32 146 143 142 141
194 32 146 143 142 144
195 26 14 17 15 13
196 27 15 17 14 16
197 20 531 532 534 26
198 34 530 532 531 533
199 34 508 532 531 533
200 48 534 532 531 527
201 35 530 532 531 527
202 35 508 532 531 527
203 29 456 453 575 573
204 26 456 453 575 577
205 27 575 453 456 457
206 45 452 453 575 573
207 3 473 472 269 116
208 39 474 472 269 116
209 4 269 472 473 467
210 2 269 472 473 471
211 2 269 472 473 443
212 5 269 472 466 114
213 2 473 472 269 270
214 2 473 472 269 271
215 40 474 472 473 467
216 41 474 472 466 114
217 5 473 472 466 114
218 4 528 531 532 534
219 2 528 531 532 530
220 2 528 531 532 508
221 40 533 531 532 534
222 3 532 531 528 116
223 39 533 531 528 116
224 5 532 531 527 227
225 41 533 531 527 227
226 2 532 531 528 529
227 5 528 531 527 227
228 2 532 531 528 507
229 26 185 180 128 130
230 27 185 180 128 126
231 1 287 282 280 277
232 23 280 282 287 289
233 23 280 282 287 288
234 23 280 282 287 489
235 1 287 282 280 283
236 33 279 282 287 289
237 33 279 282 287 288
238 33 279 282 287 489
239 33 483 282 287 289
240 33 483 282 287 288
241 33 483 282 287 489
242 27 15 13 11 10
243 44 53 13 11 10
244 8 492 490 487 484
245 47 486 490 487 484
246 43 488 490 487 484
247 7 487 490 492 486
248 6 487 490 492 493
249 6 487 490 492 494
250 9 487 490 486 492
251 6 492 490 487 485
252 6 492 490 487 491
253 42 488 490 492 486
254 10 282 280 277 276
255 25 277 280 282 279
256 25 277 280 282 483
257 26 277 280 283 281
258 11 282 280 277 275
259 27 283 280 277 275
260 25 283 280 282 279
261 25 283 280 282 483
262 10 282 280 283 281
263 12 282 280 283 285
264 28 277 280 283 285
265 18 379 223 357 354
266 46 357 223 379 193
267 19 379 223 357 359
268 38 224 223 357 359
269 38 222 223 357 359
270 35 224 223 379 193
271 34 224 223 379 378
272 35 222 223 379 193
273 34 222 223 379 378
274 26 135 130 128 180
275 27 135 130 128 126
276 27 128 130 135 137
277 22 490 486 492 493
278 22 490 486 492 494
279 16 492 486 490 488
280 16 294 291 123 292
281 22 123 291 294 297
282 22 123 291 294 249
283 37 297 294 123 291
284 36 297 294 123 292
285 37 249 294 123 291
286 36 249 294 123 292
287 26 276 278 281 283
288 26 276 277 280 283
289 26 280 277 276 278
290 18 531 528 116 278
291 46 116 528 531 527
292 35 507 528 531 527
293 34 507 528 531 533
294 35 529 528 531 527
295 34 529 528 531 533
296 18 472 269 116 278
297 46 116 269 472 466
298 35 270 269 472 466
299 34 270 269 472 474
300 35 271 269 472 466
301 34 271 269 472 474
302 15 528 116 278 276
303 15 269 116 278 276
304 15 528 116 278 281
305 15 269 116 278 281
306 31 278 116 528 507
307 31 278 116 528 529
308 31 278 116 269 270
309 31 278 116 269 271
310 13 528 116 269 472
311 14 528 116 269 270
312 14 528 116 269 271
313 14 269 116 528 507
314 14 269 116 528 529
315 13 269 116 528 531
316 10 274 276 277 280
317 11 274 276 277 275
318 10 274 276 278 281
319 25 277 276 274 117
320 25 278 276 274 117
321 25 277 276 274 273
322 25 278 276 274 273
323 26 277 276 278 281
324 27 278 276 277 275
325 28 277 276 278 116
326 12 274 276 278 116
327 33 115 113 274 117
328 33 115 113 274 273
329 33 158 113 274 117
330 33 158 113 274 273
331 33 157 113 274 117
332 33 157 113 274 273
333 1 113 274 276 277
334 1 113 274 276 278
335 23 276 274 113 115
336 23 276 274 113 158
337 23 276 274 113 157
338 3 430 379 223 357
339 39 378 379 223 357
340 4 223 379 430 380
341 2 223 379 430 428
342 2 223 379 430 432
343 5 223 379 193 355
344 2 430 379 223 224
345 2 430 379 223 222
346 40 378 379 430 380
347 41 378 379 193 355
348 5 430 379 193 355
349 20 379 430 380 384
350 34 428 430 379 378
351 34 432 430 379 378
352 48 380 430 379 193
353 35 428 430 379 193
354 35 432 430 379 193
355 17 430 380 384 386
356 17 430 380 384 388
357 32 384 380 430 432
358 32 384 380 430 428
359 26 386 384 388 392
360 27 386 384 388 387
361 27 388 384 386 382
362 27 384 388 392 335
363 45 387 388 384 380
364 44 387 388 392 335
365 29 392 388 384 380
366 27 130 128 180 179
367 45 126 128 130 129
368 44 126 128 180 179
369 29 180 128 130 129
370 26 14 12 11 13
371 27 14 12 11 10
372 27 11 12 14 16
373 17 131 129 130 135
374 17 131 129 130 128
375 32 130 129 131 133
376 32 130 129 131 134
377 3 131 251 250 155
378 39 248 251 250 155
379 4 250 251 131 129
380 2 250 251 131 134
381 2 250 251 131 133
382 5 250 251 125 153
383 2 131 251 250 102
384 2 131 251 250 103
385 40 248 251 131 129
386 41 248 251 125 153
387 5 131 251 125 153
388 29 17 14 12 9
389 45 16 14 12 9
390 26 12 14 17 15
391 27 12 14 17 18
392 44 16 14 17 18
393 26 17 14 12 11
394 17 8 9 12 14
395 17 8 9 12 11
396 32 12 9 8 6
397 32 12 9 8 7
398 36 493 492 490 488
399 36 494 492 490 488
400 37 493 492 490 486
401 37 494 492 490 486
402 29 13 11 12 9
403 45 10 11 12 9
404 26 12 11 13 15
405 27 12 11 13 53
406 29 232 234 238 241
407 45 118 234 238 241
408 26 238 234 232 233
409 27 238 234 232 230
410 44 118 234 232 230
411 26 232 234 238 239
412 26 234 232 233 235
413 27 233 232 234 118
414 29 390 386 384 380
415 26 390 386 384 388
416 27 384 386 390 391
417 45 382 386 384 380
418 26 334 392 388 384
419 27 334 392 388 387
420 26 218 425 374 371
421 27 218 425 374 376
422 44 426 425 374 376
423 26 374 425 218 216
424 20 251 131 129 130
425 34 134 131 251 248
426 34 133 131 251 248
427 48 129 131 251 125
428 35 134 131 251 125
429 35 133 131 251 125
430 1 545 63 64 66
431 23 64 63 545 576
432 23 64 63 545 572
433 23 64 63 545 546
434 1 545 63 64 65
435 33 98 63 545 576
436 33 98 63 545 572
437 33 98 63 545 546
438 33 539 63 545 576
439 33 539 63 545 572
440 33 539 63 545 546
441 15 257 72 70 68
442 31 70 72 257 254
443 31 70 72 257 258
444 15 257 72 70 67
445 26 326 323 321 320
446 26 321 323 326 325
447 26 68 70 67 65
448 30 68 70 72 74
449 30 67 70 72 74
450 26 68 66 64 65
451 26 64 66 68 70
452 10 71 68 66 64
453 11 71 68 66 100
454 10 71 68 70 67
455 25 66 68 71 75
456 25 70 68 71 75
457 25 66 68 71 101
458 25 70 68 71 101
459 26 66 68 70 67
460 27 70 68 66 100
461 12 71 68 70 72
462 28 66 68 70 72
463 15 569 327 325 326
464 31 325 327 569 567
465 31 325 327 569 451
466 15 569 327 325 322
467 10 152 322 325 326
468 10 152 322 320 321
469 25 320 322 152 154
470 25 320 322 152 151
471 25 320 322 152 150
472 25 325 322 152 154
473 25 325 322 152 151
474 25 325 322 152 150
475 12 152 322 320 317
476 28 325 322 320 317
477 12 152 322 325 327
478 28 320 322 325 327
479 26 321 320 322 325
480 30 322 320 317 464
481 30 321 320 317 464
482 26 326 325 322 320
483 30 326 325 327 156
484 30 322 325 327 156
485 10 328 326 323 321
486 11 328 326 323 324
487 10 328 326 325 322
488 25 323 326 328 385
489 25 325 326 328 385
490 25 323 326 328 332
491 25 325 326 328 332
492 26 323 326 325 322
493 27 325 326 323 324
494 12 328 326 325 327
495 28 323 326 325 327
496 18 568 569 327 325
497 46 327 569 568 564
498 19 568 569 327 156
499 38 567 569 327 156
500 38 451 569 327 156
501 35 567 569 568 564
502 34 567 569 568 565
503 35 451 569 568 564
504 34 451 569 568 565
505 1 204 71 68 66
506 1 204 71 68 70
507 23 68 71 204 203
508 23 68 71 204 202
509 23 68 71 204 205
510 33 203 204 71 75
511 33 203 204 71 101
512 33 202 204 71 75
513 33 202 204 71 101
514 33 205 204 71 75
515 33 205 204 71 101
516 10 319 321 323 326
517 25 323 321 319 316
518 25 323 321 319 465
519 26 323 321 320 322
520 11 319 321 323 324
521 27 320 321 323 324
522 25 320 321 319 316
523 25 320 321 319 465
524 10 319 321 320 322
525 12 319 321 320 317
526 28 323 321 320 317
527 1 383 328 326 323
528 1 383 328 326 325
529 23 326 328 383 512
530 23 326 328 383 381
531 23 326 328 383 389
532 33 512 383 328 385
533 33 512 383 328 332
534 33 381 383 328 385
535 33 381 383 328 332
536 33 389 383 328 385
537 33 389 383 328 332
538 1 510 319 321 323
539 23 321 319 510 583
540 23 321 319 510 509
541 23 321 319 510 511
542 1 510 319 321 320
543 33 316 319 510 583
544 33 316 319 510 509
545 33 316 319 510 511
546 33 465 319 510 583
547 33 465 319 510 509
548 33 465 319 510 511
549 10 63 64 66 68
550 25 66 64 63 98
551 25 66 64 63 539
552 26 66 64 65 67
553 11 63 64 66 100
554 27 65 64 66 100
555 25 65 64 63 98
556 25 65 64 63 539
557 10 63 64 65 67
558 28 66 64 65 542
559 12 63 64 65 542
560 20 568 571 573 575
561 34 570 571 568 565
562 34 566 571 568 565
563 48 573 571 568 564
564 35 570 571 568 564
565 35 566 571 568 564
566 10 69 67 70 68
567 10 69 67 65 64
568 25 65 67 69 46
569 25 65 67 69 44
570 25 65 67 69 48
571 25 70 67 69 46
572 25 70 67 69 44
573 25 70 67 69 48
574 12 69 67 70 72
575 28 65 67 70 72
576 12 69 67 65 542
577 28 70 67 65 542
578 15 84 317 320 322
579 31 320 317 84 82
580 31 320 317 84 552
581 15 84 317 320 321
582 26 148 146 149 25
583 27 148 146 149 147
584 27 149 146 148 145
585 29 23 22 26 534
586 45 20 22 26 534
587 26 26 22 23 30
588 27 26 22 23 21
589 44 20 22 23 21
590 26 23 22 26 32
591 26 22 23 30 33
592 27 30 23 22 20
593 1 85 89 111 268
594 1 85 89 111 91
595 23 111 89 85 110
596 23 111 89 85 83
597 23 111 89 85 87
598 10 89 111 268 267
599 11 89 111 268 266
600 10 89 111 91 112
601 25 268 111 89 225
602 25 91 111 89 225
603 25 268 111 89 62
604 25 91 111 89 62
605 26 268 111 91 112
606 27 91 111 268 266
607 28 268 111 91 95
608 12 89 111 91 95
609 27 575 577 578 579
610 45 574 577 575 573
611 44 574 577 578 579
612 29 578 577 575 573
613 3 571 568 569 327
614 39 565 568 569 327
615 4 569 568 571 573
616 2 569 568 571 570
617 2 569 568 571 566
618 5 569 568 564 329
619 2 571 568 569 567
620 2 571 568 569 451
621 40 565 568 571 573
622 41 565 568 564 329
623 5 571 568 564 329
624 33 110 85 89 225
625 33 110 85 89 62
626 33 83 85 89 225
627 33 83 85 89 62
628 33 87 85 89 225
629 33 87 85 89 62
630 10 219 218 425 374
631 11 219 218 425 426
632 10 219 218 216 188
633 11 219 218 216 215
634 25 425 218 219 221
635 25 216 218 219 221
636 25 425 218 219 427
637 25 216 218 219 427
638 26 425 218 216 188
639 27 425 218 216 215
640 27 216 218 425 426
641 10 92 112 91 111
642 10 92 112 109 267
643 25 109 112 92 93
644 25 109 112 92 94
645 25 109 112 92 38
646 25 91 112 92 93
647 25 91 112 92 94
648 25 91 112 92 38
649 12 92 112 91 95
650 28 109 112 91 95
651 28 91 112 109 155
652 12 92 112 109 155
653 18 368 372 155 109
654 46 155 372 368 370
655 35 375 372 368 370
656 34 375 372 368 366
657 35 373 372 368 370
658 34 373 372 368 366
659 15 372 155 109 112
660 15 250 155 109 112
661 15 372 155 109 267
662 15 250 155 109 267
663 31 109 155 372 375
664 31 109 155 372 373
665 31 109 155 250 102
666 31 109 155 250 103
667 13 372 155 250 251
668 14 372 155 250 102
669 14 372 155 250 103
670 14 250 155 372 375
671 14 250 155 372 373
672 13 250 155 372 368
673 26 22 26 32 33
674 27 22 26 32 535
675 27 32 26 22 20
676 29 33 32 26 534
677 45 535 32 26 534
678 26 26 32 33 30
679 27 26 32 33 36
680 17 532 534 26 22
681 17 532 534 26 32
682 32 26 534 532 508
683 32 26 534 532 530
684 26 218 216 188 371
685 27 218 216 188 184
686 4 372 368 367 369
687 2 372 368 367 365
688 2 372 368 367 364
689 40 366 368 367 369
690 3 367 368 372 155
691 39 366 368 372 155
692 5 367 368 370 37
693 41 366 368 370 37
694 2 367 368 372 373
695 5 372 368 370 37
696 2 367 368 372 375
697 26 111 91 112 109
698 29 425 374 371 369
699 26 425 374 371 188
700 27 371 374 425 426
701 45 376 374 371 369
702 20 368 367 369 371
703 34 365 367 368 366
704 34 364 367 368 366
705 48 369 367 368 370
706 35 365 367 368 370
707 35 364 367 368 370
708 26 29 24 148 146
709 27 29 24 148 145
710 44 28 24 148 145
711 26 148 24 29 25
712 27 371 188 216 215
713 45 184 188 371 369
714 44 184 188 216 215
715 29 216 188 371 369
716 3 504 108 105 95
717 39 19 108 105 95
718 4 105 108 504 501
719 2 105 108 504 506
720 2 105 108 504 582
721 5 105 108 107 96
722 2 504 108 105 106
723 2 504 108 105 104
724 40 19 108 504 501
725 41 19 108 107 96
726 5 504 108 107 96
727 26 374 371 188 216
728 27 374 371 188 184
729 27 188 371 374 376
730 18 4 3 95 91
731 46 95 3 4 1
732 35 99 3 4 1
733 34 99 3 4 5
734 35 2 3 4 1
735 34 2 3 4 5
736 20 108 504 501 500
737 34 506 504 108 19
738 34 582 504 108 19
739 48 501 504 108 107
740 35 506 504 108 107
741 35 582 504 108 107
742 26 453 575 577 578
743 27 453 575 577 574
744 27 577 575 453 452
745 18 108 105 95 91
746 46 95 105 108 107
747 35 106 105 108 107
748 34 106 105 108 19
749 35 104 105 108 107
750 34 104 105 108 19
751 15 3 95 91 111
752 15 105 95 91 111
753 15 3 95 91 112
754 15 105 95 91 112
755 31 91 95 3 99
756 31 91 95 3 2
757 31 91 95 105 106
758 31 91 95 105 104
759 13 3 95 105 108
760 14 3 95 105 106
761 14 3 95 105 104
762 14 105 95 3 99
763 14 105 95 3 2
764 13 105 95 3 4
765 4 3 4 8 9
766 2 3 4 8 7
767 2 3 4 8 6
768 40 5 4 8 9
769 3 8 4 3 95
770 39 5 4 3 95
771 5 8 4 1 97
772 41 5 4 1 97
773 2 8 4 3 2
774 5 3 4 1 97
775 2 8 4 3 99
776 29 24 148 146 143
777 26 24 148 146 149
778 27 146 148 24 28
779 45 145 148 146 143
780 17 571 573 575 453
781 17 571 573 575 577
782 32 575 573 571 566
783 32 575 573 571 570
784 18 251 250 155 109
785 46 155 250 251 125
786 35 102 250 251 125
787 34 102 250 251 248
788 35 103 250 251 125
789 34 103 250 251 248
790 26 267 109 112 91
791 20 4 8 9 12
792 34 7 8 4 5
793 34 6 8 4 5
794 48 9 8 4 1
795 35 7 8 4 1
796 35 6 8 4 1
797 17 367 369 371 374
798 17 367 369 371 188
799 32 371 369 367 364
800 32 371 369 367 365
801 17 487 484 482 479
802 32 482 484 487 485
803 32 482 484 487 491
804 17 487 484 482 480
805 10 31 30 23 22
806 25 23 30 31 35
807 25 23 30 31 34
808 26 23 30 33 32
809 27 23 30 33 36
810 11 31 30 23 21
811 27 33 30 23 21
812 25 33 30 31 35
813 25 33 30 31 34
814 11 31 30 33 36
815 10 31 30 33 32
816 29 585 470 469 467
817 45 468 470 469 467
818 26 469 470 585 516
819 27 469 470 585 584
820 44 468 470 585 584
821 26 585 470 469 331
822 26 470 585 516 333
823 27 516 585 470 468
824 16 523 519 521 525
825 22 521 519 523 522
826 22 521 519 523 526
827 26 470 469 331 333
828 27 470 469 331 330
829 27 331 469 470 468
830 10 229 231 201 404
831 11 229 231 201 237
832 10 229 231 445 397
833 11 229 231 445 444
834 25 201 231 229 228
835 25 445 231 229 228
836 25 201 231 229 226
837 25 445 231 229 226
838 26 201 231 445 397
839 27 201 231 445 444
840 27 445 231 201 237
841 17 520 358 353 350
842 17 520 358 353 352
843 32 353 358 520 518
844 32 353 358 520 524
845 9 520 521 519 523
846 8 523 521 520 358
847 6 523 521 520 518
848 6 523 521 520 524
849 6 520 521 523 522
850 6 520 521 523 526
851 42 525 521 523 519
852 43 525 521 520 358
853 47 519 521 520 358
854 7 520 521 523 519
855 21 521 520 358 353
856 36 518 520 521 525
857 36 524 520 521 525
858 37 518 520 521 519
859 37 524 520 521 519
860 26 350 353 352 348
861 27 350 353 352 290
862 27 352 353 350 517
863 37 522 523 521 519
864 36 522 523 521 525
865 37 526 523 521 519
866 36 526 523 521 525
867 26 231 201 404 400
868 27 231 201 404 409
869 44 237 201 404 409
870 26 404 201 231 445
871 3 252 247 244 173
872 39 246 247 244 173
873 4 244 247 252 461
874 2 244 247 252 459
875 2 244 247 252 253
876 5 244 247 243 175
877 2 252 247 244 245
878 2 252 247 244 242
879 40 246 247 252 461
880 41 246 247 243 175
881 5 252 247 243 175
882 26 60 190 186 182
883 27 186 190 60 61
884 10 187 186 190 60
885 25 190 186 187 189
886 25 190 186 187 183
887 26 190 186 182 181
888 27 190 186 182 178
889 11 187 186 190 192
890 27 182 186 190 192
891 25 182 186 187 189
892 25 182 186 187 183
893 11 187 186 182 178
894 10 187 186 182 181
895 29 190 60 58 59
896 45 61 60 58 59
897 26 58 60 190 186
898 27 58 60 190 192
899 44 61 60 190 192
900 26 190 60 58 181
901 24 231 229 233 232
902 24 233 229 231 201
903 24 233 229 231 445
904 24 231 229 233 235
905 27 482 480 478 476
906 45 481 480 482 484
907 44 481 480 478 476
908 29 478 480 482 484
909 26 475 478 480 482
910 27 475 478 480 481
911 27 186 182 181 51
912 44 178 182 181 51
913 29 333 331 469 467
914 45 330 331 469 467
915 26 469 331 333 516
916 27 469 331 333 272
917 37 308 311 312 313
918 36 308 311 312 315
919 37 314 311 312 313
920 36 314 311 312 315
921 10 515 516 585 470
922 25 585 516 515 513
923 25 585 516 515 514
924 26 585 516 333 331
925 27 585 516 333 272
926 11 515 516 585 584
927 27 333 516 585 584
928 25 333 516 515 513
929 25 333 516 515 514
930 11 515 516 333 272
931 10 515 516 333 331
932 10 515 475 477 479
933 11 515 475 477 562
934 10 515 475 478 480
935 11 515 475 478 476
936 25 477 475 515 513
937 25 478 475 515 513
938 25 477 475 515 514
939 25 478 475 515 514
940 26 477 475 478 480
941 27 477 475 478 476
942 27 478 475 477 562
943 24 185 187 186 190
944 24 186 187 185 136
945 24 186 187 185 180
946 24 185 187 186 182
947 20 247 252 461 462
948 34 459 252 247 246
949 34 253 252 247 246
950 48 461 252 247 243
951 35 459 252 247 243
952 35 253 252 247 243
953 27 516 333 331 330
954 44 272 333 331 330
955 24 475 515 516 585
956 24 516 515 475 477
957 24 516 515 475 478
958 24 475 515 516 333
959 26 475 477 479 482
960 27 475 477 479 563
961 44 562 477 479 563
962 26 479 477 475 478
963 26 580 456 453 575
964 27 580 456 453 452
965 44 457 456 453 452
966 26 453 456 580 578
967 26 231 445 397 400
968 27 231 445 397 396
969 29 477 479 482 484
970 26 477 479 482 480
971 27 482 479 477 562
972 45 563 479 482 484
973 29 201 404 400 402
974 26 201 404 400 397
975 27 400 404 201 237
976 45 409 404 400 402
977 17 473 467 469 470
978 17 473 467 469 331
979 32 469 467 473 443
980 32 469 467 473 471
981 24 580 581 417 418
982 24 417 581 580 456
983 24 417 581 580 578
984 24 580 581 417 455
985 18 247 244 173 351
986 46 173 244 247 243
987 19 247 244 173 171
988 38 245 244 173 171
989 38 242 244 173 171
990 35 245 244 247 243
991 34 245 244 247 246
992 35 242 244 247 243
993 34 242 244 247 246
994 29 348 352 353 358
995 45 290 352 353 358
996 26 353 352 348 342
997 27 353 352 348 284
998 10 187 185 136 135
999 11 187 185 136 191
1000 10 187 185 180 128
1001 11 187 185 180 179
1002 25 136 185 187 189
1003 25 180 185 187 189
1004 25 136 185 187 183
1005 25 180 185 187 183
1006 26 136 185 180 128
1007 27 136 185 180 179
1008 27 180 185 136 191
1009 10 581 580 456 453
1010 11 581 580 456 457
1011 10 581 580 578 577
1012 11 581 580 578 579
1013 25 456 580 581 460
1014 25 578 580 581 460
1015 25 456 580 581 549
1016 25 578 580 581 549
1017 26 456 580 578 577
1018 27 456 580 578 579
1019 27 578 580 456 457
1020 26 479 482 480 478
1021 27 479 482 480 481
1022 27 480 482 479 563
1023 29 343 350 353 358
1024 45 517 350 353 358
1025 26 353 350 343 342
1026 27 353 350 343 339
1027 44 517 350 343 339
1028 26 343 350 353 352
1029 16 311 313 312 315
1030 22 312 313 311 308
1031 22 312 313 311 314
1032 9 121 123 291 294
1033 8 294 123 121 241
1034 6 294 123 121 119
1035 6 294 123 121 122
1036 6 121 123 294 297
1037 6 121 123 294 249
1038 42 292 123 294 291
1039 43 292 123 121 241
1040 47 291 123 121 241
1041 7 121 123 294 291
1042 9 310 312 313 311
1043 8 311 312 310 306
1044 6 311 312 310 309
1045 6 311 312 310 377
1046 6 310 312 311 308
1047 6 310 312 311 314
1048 42 315 312 311 313
1049 43 315 312 310 306
1050 47 313 312 310 306
1051 7 310 312 311 313
1052 10 229 233 232 234
1053 25 232 233 229 228
1054 25 232 233 229 226
1055 26 232 233 235 239
1056 27 232 233 235 236
1057 11 229 233 232 230
1058 27 235 233 232 230
1059 25 235 233 229 228
1060 25 235 233 229 226
1061 11 229 233 235 236
1062 10 229 233 235 239
1063 20 472 473 467 469
1064 34 471 473 472 474
1065 34 443 473 472 474
1066 48 467 473 472 466
1067 35 471 473 472 466
1068 35 443 473 472 466
1069 21 312 310 306 304
1070 36 309 310 312 315
1071 36 377 310 312 315
1072 37 309 310 312 313
1073 37 377 310 312 313
1074 37 207 210 211 213
1075 36 207 210 211 214
1076 37 212 210 211 213
1077 36 212 210 211 214
1078 27 233 235 239 240
1079 44 236 235 239 240
1080 21 490 487 484 482
1081 37 485 487 490 486
1082 36 485 487 490 488
1083 37 491 487 490 486
1084 36 491 487 490 488
1085 27 342 348 352 290
1086 44 284 348 352 290
1087 26 185 136 135 130
1088 27 185 136 135 137
1089 44 191 136 135 137
1090 26 135 136 185 180
1091 16 210 213 211 214
1092 22 211 213 210 207
1093 22 211 213 210 212
1094 26 415 418 417 455
1095 27 417 418 415 416
1096 9 208 211 213 210
1097 8 210 211 208 413
1098 6 210 211 208 206
1099 6 210 211 208 209
1100 6 208 211 210 207
1101 6 208 211 210 212
1102 42 214 211 210 213
1103 43 214 211 208 413
1104 47 213 211 208 413
1105 7 208 211 210 213
1106 21 211 208 413 414
1107 36 206 208 211 214
1108 36 209 208 211 214
1109 37 206 208 211 213
1110 37 209 208 211 213
1111 26 415 414 412 455
1112 27 415 414 412 411
1113 27 412 414 415 416
1114 29 418 415 414 413
1115 45 416 415 414 413
1116 26 414 415 418 417
1117 27 414 415 418 419
1118 44 416 415 418 419
1119 26 418 415 414 412
1120 17 208 413 414 415
1121 17 208 413 414 412
1122 32 414 413 208 206
1123 32 414 413 208 209
1124 29 302 305 304 306
1125 45 307 305 304 306
1126 26 304 305 302 299
1127 27 304 305 302 303
1128 29 235 239 238 241
1129 45 240 239 238 241
1130 26 238 239 235 233
1131 27 238 239 235 236
1132 17 310 306 304 301
1133 17 310 306 304 305
1134 32 304 306 310 309
1135 32 304 306 310 377
1136 26 301 304 305 302
1137 27 301 304 305 307
1138 27 305 304 301 300
1139 27 299 302 305 307
1140 44 303 302 305 307
1141 26 334 390 386 384
1142 27 334 390 386 382
1143 44 391 390 386 382
1144 26 386 390 334 392
1145 29 136 135 130 129
1146 26 136 135 130 128
1147 27 130 135 136 191
1148 45 137 135 130 129
1149 10 581 417 418 415
1150 25 418 417 581 460
1151 25 418 417 581 549
1152 26 418 417 455 412
1153 27 418 417 455 454
1154 11 581 417 418 419
1155 27 455 417 418 419
1156 25 455 417 581 460
1157 25 455 417 581 549
1158 11 581 417 455 454
1159 10 581 417 455 412
1160 29 455 412 414 413
1161 45 411 412 414 413
1162 26 414 412 455 417
1163 27 414 412 455 454
1164 21 123 121 241 238
1165 36 119 121 123 292
1166 36 122 121 123 292
1167 37 119 121 123 291
1168 37 122 121 123 291
1169 26 234 238 239 235
1170 27 234 238 239 240
1171 27 239 238 234 118
1172 27 417 455 412 411
1173 44 454 455 412 411
1174 17 121 241 238 234
1175 17 121 241 238 239
1176 32 238 241 121 119
1177 32 238 241 121 122
1178 10 337 342 343 350
1179 25 343 342 337 338
1180 25 343 342 337 336
1181 26 343 342 348 352
1182 27 343 342 348 284
1183 11 337 342 343 339
1184 27 348 342 343 339
1185 25 348 342 337 338
1186 25 348 342 337 336
1187 11 337 342 348 284
1188 10 337 342 348 352
1189 10 337 334 390 386
1190 11 337 334 390 391
1191 10 337 334 392 388
1192 11 337 334 392 335
1193 25 390 334 337 338
1194 25 392 334 337 338
1195 25 390 334 337 336
1196 25 392 334 337 336
1197 26 390 334 392 388
1198 27 390 334 392 335
1199 27 392 334 390 391
1200 10 295 299 298 301
1201 25 298 299 295 293
1202 25 298 299 295 458
1203 26 298 299 302 305
1204 27 298 299 302 303
1205 11 295 299 298 296
1206 27 302 299 298 296
1207 25 302 299 295 293
1208 25 302 299 295 458
1209 11 295 299 302 303
1210 10 295 299 302 305
1211 29 298 301 304 306
1212 45 300 301 304 306
1213 26 304 301 298 299
1214 27 304 301 298 296
1215 44 300 301 298 296
1216 26 298 301 304 305
1217 24 499 295 299 298
1218 24 299 295 499 502
1219 24 299 295 499 497
1220 24 499 295 299 302
1221 10 262 267 268 111
1222 25 268 267 262 261
1223 25 268 267 262 260
1224 26 268 267 109 112
1225 11 262 267 268 266
1226 27 109 267 268 266
1227 25 109 267 262 261
1228 25 109 267 262 260
1229 10 262 267 109 112
1230 12 262 267 109 155
1231 28 268 267 109 155
1232 17 504 501 500 503
1233 17 504 501 500 498
1234 32 500 501 504 582
1235 32 500 501 504 506
1236 29 502 503 500 501
1237 26 502 503 500 498
1238 27 500 503 502 463
1239 45 505 503 500 501
1240 26 60 58 181 182
1241 27 60 58 181 51
1242 27 181 58 60 61
1243 27 146 149 25 27
1244 45 147 149 146 143
1245 44 147 149 25 27
1246 29 25 149 146 143
1247 29 182 181 58 59
1248 45 51 181 58 59
1249 26 58 181 182 186
1250 27 58 181 182 178
1251 20 79 55 59 58
1252 34 52 55 79 81
1253 34 54 55 79 81
1254 48 59 55 79 77
1255 35 52 55 79 77
1256 35 54 55 79 77
1257 17 252 461 462 255
1258 17 252 461 462 421
1259 32 462 461 252 253
1260 32 462 461 252 459
1261 27 400 397 445 444
1262 45 396 397 400 402
1263 44 396 397 445 444
1264 29 445 397 400 402
1265 26 404 400 397 445
1266 27 404 400 397 396
1267 27 397 400 404 409
1268 3 561 86 84 317
1269 39 88 86 84 317
1270 4 84 86 561 558
1271 2 84 86 561 90
1272 2 84 86 561 537
1273 5 84 86 559 318
1274 2 561 86 84 82
1275 2 561 86 84 552
1276 40 88 86 561 558
1277 41 88 86 559 318
1278 5 561 86 559 318
1279 17 406 402 400 404
1280 17 406 402 400 397
1281 32 400 402 406 408
1282 32 400 402 406 410
1283 18 405 544 542 65
1284 46 542 544 405 543
1285 35 541 544 405 543
1286 34 541 544 405 538
1287 35 548 544 405 543
1288 34 548 544 405 538
1289 3 406 405 544 542
1290 39 538 405 544 542
1291 4 544 405 406 402
1292 2 544 405 406 410
1293 2 544 405 406 408
1294 5 544 405 543 547
1295 2 406 405 544 541
1296 2 406 405 544 548
1297 40 538 405 406 402
1298 41 538 405 543 547
1299 5 406 405 543 547
1300 17 55 59 58 60
1301 17 55 59 58 181
1302 32 58 59 55 54
1303 32 58 59 55 52
1304 20 405 406 402 400
1305 34 410 406 405 538
1306 34 408 406 405 538
1307 48 402 406 405 543
1308 35 410 406 405 543
1309 35 408 406 405 543
1310 20 86 561 558 556
1311 34 90 561 86 88
1312 34 537 561 86 88
1313 48 558 561 86 559
1314 35 90 561 86 559
1315 35 537 561 86 559
1316 4 78 79 55 59
1317 2 78 79 55 52
1318 2 78 79 55 54
1319 40 81 79 55 59
1320 3 55 79 78 542
1321 39 81 79 78 542
1322 5 55 79 77 540
1323 41 81 79 77 540
1324 2 55 79 78 76
1325 5 78 79 77 540
1326 2 55 79 78 80
1327 18 86 84 317 320
1328 46 317 84 86 559
1329 19 86 84 317 464
1330 38 82 84 317 464
1331 38 552 84 317 464
1332 35 82 84 86 559
1333 34 82 84 86 88
1334 35 552 84 86 559
1335 34 552 84 86 88
1336 16 196 199 197 200
1337 22 197 199 196 198
1338 22 197 199 196 194
1339 9 195 197 199 196
1340 8 196 197 195 394
1341 6 196 197 195 163
1342 6 196 197 195 398
1343 6 195 197 196 198
1344 6 195 197 196 194
1345 42 200 197 196 199
1346 43 200 197 195 394
1347 47 199 197 195 394
1348 7 195 197 196 199
1349 18 79 78 542 65
1350 46 542 78 79 77
1351 35 80 78 79 77
1352 34 80 78 79 81
1353 35 76 78 79 77
1354 34 76 78 79 81
1355 15 78 542 65 64
1356 15 544 542 65 64
1357 15 78 542 65 67
1358 15 544 542 65 67
1359 31 65 542 78 80
1360 31 65 542 78 76
1361 31 65 542 544 541
1362 31 65 542 544 548
1363 13 78 542 544 405
1364 14 78 542 544 541
1365 14 78 542 544 548
1366 14 544 542 78 80
1367 14 544 542 78 76
1368 13 544 542 78 79
1369 17 561 558 556 554
1370 17 561 558 556 560
1371 32 556 558 561 537
1372 32 556 558 561 90
1373 37 198 196 197 199
1374 36 198 196 197 200
1375 37 194 196 197 199
1376 36 194 196 197 200
1377 21 197 195 394 442
1378 36 163 195 197 200
1379 36 398 195 197 200
1380 37 163 195 197 199
1381 37 398 195 197 199
1382 26 29 25 149 146
1383 27 29 25 149 147
1384 27 500 498 497 495
1385 45 496 498 500 501
1386 44 496 498 497 495
1387 29 497 498 500 501
1388 26 499 497 498 500
1389 27 499 497 498 496
1390 26 64 65 67 70
1391 27 30 33 32 535
1392 44 36 33 32 535
1393 26 255 217 424 423
1394 27 424 217 255 256
1395 26 255 462 421 423
1396 27 255 462 421 420
1397 27 421 462 255 256
1398 29 423 421 462 461
1399 45 420 421 462 461
1400 26 462 421 423 424
1401 27 462 421 423 422
1402 26 555 557 560 556
1403 27 555 557 560 536
1404 10 434 436 435 438
1405 25 435 436 434 431
1406 25 435 436 434 429
1407 26 435 436 439 393
1408 27 435 436 439 441
1409 11 434 436 435 433
1410 27 439 436 435 433
1411 25 439 436 434 431
1412 25 439 436 434 429
1413 11 434 436 439 441
1414 10 434 436 439 393
1415 24 334 337 342 343
1416 24 342 337 334 390
1417 24 342 337 334 392
1418 24 334 337 342 348
1419 26 350 343 342 348
1420 27 342 343 350 517
1421 24 218 219 424 217
1422 24 424 219 218 425
1423 24 424 219 218 216
1424 24 218 219 424 423
1425 27 436 439 393 395
1426 44 441 439 393 395
1427 29 217 255 462 461
1428 45 256 255 462 461
1429 26 462 255 217 424
1430 27 462 255 217 220
1431 44 256 255 217 220
1432 26 217 255 462 421
1433 27 556 560 557 440
1434 45 536 560 556 558
1435 44 536 560 557 440
1436 29 557 560 556 558
1437 26 554 556 560 557
1438 27 554 556 560 536
1439 27 560 556 554 551
1440 26 580 578 577 575
1441 27 580 578 577 574
1442 29 435 438 442 394
1443 45 437 438 442 394
1444 26 442 438 435 436
1445 27 442 438 435 433
1446 44 437 438 435 433
1447 26 435 438 442 393
1448 1 263 262 267 268
1449 23 267 262 263 264
1450 23 267 262 263 259
1451 23 267 262 263 265
1452 1 263 262 267 109
1453 33 261 262 263 264
1454 33 261 262 263 259
1455 33 261 262 263 265
1456 33 260 262 263 264
1457 33 260 262 263 259
1458 33 260 262 263 265
1459 10 31 29 24 148
1460 11 31 29 24 28
1461 10 31 29 25 149
1462 11 31 29 25 27
1463 25 24 29 31 35
1464 25 25 29 31 35
1465 25 24 29 31 34
1466 25 25 29 31 34
1467 26 24 29 25 149
1468 27 24 29 25 27
1469 27 25 29 24 28
1470 26 301 298 299 302
1471 27 299 298 301 300
1472 26 438 442 393 439
1473 27 438 442 393 395
1474 27 393 442 438 437
1475 26 503 500 498 497
1476 27 503 500 498 496
1477 27 498 500 503 505
1478 26 555 553 554 556
1479 27 555 553 554 551
1480 44 550 553 554 551
1481 26 554 553 555 557
1482 10 434 555 553 554
1483 11 434 555 553 550
1484 10 434 555 557 560
1485 11 434 555 557 440
1486 25 553 555 434 431
1487 25 557 555 434 431
1488 25 553 555 434 429
1489 25 557 555 434 429
1490 26 553 555 557 560
1491 27 553 555 557 440
1492 27 557 555 553 550
1493 24 555 434 436 435
1494 24 436 434 555 553
1495 24 436 434 555 557
1496 24 555 434 436 439
1497 24 29 31 30 23
1498 24 30 31 29 24
1499 24 30 31 29 25
1500 24 29 31 30 33
1501 29 439 393 442 394
1502 45 395 393 442 394
1503 26 442 393 439 436
1504 27 442 393 439 441
1505 26 111 268 267 109
1506 26 267 268 111 91
1507 10 219 424 217 255
1508 25 217 424 219 221
1509 25 217 424 219 427
1510 26 217 424 423 421
1511 27 217 424 423 422
1512 11 219 424 217 220
1513 27 423 424 217 220
1514 25 423 424 219 221
1515 25 423 424 219 427
1516 11 219 424 423 422
1517 10 219 424 423 421
1518 27 424 423 421 420
1519 44 422 423 421 420
1520 26 499 502 503 500
1521 27 499 502 503 505
1522 44 463 502 503 505
1523 26 503 502 499 497
1524 17 195 394 442 438
1525 17 195 394 442 393
1526 32 442 394 195 163
1527 32 442 394 195 398
1528 29 553 554 556 558
1529 26 553 554 556 560
1530 27 556 554 553 550
1531 45 551 554 556 558
1532 10 295 499 502 503
1533 11 295 499 502 463
1534 10 295 499 497 498
1535 11 295 499 497 495
1536 25 502 499 295 293
1537 25 497 499 295 293
1538 25 502 499 295 458
1539 25 497 499 295 458
1540 26 502 499 497 498
1541 27 502 499 497 495
1542 27 497 499 502 463
1543 26 438 435 436 439
1544 27 436 435 438 437

Impropers

1 13 281 447 446 450
2 13 281 447 446 448
3 13 281 447 450 448
4 14 446 447 450 448
5 26 347 351 356 173
6 29 41 285 286 283
7 24 345 349 354 344
8 2 403 345 346 349
9 2 403 345 340 349
10 13 349 345 346 340
11 3 403 345 346 340
12 25 49 47 174 45
13 25 177 49 47 50
14 25 347 344 349 341
15 24 165 347 344 351
16 3 345 403 401 407
17 3 345 403 401 399
18 3 345 403 407 399
19 14 401 403 407 399
20 1 162 165 347 164
21 1 162 165 347 166
22 3 162 165 164 166
23 13 347 165 164 166
24 27 176 174 47 169
25 24 361 356 351 354
26 26 349 354 356 357
27 26 280 283 281 285
28 24 56 177 49 124
29 3 165 162 160 161
30 3 165 162 160 159
31 3 165 162 161 159
32 14 160 162 161 159
33 19 257 140 142 139
34 18 257 140 142 138
35 20 257 140 139 138
36 20 142 140 139 138
37 25 176 124 177 127
38 24 447 281 278 283
39 29 223 357 359 354
40 29 244 173 171 351
41 12 15 56 177 132
42 12 15 56 177 57
43 13 15 56 132 57
44 13 177 56 132 57
45 24 56 15 13 17
46 5 43 41 40 285
47 5 43 41 42 285
48 15 40 41 42 285
49 4 43 41 40 42
50 5 140 257 254 72
51 5 140 257 258 72
52 15 254 257 258 72
53 4 140 257 254 258
54 6 140 142 143 144
55 6 140 142 143 141
56 4 140 142 144 141
57 17 144 142 141 143
58 25 174 176 124 120
59 6 43 168 169 172
60 6 43 168 169 167
61 4 43 168 172 167
62 17 172 168 167 169
63 19 41 43 168 39
64 18 41 43 168 170
65 20 41 43 39 170
66 20 168 43 39 170
67 13 356 361 363 360
68 13 356 361 363 362
69 13 356 361 360 362
70 14 363 361 360 362
71 3 282 287 289 288
72 3 282 287 289 489
73 3 282 287 288 489
74 14 289 287 288 489
75 25 14 17 15 18
76 6 531 532 534 530
77 6 531 532 534 508
78 4 531 532 530 508
79 17 530 532 508 534
80 25 456 453 575 452
81 19 269 472 473 466
82 18 269 472 473 474
83 20 269 472 466 474
84 20 473 472 466 474
85 19 528 531 532 527
86 18 528 531 532 533
87 20 528 531 527 533
88 20 532 531 527 533
89 25 128 180 185 179
90 2 287 282 279 280
91 2 287 282 483 280
92 13 280 282 279 483
93 3 287 282 279 483
94 25 15 13 11 53
95 22 487 490 492 486
96 21 487 490 492 488
97 23 487 490 486 488
98 23 492 490 486 488
99 24 282 280 283 277
100 5 379 223 224 357
101 5 379 223 222 357
102 15 224 223 222 357
103 4 379 223 224 222
104 27 128 130 135 129
105 8 123 294 297 291
106 8 123 294 249 291
107 16 297 294 249 291
108 7 123 294 297 249
109 26 276 278 281 116
110 25 276 277 280 275
111 5 531 528 507 116
112 5 531 528 529 116
113 15 507 528 529 116
114 4 531 528 507 529
115 5 472 269 270 116
116 5 472 269 271 116
117 15 270 269 271 116
118 4 472 269 270 271
119 28 528 116 269 278
120 24 274 276 277 278
121 3 274 113 115 158
122 3 274 113 115 157
123 3 274 113 158 157
124 14 115 113 158 157
125 1 113 274 276 117
126 1 113 274 276 273
127 3 113 274 117 273
128 13 276 274 117 273
129 19 223 379 430 193
130 18 223 379 430 378
131 20 223 379 193 378
132 20 430 379 193 378
133 6 379 430 380 428
134 6 379 430 380 432
135 4 379 430 428 432
136 17 428 430 432 380
137 27 388 384 386 380
138 25 384 388 392 387
139 25 130 128 180 126
140 27 14 12 11 9
141 19 250 251 131 125
142 18 250 251 131 248
143 20 250 251 125 248
144 20 131 251 125 248
145 25 12 14 17 16
146 10 490 492 486 493
147 10 490 492 486 494
148 7 490 492 493 494
149 16 493 492 494 486
150 25 13 11 12 10
151 25 238 234 232 118
152 25 234 232 233 230
153 25 390 386 384 382
154 25 388 392 334 335
155 25 218 425 374 426
156 6 251 131 129 134
157 6 251 131 129 133
158 4 251 131 134 133
159 17 134 131 133 129
160 2 545 63 98 64
161 2 545 63 539 64
162 13 64 63 98 539
163 3 545 63 98 539
164 29 257 72 74 70
165 25 326 323 321 324
166 3 63 545 576 572
167 3 63 545 576 546
168 3 63 545 572 546
169 14 576 545 572 546
170 13 322 152 154 151
171 13 322 152 154 150
172 13 322 152 151 150
173 14 154 152 151 150
174 26 67 70 68 72
175 25 68 66 64 100
176 24 71 68 66 70
177 29 569 327 156 325
178 24 152 322 325 320
179 26 321 320 322 317
180 26 322 325 326 327
181 24 328 326 323 325
182 5 568 569 567 327
183 5 568 569 451 327
184 15 567 569 451 327
185 4 568 569 567 451
186 1 204 71 68 75
187 1 204 71 68 101
188 3 204 71 75 101
189 13 68 71 75 101
190 3 71 204 203 202
191 3 71 204 203 205
192 3 71 204 202 205
193 14 203 204 202 205
194 24 319 321 320 323
195 3 319 510 583 509
196 3 319 510 583 511
197 3 319 510 509 511
198 14 583 510 509 511
199 1 383 328 326 385
200 1 383 328 326 332
201 3 383 328 385 332
202 13 326 328 385 332
203 3 328 383 512 381
204 3 328 383 512 389
205 3 328 383 381 389
206 14 512 383 381 389
207 2 510 319 316 321
208 2 510 319 465 321
209 13 321 319 316 465
210 3 510 319 316 465
211 24 63 64 65 66
212 6 568 571 573 570
213 6 568 571 573 566
214 4 568 571 570 566
215 17 570 571 566 573
216 24 69 67 70 65
217 29 84 317 464 320
218 27 149 146 148 143
219 25 26 22 23 20
220 25 22 23 30 21
221 1 85 89 111 225
222 1 85 89 111 62
223 3 85 89 225 62
224 13 111 89 225 62
225 24 89 111 268 91
226 25 575 577 578 574
227 19 569 568 571 564
228 18 569 568 571 565
229 20 569 568 564 565
230 20 571 568 564 565
231 3 89 85 110 83
232 3 89 85 110 87
233 3 89 85 83 87
234 14 110 85 83 87
235 24 219 218 425 216
236 24 92 112 91 109
237 5 368 372 375 155
238 5 368 372 373 155
239 15 375 372 373 155
240 4 368 372 375 373
241 28 372 155 250 109
242 27 22 26 32 534
243 25 33 32 26 535
244 25 188 216 218 215
245 19 372 368 367 370
246 18 372 368 367 366
247 20 372 368 370 366
248 20 367 368 370 366
249 26 111 91 112 95
250 25 425 374 371 376
251 6 368 367 369 365
252 6 368 367 369 364
253 4 368 367 365 364
254 17 365 367 364 369
255 25 29 24 148 28
256 25 371 188 216 184
257 19 105 108 504 107
258 18 105 108 504 19
259 20 105 108 107 19
260 20 504 108 107 19
261 27 188 371 374 369
262 5 4 3 99 95
263 5 4 3 2 95
264 15 99 3 2 95
265 4 4 3 99 2
266 6 108 504 501 506
267 6 108 504 501 582
268 4 108 504 506 582
269 17 506 504 582 501
270 27 577 575 453 573
271 5 108 105 106 95
272 5 108 105 104 95
273 15 106 105 104 95
274 4 108 105 106 104
275 28 3 95 105 91
276 19 3 4 8 1
277 18 3 4 8 5
278 20 3 4 1 5
279 20 8 4 1 5
280 25 24 148 146 145
281 5 251 250 102 155
282 5 251 250 103 155
283 15 102 250 103 155
284 4 251 250 102 103
285 26 112 109 267 155
286 13 112 92 93 94
287 13 112 92 93 38
288 13 112 92 94 38
289 14 93 92 94 38
290 6 4 8 9 7
291 6 4 8 9 6
292 4 4 8 7 6
293 17 7 8 6 9
294 24 31 30 33 23
295 25 469 470 585 468
296 25 470 585 516 584
297 27 470 469 331 467
298 24 229 231 201 445
299 22 523 521 520 519
300 21 523 521 520 525
301 23 523 521 519 525
302 23 520 521 519 525
303 11 521 520 358 518
304 11 521 520 358 524
305 7 521 520 518 524
306 17 518 520 524 358
307 27 350 353 352 358
308 8 521 523 522 519
309 8 521 523 526 519
310 16 522 523 526 519
311 7 521 523 522 526
312 25 231 201 404 237
313 19 244 247 252 243
314 18 244 247 252 246
315 20 244 247 243 246
316 20 252 247 243 246
317 25 60 190 186 192
318 24 187 186 182 190
319 25 58 60 190 61
320 12 233 229 231 228
321 12 233 229 231 226
322 13 233 229 228 226
323 13 231 229 228 226
324 25 482 480 478 481
325 25 480 478 475 476
326 25 186 182 181 178
327 25 333 331 469 330
328 8 312 311 308 313
329 8 312 311 314 313
330 16 308 311 314 313
331 7 312 311 308 314
332 24 515 516 333 585
333 24 515 475 477 478
334 12 186 187 185 189
335 12 186 187 185 183
336 13 186 187 189 183
337 13 185 187 189 183
338 6 247 252 461 459
339 6 247 252 461 253
340 4 247 252 459 253
341 17 459 252 253 461
342 25 516 333 331 272
343 12 516 515 475 513
344 12 516 515 475 514
345 13 516 515 513 514
346 13 475 515 513 514
347 25 475 477 479 562
348 25 580 456 453 457
349 25 397 445 231 444
350 25 477 479 482 563
351 25 201 404 400 409
352 12 417 581 580 460
353 12 417 581 580 549
354 13 417 581 460 549
355 13 580 581 460 549
356 5 247 244 245 173
357 5 247 244 242 173
358 15 245 244 242 173
359 4 247 244 245 242
360 25 348 352 353 290
361 24 187 185 136 180
362 24 581 580 456 578
363 27 480 482 479 484
364 25 353 350 343 517
365 22 294 123 121 291
366 21 294 123 121 292
367 23 294 123 291 292
368 23 121 123 291 292
369 22 311 312 310 313
370 21 311 312 310 315
371 23 311 312 313 315
372 23 310 312 313 315
373 24 229 233 235 232
374 6 472 473 467 471
375 6 472 473 467 443
376 4 472 473 471 443
377 17 471 473 443 467
378 11 312 310 306 309
379 11 312 310 306 377
380 7 312 310 309 377
381 17 309 310 377 306
382 8 211 210 207 213
383 8 211 210 212 213
384 16 207 210 212 213
385 7 211 210 207 212
386 25 233 235 239 236
387 9 490 487 485 484
388 9 490 487 491 484
389 17 485 487 491 484
390 7 490 487 485 491
391 25 342 348 352 284
392 25 185 136 135 191
393 25 415 418 417 419
394 22 210 211 208 213
395 21 210 211 208 214
396 23 210 211 213 214
397 23 208 211 213 214
398 11 211 208 413 206
399 11 211 208 413 209
400 7 211 208 206 209
401 17 206 208 209 413
402 27 415 414 412 413
403 25 414 415 418 416
404 25 302 305 304 307
405 25 235 239 238 240
406 27 301 304 305 306
407 25 299 302 305 303
408 25 334 390 386 391
409 25 136 135 130 137
410 24 581 417 455 418
411 25 455 412 414 411
412 11 123 121 241 119
413 11 123 121 241 122
414 7 123 121 119 122
415 17 119 121 122 241
416 27 234 238 239 241
417 25 417 455 412 454
418 24 337 342 348 343
419 24 337 334 390 392
420 24 295 299 302 298
421 25 304 301 298 300
422 12 299 295 499 293
423 12 299 295 499 458
424 13 299 295 293 458
425 13 499 295 293 458
426 24 262 267 109 268
427 25 502 503 500 505
428 27 60 58 181 59
429 25 146 149 25 147
430 25 182 181 58 51
431 6 79 55 59 52
432 6 79 55 59 54
433 4 79 55 52 54
434 17 52 55 54 59
435 25 400 397 445 396
436 27 397 400 404 402
437 19 84 86 561 559
438 18 84 86 561 88
439 20 84 86 559 88
440 20 561 86 559 88
441 5 405 544 541 542
442 5 405 544 548 542
443 15 541 544 548 542
444 4 405 544 541 548
445 19 544 405 406 543
446 18 544 405 406 538
447 20 544 405 543 538
448 20 406 405 543 538
449 6 405 406 402 410
450 6 405 406 402 408
451 4 405 406 410 408
452 17 410 406 408 402
453 6 86 561 558 90
454 6 86 561 558 537
455 4 86 561 90 537
456 17 90 561 537 558
457 19 78 79 55 77
458 18 78 79 55 81
459 20 78 79 77 81
460 20 55 79 77 81
461 5 86 84 82 317
462 5 86 84 552 317
463 15 82 84 552 317
464 4 86 84 82 552
465 22 196 197 195 199
466 21 196 197 195 200
467 23 196 197 199 200
468 23 195 197 199 200
469 5 79 78 80 542
470 5 79 78 76 542
471 15 80 78 76 542
472 4 79 78 80 76
473 28 78 542 544 65
474 8 197 196 198 199
475 8 197 196 194 199
476 16 198 196 194 199
477 7 197 196 198 194
478 11 197 195 394 163
479 11 197 195 394 398
480 7 197 195 163 398
481 17 163 195 398 394
482 25 149 25 29 27
483 25 500 498 497 496
484 25 498 497 499 495
485 13 67 69 46 44
486 13 67 69 46 48
487 13 67 69 44 48
488 14 46 69 44 48
489 26 64 65 67 542
490 25 30 33 32 36
491 25 255 217 424 220
492 27 255 462 421 461
493 25 423 421 462 420
494 25 560 557 555 440
495 3 262 263 264 259
496 3 262 263 264 265
497 3 262 263 259 265
498 14 264 263 259 265
499 24 434 436 439 435
500 12 342 337 334 338
501 12 342 337 334 336
502 13 342 337 338 336
503 13 334 337 338 336
504 25 350 343 342 339
505 12 424 219 218 221
506 12 424 219 218 427
507 13 424 219 221 427
508 13 218 219 221 427
509 25 436 439 393 441
510 25 462 255 217 256
511 25 556 560 557 536
512 27 560 556 554 558
513 25 577 578 580 579
514 25 442 438 435 437
515 2 263 262 261 267
516 2 263 262 260 267
517 13 267 262 261 260
518 3 263 262 261 260
519 24 31 29 24 25
520 25 301 298 299 296
521 27 438 442 393 394
522 27 498 500 503 501
523 25 555 553 554 550
524 24 434 555 553 557
525 12 436 434 555 431
526 12 436 434 555 429
527 13 436 434 431 429
528 13 555 434 431 429
529 12 30 31 29 35
530 12 30 31 29 34
531 13 30 31 35 34
532 13 29 31 35 34
533 25 439 393 442 395
534 25 111 268 267 266
535 24 219 424 423 217
536 25 424 423 421 422
537 25 499 502 503 463
538 25 553 554 556 551
539 24 295 499 502 497
540 25 438 435 436 433
