LAMMPS data file via write_data, version 4 Jul 2026, timestep = 5250250, units = real

585 atoms
11 atom types
615 bonds
18 bond types
1090 angles
35 angle types
1550 dihedrals
48 dihedral types
540 impropers
30 improper types

1.4279277972321438 19.725851212764155 xlo xhi
1.4279277972321438 19.725851212764155 ylo yhi
1.4279277972321438 19.725851212764155 zlo zhi

Masses

1 12.01115
2 12.01115
3 12.01115
4 12.01115
5 1.00797
6 1.00797
7 1.00797
8 14.0067
9 15.9994
10 15.9994
11 15.9994

Pair Coeffs # lj/class2/coul/long

1 0.054 4.01
2 0.054 4.01
3 0.054 4.01
4 0.064 4.01
5 0.02 2.995
6 0.013 1.098
7 0.013 1.098
8 0.065 4.07
9 0.24 3.535
10 0.24 3.535
11 0.24 3.535

Bond Coeffs # class2

1 1.53 299.67 -501.77 679.81
2 1.53 299.67 -501.77 679.81
3 1.53 299.67 -501.77 679.81
4 1.501 321.902 -521.821 572.163
5 1.101 345 -691.89 844.6
6 1.457 365.805 -699.637 998.484
7 1.42 400.395 -835.195 1313.01
8 1.42 400.395 -835.195 1313.01
9 1.101 345 -691.89 844.6
10 1.42 400.395 -835.195 1313.01
11 1.101 345 -691.89 844.6
12 1.42 400.395 -835.195 1313.01
13 1.417 470.836 -627.618 1327.63
14 1.0982 372.825 -803.453 894.317
15 1.412 257.775 0 0
16 1.3768 428.88 -738.235 1114.97
17 1.006 466.74 -1073.6 1251.11
18 0.965 532.506 -1282.9 2004.77

Angle Coeffs # class2

1 108.4 43.9594 -8.3924 -9.3379
2 110.77 41.453 -10.604 5.129
3 112.67 39.516 -7.443 -9.5583
4 110.77 41.453 -10.604 5.129
5 111.27 54.5381 -8.3642 -13.0838
6 112.67 39.516 -7.443 -9.5583
7 110.77 41.453 -10.604 5.129
8 111.27 54.5381 -8.3642 -13.0838
9 120.05 44.7148 -22.7352 0
10 112.444 47.2337 -10.6612 -10.2062
11 109 80 0 0
12 110.954 50.8652 -4.4522 -10.0298
13 104.5 35.7454 -10.0067 -6.2729
14 102.969 38.9739 -6.2595 -8.171
15 110.77 41.453 -10.604 5.129
16 111.91 60.7147 -13.3366 -13.0785
17 111.27 54.5381 -8.3642 -13.0838
18 105.8 52.7061 -12.109 -9.8681
19 110.77 41.453 -10.604 5.129
20 111.27 54.5381 -8.3642 -13.0838
21 111.27 54.5381 -8.3642 -13.0838
22 111 44.3234 -9.4454 0
23 111 44.3234 -9.4454 0
24 118.9 61.0226 -34.9931 0
25 117.94 35.1558 -12.4682 0
26 120 102 0 0
27 123.42 73.6781 -21.6787 0
28 110 41.6 0 0
29 107.66 39.641 -12.921 -2.4318
30 110.62 51.3137 -6.7198 -2.6003
31 108.728 58.5446 -10.8088 -12.4006
32 108.728 58.5446 -10.8088 -12.4006
33 108.728 58.5446 -10.8088 -12.4006
34 108.728 58.5446 -10.8088 -12.4006
35 107.067 45.252 -7.5558 -9.512

BondBond Coeffs

1 0 1.53 1.501
2 3.3872 1.53 1.101
3 0 1.53 1.53
4 3.3872 1.53 1.101
5 11.4318 1.53 1.42
6 0 1.53 1.53
7 3.3872 1.53 1.101
8 11.4318 1.53 1.42
9 12.0676 1.501 1.417
10 -2.1113 1.457 1.457
11 0 1.457 1.412
12 -6.4168 1.457 1.006
13 -7.1131 1.42 1.42
14 0 1.42 1.3768
15 3.3872 1.53 1.101
16 4.6217 1.53 1.457
17 11.4318 1.53 1.42
18 -9.6879 1.42 0.965
19 3.3872 1.53 1.101
20 11.4318 1.53 1.42
21 11.4318 1.53 1.42
22 0 1.501 1.501
23 2.9168 1.501 1.101
24 68.2856 1.417 1.417
25 1.0795 1.417 1.0982
26 0 1.417 1.412
27 48.4754 1.417 1.3768
28 0 1.412 1.006
29 5.3316 1.101 1.101
30 12.426 1.101 1.457
31 23.1979 1.101 1.42
32 23.1979 1.101 1.42
33 23.1979 1.101 1.42
34 23.1979 1.101 1.42
35 -1.8749 1.006 1.006

BondAngle Coeffs

1 0 0 1.53 1.501
2 20.754 11.421 1.53 1.101
3 8.016 8.016 1.53 1.53
4 20.754 11.421 1.53 1.101
5 2.6868 20.4033 1.53 1.42
6 8.016 8.016 1.53 1.53
7 20.754 11.421 1.53 1.101
8 2.6868 20.4033 1.53 1.42
9 47.0579 31.0771 1.501 1.417
10 -7.2229 -7.2229 1.457 1.457
11 0 0 1.457 1.412
12 31.8096 20.5799 1.457 1.006
13 -2.8112 -2.8112 1.42 1.42
14 0 0 1.42 1.3768
15 20.754 11.421 1.53 1.101
16 6.0876 16.5702 1.53 1.457
17 2.6868 20.4033 1.53 1.42
18 28.58 18.9277 1.42 0.965
19 20.754 11.421 1.53 1.101
20 2.6868 20.4033 1.53 1.42
21 2.6868 20.4033 1.53 1.42
22 0 0 1.501 1.501
23 26.4608 11.7717 1.501 1.101
24 28.8708 28.8708 1.417 1.417
25 20.0033 24.2183 1.417 1.0982
26 0 0 1.417 1.412
27 58.479 107.681 1.417 1.3768
28 0 0 1.412 1.006
29 18.103 18.103 1.101 1.101
30 13.4582 42.4332 1.101 1.457
31 4.6189 55.327 1.101 1.42
32 4.6189 55.327 1.101 1.42
33 4.6189 55.327 1.101 1.42
34 4.6189 55.327 1.101 1.42
35 28.0322 28.0322 1.006 1.006

Dihedral Coeffs # class2

1 -0.2802 0 -0.0678 0 -0.0122 0
2 0 0 0.0316 0 -0.1681 0
3 0.1764 0 0.1766 0 -0.5206 0
4 0.7137 0 0.266 0 -0.2545 0
5 -0.6732 0 -0.4778 0 -0.167 0
6 0 0 0.0316 0 -0.1681 0
7 0.7137 0 0.266 0 -0.2545 0
8 0.7137 0 0.266 0 -0.2545 0
9 -0.5203 0 -0.3028 0 -0.345 0
10 0 0 4.4072 0 0 0
11 0 0 1.559 0 0 0
12 0 0 3 0 0 0
13 -0.1406 0 0.4168 0 0.015 0
14 0.1904 0 -0.1342 0 -0.246 0
15 0 0 2.25 0 0 0
16 0.5302 0 0 0 -0.3966 0
17 0 0 1.5 0 0 0
18 0 0 0 0 0.05 180
19 -1.1506 0 -0.6344 0 -0.1845 0
20 0 0 0 0 0.13 180
21 0 0 0 0 0.13 180
22 0.5302 0 0 0 -0.3966 0
23 -0.0228 0 0.028 0 -0.1863 0
24 -0.2802 0 -0.0678 0 -0.0122 0
25 -0.2801 0 -0.0678 0 -0.0122 0
26 8.3667 0 1.1932 0 0 0
27 0 0 3.9661 0 0 0
28 0 0 3 0 0 0
29 0 0 4.8498 0 0 0
30 0 0 2.25 0 0 0
31 0 0 0 0 0.05 180
32 0.9513 0 0.1155 0 0.072 0
33 -0.1432 0 0.0617 0 -0.1083 0
34 -0.1432 0 0.0617 0 -0.1083 0
35 -0.1435 0 0.253 0 -0.0905 0
36 -0.1432 0 0.0617 0 -0.1083 0
37 -0.1435 0 0.253 0 -0.0905 0
38 -0.5187 0 -0.4837 0 -0.1692 0
39 -0.2428 0 0.4065 0 -0.3079 0
40 -0.1435 0 0.253 0 -0.0905 0
41 0.1863 0 -0.4338 0 -0.2121 0
42 -0.1435 0 0.253 0 -0.0905 0
43 -0.1435 0 0.253 0 -0.0905 0
44 0 0 1.8769 0 0 0
45 0 0 1.7234 0 0 0
46 0 0 0 0 0.158 180
47 -0.182 0 -0.1084 0 -0.7047 0
48 -0.182 0 -0.1084 0 -0.7047 0

AngleAngleTorsion Coeffs

1 0 108.4 120.05
2 -16.164 112.67 110.77
3 -27.3953 112.67 111.91
4 -29.042 112.67 111.27
5 -12.1038 111.27 105.8
6 -16.164 112.67 110.77
7 -29.042 112.67 111.27
8 -29.042 112.67 111.27
9 -19.0059 111.27 104.5
10 -14.4097 120.05 118.9
11 4.4444 120.05 117.94
12 0 120.05 120
13 -24.3818 112.444 111.91
14 -12.5567 112.444 110.62
15 0 109 120
16 -16.4438 104.5 108.728
17 0 102.969 123.42
18 0 111.91 109
19 -7.5499 111.91 110.954
20 0 111.27 102.969
21 0 111.27 102.969
22 -16.4438 104.5 108.728
23 0 108.4 110.77
24 0 111 120.05
25 -5.8888 120.05 111
26 0 118.9 118.9
27 -4.8141 118.9 117.94
28 0 118.9 120
29 -21.0247 118.9 123.42
30 0 120 110
31 0 109 110.62
32 0 102.969 108.728
33 -12.564 110.77 110.77
34 -12.564 110.77 110.77
35 -20.2006 110.77 111.27
36 -12.564 110.77 110.77
37 -20.2006 110.77 111.27
38 -10.4258 110.62 110.954
39 -15.7572 110.77 111.91
40 -20.2006 110.77 111.27
41 -10.5093 108.728 105.8
42 -20.2006 110.77 111.27
43 -20.2006 110.77 111.27
44 0.3598 117.94 117.94
45 4.2296 117.94 123.42
46 0 111.91 111.27
47 -14.0484 111.27 111.27
48 -14.0484 111.27 111.27

EndBondTorsion Coeffs

1 0 0 0 0 0 0 1.53 1.417
2 0.2486 0.2422 -0.0925 0.0814 0.0591 0.2219 1.53 1.101
3 0.1032 0.5896 -0.4836 0.0579 -0.0043 -0.1906 1.53 1.457
4 -0.319 0.4411 -0.7174 1.1538 0.8409 -0.9138 1.53 1.42
5 -0.58 0.9004 0 0 0.5343 0.9025 1.53 0.965
6 0.2486 0.2422 -0.0925 0.0814 0.0591 0.2219 1.53 1.101
7 -0.319 0.4411 -0.7174 1.1538 0.8409 -0.9138 1.53 1.42
8 -0.319 0.4411 -0.7174 1.1538 0.8409 -0.9138 1.53 1.42
9 -0.2456 1.0517 -0.7795 0.4741 1.2635 0.5576 1.53 1.42
10 0 0.2421 0 0 -0.6918 0 1.501 1.417
11 0 -1.797 0 0 -0.4879 0 1.501 1.0982
12 0 0 0 0 0 0 1.501 1.412
13 -0.0128 -0.0495 -0.1079 0.0997 -0.0046 -0.2657 1.457 1.53
14 0.0628 0.0873 -0.0882 -0.5892 0.714 0.3505 1.457 1.101
15 0 0 0 0 0 0 1.457 1.417
16 -0.162 0.1564 -1.1408 -0.6054 1.3339 0.9648 1.42 1.101
17 0 0 0 0 0 0 1.42 1.417
18 0 0 0 0 0 0 1.53 1.412
19 -0.9466 0.9356 -0.5542 0.057 0.0625 0.4112 1.53 1.006
20 0 0 0 0 0 0 1.53 1.3768
21 0 0 0 0 0 0 1.53 1.3768
22 -0.162 0.1564 -1.1408 -0.6054 1.3339 0.9648 1.42 1.101
23 0 0 0 0 0 0 1.501 1.101
24 0 0 0 0 0 0 1.501 1.417
25 -0.5835 1.122 0.3978 1.3997 0.7756 0 1.417 1.101
26 -0.1185 6.3204 0 -0.1185 6.3204 0 1.417 1.417
27 0 -6.8958 0 0 -0.4669 0 1.417 1.0982
28 0 0 0 0 0 0 1.417 1.412
29 0 0.2655 0 0 4.8905 0 1.417 1.3768
30 0 0 0 0 0 0 1.417 1.006
31 0 0 0 0 0 0 1.412 1.101
32 0 0 0 0 0 0 1.3768 1.101
33 0.213 0.312 0.0777 0.213 0.312 0.0777 1.101 1.101
34 0.213 0.312 0.0777 0.213 0.312 0.0777 1.101 1.101
35 0.9681 0.9551 0.0436 0.5903 0.6669 0.8584 1.101 1.42
36 0.213 0.312 0.0777 0.213 0.312 0.0777 1.101 1.101
37 0.9681 0.9551 0.0436 0.5903 0.6669 0.8584 1.101 1.42
38 -1.1685 0.9266 -0.0993 0.085 0.3061 0.2104 1.101 1.006
39 0.196 0.7056 0.112 0.1022 0.209 0.6433 1.101 1.457
40 0.9681 0.9551 0.0436 0.5903 0.6669 0.8584 1.101 1.42
41 -1.7554 1.3145 0.2263 0.2493 0.6803 0 1.101 0.965
42 0.9681 0.9551 0.0436 0.5903 0.6669 0.8584 1.101 1.42
43 0.9681 0.9551 0.0436 0.5903 0.6669 0.8584 1.101 1.42
44 0 -0.689 0 0 -0.689 0 1.0982 1.0982
45 0 -1.5867 0 0 4.2641 0 1.0982 1.3768
46 0 0 0 0 0 0 1.457 1.42
47 1.0165 0.7553 -0.4609 1.0165 0.7553 -0.4609 1.42 1.42
48 1.0165 0.7553 -0.4609 1.0165 0.7553 -0.4609 1.42 1.42

MiddleBondTorsion Coeffs

1 0 0 0 1.501
2 -14.879 -3.6581 -0.3138 1.53
3 -15.4174 -7.3055 -1.0749 1.53
4 -21.8842 -7.6764 -0.6868 1.53
5 1.2472 0 0.7485 1.42
6 -14.879 -3.6581 -0.3138 1.53
7 -21.8842 -7.6764 -0.6868 1.53
8 -21.8842 -7.6764 -0.6868 1.53
9 -5.9288 -2.7007 -0.3175 1.42
10 0 9.1792 0 1.417
11 0 3.9421 0 1.417
12 0 0 0 1.417
13 -8.0036 -7.7321 -3.064 1.457
14 -6.4529 -6.8122 -1.1632 1.457
15 0 0 0 1.412
16 -6.8007 -4.6546 -1.4101 1.42
17 0 0 0 1.3768
18 0 0 0 1.457
19 -2.2208 0.5479 -0.3527 1.457
20 0 0 0 1.42
21 0 0 0 1.42
22 -6.8007 -4.6546 -1.4101 1.42
23 0 0 0 1.53
24 0 0 0 1.501
25 -5.5679 1.4083 0.301 1.501
26 27.5989 -2.312 0 1.417
27 0 -1.1521 0 1.417
28 0 0 0 1.417
29 0 4.8255 0 1.417
30 0 0 0 1.412
31 0 0 0 1.457
32 0 0 0 1.42
33 -14.261 -0.5322 -0.4864 1.53
34 -14.261 -0.5322 -0.4864 1.53
35 -16.7975 -1.2296 -0.275 1.53
36 -14.261 -0.5322 -0.4864 1.53
37 -16.7975 -1.2296 -0.275 1.53
38 -3.4611 1.6996 -0.6007 1.457
39 -10.4959 -0.7647 -0.0545 1.53
40 -16.7975 -1.2296 -0.275 1.53
41 0 0.9241 -0.5889 1.42
42 -16.7975 -1.2296 -0.275 1.53
43 -16.7975 -1.2296 -0.275 1.53
44 0 4.8228 0 1.417
45 0 5.5432 0 1.417
46 0 0 0 1.53
47 -17.2585 -3.6157 -0.8364 1.53
48 -17.2585 -3.6157 -0.8364 1.53

BondBond13 Coeffs

1 0 1.53 1.417
2 0 1.53 1.101
3 0 1.53 1.457
4 0 1.53 1.42
5 0 1.53 0.965
6 0 1.53 1.101
7 0 1.53 1.42
8 0 1.53 1.42
9 0 1.53 1.42
10 2.5085 1.501 1.417
11 0.8743 1.501 1.0982
12 0 1.501 1.412
13 0 1.457 1.53
14 0 1.457 1.101
15 0 1.457 1.417
16 0 1.42 1.101
17 0 1.42 1.417
18 0 1.53 1.412
19 0 1.53 1.006
20 0 1.53 1.3768
21 0 1.53 1.3768
22 0 1.42 1.101
23 0 1.501 1.101
24 0 1.501 1.417
25 -3.4826 1.417 1.101
26 53 1.417 1.417
27 -6.2741 1.417 1.0982
28 0 1.417 1.412
29 -2.2436 1.417 1.3768
30 0 1.417 1.006
31 0 1.412 1.101
32 0 1.3768 1.101
33 0 1.101 1.101
34 0 1.101 1.101
35 0 1.101 1.42
36 0 1.101 1.101
37 0 1.101 1.42
38 0 1.101 1.006
39 0 1.101 1.457
40 0 1.101 1.42
41 0 1.101 0.965
42 0 1.101 1.42
43 0 1.101 1.42
44 -1.7077 1.0982 1.0982
45 2.0517 1.0982 1.3768
46 0 1.457 1.42
47 0 1.42 1.42
48 0 1.42 1.42

AngleTorsion Coeffs

1 0 0 0 0 0 0 108.4 120.05
2 -0.2454 0 -0.1136 0.3113 0.4516 -0.1988 112.67 110.77
3 -1.9225 -1.345 0.221 2.0125 0.944 -2.7612 112.67 111.91
4 0.5623 -0.3041 -0.4015 0.9672 -0.7566 -1.2331 112.67 111.27
5 -3.5903 2.5225 0.4888 0.8726 -0.3577 0.3888 111.27 105.8
6 -0.2454 0 -0.1136 0.3113 0.4516 -0.1988 112.67 110.77
7 0.5623 -0.3041 -0.4015 0.9672 -0.7566 -1.2331 112.67 111.27
8 0.5623 -0.3041 -0.4015 0.9672 -0.7566 -1.2331 112.67 111.27
9 -2.7466 1.4877 -0.8955 0.5676 0.945 0.0703 111.27 104.5
10 0 -4.4683 0 0 3.8987 0 120.05 118.9
11 0 -0.1242 0 0 3.4601 0 120.05 117.94
12 0 0 0 0 0 0 120.05 120
13 1.2031 1.3645 -0.7071 -2.7883 1.5193 1.4796 112.444 111.91
14 -1.3582 0.1465 -0.5729 -2.6321 0.9353 -0.8398 112.444 110.62
15 0 0 0 0 0 0 109 120
16 -0.7777 0.434 -0.6653 -1.8234 1.6393 0.5144 104.5 108.728
17 0 0 0 0 0 0 102.969 123.42
18 0 0 0 0 0 0 111.91 109
19 -3.343 4.4558 -0.0346 0.2873 -0.8072 -0.096 111.91 110.954
20 0 0 0 0 0 0 111.27 102.969
21 0 0 0 0 0 0 111.27 102.969
22 -0.7777 0.434 -0.6653 -1.8234 1.6393 0.5144 104.5 108.728
23 0 0 0 0 0 0 108.4 110.77
24 0 0 0 0 0 0 111 120.05
25 0.2251 0.6548 0.1237 4.6266 0.1632 0.0461 120.05 111
26 1.9767 1.0239 0 1.9767 1.0239 0 118.9 118.9
27 0 2.5014 0 0 2.7147 0 118.9 117.94
28 0 0 0 0 0 0 118.9 120
29 0 10.0155 0 0 1.7404 0 118.9 123.42
30 0 0 0 0 0 0 120 110
31 0 0 0 0 0 0 109 110.62
32 0 0 0 0 0 0 102.969 108.728
33 -0.8085 0.5569 -0.2466 -0.8085 0.5569 -0.2466 110.77 110.77
34 -0.8085 0.5569 -0.2466 -0.8085 0.5569 -0.2466 110.77 110.77
35 2.3668 2.492 -1.0122 -0.1892 0.4918 0.7273 110.77 111.27
36 -0.8085 0.5569 -0.2466 -0.8085 0.5569 -0.2466 110.77 110.77
37 2.3668 2.492 -1.0122 -0.1892 0.4918 0.7273 110.77 111.27
38 -3.9582 2.0063 0.3213 -0.4294 -0.4442 -0.6141 110.62 110.954
39 0.5111 1.6328 -1.0155 -1.1075 0.282 0.8318 110.77 111.91
40 2.3668 2.492 -1.0122 -0.1892 0.4918 0.7273 110.77 111.27
41 -3.406 1.6396 0.0737 0 -0.281 -0.5944 108.728 105.8
42 2.3668 2.492 -1.0122 -0.1892 0.4918 0.7273 110.77 111.27
43 2.3668 2.492 -1.0122 -0.1892 0.4918 0.7273 110.77 111.27
44 0 2.4501 0 0 2.4501 0 117.94 117.94
45 0 1.8729 0 0 2.5706 0 117.94 123.42
46 0 0 0 0 0 0 111.91 111.27
47 0.5511 0.9737 -0.6673 0.5511 0.9737 -0.6673 111.27 111.27
48 0.5511 0.9737 -0.6673 0.5511 0.9737 -0.6673 111.27 111.27

Improper Coeffs # class2

1 0 0
2 0 0
3 0 0
4 0 0
5 0 0
6 0 0
7 0 0
8 0 0
9 0 0
10 0 0
11 0 0
12 0 0
13 0 0
14 0 0
15 0 0
16 0 0
17 0 0
18 0 0
19 0 0
20 0 0
21 0 0
22 0 0
23 0 0
24 7.8153 0
25 4.8912 0
26 0 0
27 13.0421 0
28 0 0
29 0 0
30 0 0

AngleAngle Coeffs

1 2.0403 -1.8202 1.0827 108.4 110.77 111
2 1.0827 -1.8202 2.0403 110.77 108.4 111
3 0.2738 -0.4825 0.2738 110.77 110.77 107.66
4 0.2738 -0.4825 0.2738 110.77 110.77 107.66
5 2.4286 0.5381 -2.5301 110.77 111.91 110.62
6 0.1689 2.5926 3.9177 111.27 110.77 108.728
7 0.2738 -0.4825 0.2738 110.77 110.77 107.66
8 3.9177 2.5926 0.1689 110.77 111.27 108.728
9 3.9177 2.5926 0.1689 110.77 111.27 108.728
10 0.1689 2.5926 3.9177 111.27 110.77 108.728
11 0.1689 2.5926 3.9177 111.27 110.77 108.728
12 0 0 0 111 111 111
13 2.3794 3.0118 2.3794 111 111 107.66
14 -0.3157 -0.3157 -0.3157 107.66 107.66 107.66
15 2.4321 2.4321 -3.5496 107.66 110.62 110.62
16 2.4259 2.4259 2.1283 107.66 108.728 108.728
17 2.4259 2.4259 2.1283 107.66 108.728 108.728
18 -1.3199 -1.3199 0.1184 112.67 110.77 110.77
19 -0.833 -0.833 -3.5744 112.67 111.27 111.27
20 0.1689 2.5926 3.9177 111.27 110.77 108.728
21 -1.3199 -1.3199 0.1184 112.67 110.77 110.77
22 -0.833 -0.833 -3.5744 112.67 111.27 111.27
23 0.1689 2.5926 3.9177 111.27 110.77 108.728
24 0 0 0 120.05 120.05 118.9
25 0 0 0 118.9 117.94 117.94
26 0 0 0 118.9 120 120
27 0 0 0 118.9 123.42 123.42
28 0 0 0 112.444 109 109
29 0 0 0 110.954 109 110
30 0 0 0 110 110 107.067

Atoms # full

447 1 1 -0.159 3.509164550150095 5.686305513581383 3.413341056814365 0 0 0
351 1 4 0 7.364183545553586 5.291471494298978 7.772559465729249 0 1 0
446 1 5 0.053 4.364552689481827 6.306434873320082 3.529611775720077 0 0 0
285 1 8 -0.3314 3.352417100683665 8.518303174384135 3.7315164635686457 0 0 0
286 1 6 0.2487 4.196661061695493 7.9890201068817195 3.837774321856247 0 0 0
349 1 4 0 8.164383653276444 7.935578479856961 7.580801525895855 0 1 0
47 1 4 -0.1268 7.336933910292477 8.241330758377366 2.997829571435007 0 0 0
45 1 5 0.1268 7.3289748755785515 9.173789716755191 3.437028212852921 0 0 0
49 1 4 -0.1268 8.095393573329613 7.228302445554975 3.619385413432273 0 0 0
344 1 4 -0.1268 6.92781455893288 7.560193475487556 7.028599159722212 0 1 0
347 1 4 0 6.544239128546624 6.223344184056403 7.158810110470593 0 1 0
341 1 5 0.1268 6.270436186262238 8.284320130616273 6.597301163575858 0 1 0
165 1 1 -0.106 5.227733922327371 5.831599798169837 6.573439929478815 0 1 0
356 1 4 0 8.659300058417347 5.662527463773343 8.137506101137776 0 1 0
354 1 4 0 9.004282550481271 6.972252931048779 8.040945897319421 0 1 0
283 1 4 0 2.2818955002981833 7.6861048140231025 4.239145001215977 0 0 0
177 1 4 0 8.086803325225052 5.926710113994114 3.1815471050926476 0 0 0
162 1 1 -0.159 4.000824348307082 6.297676996305009 7.395344036614647 0 1 0
124 1 4 -0.1268 7.429929842399625 5.592897664043956 1.9663659205075228 0 0 0
166 1 5 0.053 5.120067889490208 4.734472610571367 6.361150984575182 0 1 0
164 1 5 0.053 5.198822221020508 6.252641841502499 5.5918353907413305 0 1 0
173 1 8 -0.3314 6.9858808158389305 3.9151855769652513 8.005657868356877 0 1 0
171 1 6 0.2487 7.781082652547207 3.4140571266310076 8.401137769660526 0 1 0
56 1 1 -0.106 8.598428590175757 4.796381298782277 4.0426611421701155 0 0 0
448 1 5 0.053 3.705545627780912 4.671443250199005 3.853990177591872 0 0 0
450 1 5 0.053 3.2712059883028655 5.585554107047736 2.3713277832890594 0 0 0
159 1 5 0.053 3.1948668728151626 5.756494273593803 6.930840047872235 0 1 0
161 1 5 0.053 3.823771284616435 7.365390095195896 7.228152644790896 0 1 0
245 1 5 0.053 4.96606949959844 4.333713638419982 8.607694626934649 0 1 0
244 1 1 -0.0233 5.875070615272187 3.8360547820816344 9.058989682429468 0 1 0
167 1 5 0.053 5.612827549427757 10.270389182655922 2.529726279170032 0 0 0
160 1 5 0.053 4.019814767644668 5.952379842715133 8.50114739015951 0 1 0
57 1 5 0.053 8.470108661123989 5.176390011352225 5.048105618396242 0 0 0
345 1 1 -0.106 8.524288402390486 9.447086008200804 7.664552848486138 0 1 0
247 1 2 0.08 5.640723841624935 2.3503004292165057 9.604568221629242 0 1 0
50 1 5 0.1268 8.573250247080011 7.550453627183334 4.553840769807314 0 0 0
281 1 4 0 2.212396375768207 6.276614904270293 4.0193330495614745 0 0 0
132 1 5 0.053 8.035945718440813 3.900109710258755 3.8627903220019495 0 0 0
246 1 5 0.053 5.159744283315469 1.6986057299058204 8.83798225334624 0 1 0
527 1 11 -0.5571 3.4338690232851428 2.3257796843161134 4.826029007127561 1 0 1
531 1 2 0.08 2.0886591538241372 1.9605229694877604 5.1488130007643536 1 0 1
468 1 5 0.1268 5.416919176505534 3.038460642275426 2.901497781217417 1 1 1
227 1 7 0.4241 3.3239581912127507 3.036652886156327 4.158207139323736 0 0 0
242 1 5 0.053 6.1354130136178835 4.521555395624384 9.888628188525606 0 1 0
467 1 10 -0.1595 3.116126404409959 3.0571049457693755 1.738606190676113 1 1 1
361 1 1 -0.159 9.470277382187883 4.711819160323982 9.020045933294352 0 1 0
41 1 1 -0.0233 3.152125016152412 8.599999624331067 2.300302640062387 0 0 0
403 1 1 -0.159 9.407725341794725 9.798366415713165 6.444088400087091 0 1 0
362 1 5 0.053 8.922079521668316 4.021115792670612 9.72091433626776 0 1 0
18 1 5 0.1268 9.686571414298443 3.765348904388373 1.948533872504382 0 0 0
42 1 5 0.053 2.0596104963950994 8.572878481429338 2.057007564952636 0 0 0
74 1 6 0.2487 4.7605374986029165 10.20477974276767 8.895331750902349 0 0 0
72 1 8 -0.3314 5.42086342924295 10.261104487776118 9.578633120106446 0 0 0
15 1 4 0 10.078498418008952 4.444814606303154 3.885071601782584 0 0 0
360 1 5 0.053 10.038649675449152 4.0187746584849755 8.312235138190472 0 1 0
508 1 5 0.053 2.446855487922508 1.8872726431616584 7.258253523600668 1 0 1
175 1 7 0.4241 3.853510940887713 2.2670056613530885 10.44390380053172 0 1 0
17 1 4 -0.1268 10.446150250638361 3.846832216154232 2.6623158662889628 0 0 0
138 1 5 0.053 2.983522459105001 8.884189124010671 10.3213026578289 1 -1 1
470 1 4 -0.1268 5.360226581690746 2.473688587993491 1.8925525549669904 1 1 1
420 1 5 0.1268 9.897909114282681 1.7182306796683258 7.4913491969539745 0 1 0
363 1 5 0.053 10.078564585406104 5.303265480156776 9.732713587916693 0 1 0
279 1 5 0.053 2.022181971781393 10.410431939714288 4.967387614539402 0 0 0
399 1 5 0.053 9.985995707103251 8.941523925154623 6.032708688375117 0 1 0
401 1 5 0.053 8.621980214796867 9.986430704954625 5.6558226326156955 0 1 0
489 1 5 0.053 2.423619808353457 9.244492981626015 7.303114610351297 0 0 0
359 1 6 0.2487 10.452335819223595 8.52860688304397 8.174747474452598 0 1 0
357 1 8 -0.3314 10.405686447980646 7.500940899722395 8.351561021406006 0 1 0
512 2 5 0.053 8.293289288619352 1.9220877830804213 5.596225657220855 0 0 1
287 1 1 -0.159 1.5136569779625277 9.75112150784522 6.95749125013251 0 0 0
346 1 5 0.053 9.038821069862882 9.620282409669015 8.607724204184038 0 1 0
340 1 5 0.053 7.635394319888393 10.115912926928518 7.555224770830672 0 1 0
584 1 5 0.1268 7.3583396009269 1.7816737484208327 2.1318493071210316 1 1 1
507 1 5 0.053 1.6763966221591002 3.9644704264168507 6.031554773961267 1 0 1
381 2 5 0.053 6.974733368061274 19.64579680799116 4.478308926201439 0 -1 1
40 1 5 0.053 3.456409072850029 7.626447644989989 1.8226553027405612 0 0 0
252 1 1 0.027 6.915482862797621 1.571587300094506 10.062013115131464 0 1 0
533 1 5 0.053 1.7148390106435973 19.518970701683298 4.387949944096169 1 -1 1
258 1 5 0.053 5.337499131041218 8.237216900777625 10.221803790460653 1 -1 1
174 1 4 0.0265 6.617873945716844 7.950635592742523 1.7735174137327938 0 0 0
127 1 5 0.1268 7.310723843543126 4.573821769981444 1.6475999170704476 0 0 0
168 1 1 0.027 5.183037628870478 10.03093226724708 1.5375271991728192 0 0 0
43 1 2 0.08 3.6805037359764143 9.819219629864069 1.5597150332381693 0 0 0
53 1 5 0.1268 10.71889423968262 4.776680037416419 5.834571341104531 0 0 0
13 1 4 -0.1268 11.012579634398415 4.497366959001303 4.866835530672675 0 0 0
528 1 1 -0.0233 19.47623505733371 3.2747710095382105 5.240755104130139 0 0 1
288 1 5 0.053 18.945129240693994 9.375100862131347 7.524801709988269 -1 0 0
134 1 5 0.053 17.086755012876555 8.408734868788162 2.270796272994214 0 0 0
131 1 1 0.027 16.451293145584167 9.35555000484574 2.1227289278117887 0 0 0
130 1 4 0.0265 14.079316022373646 8.729784426874357 2.1286969064695427 0 0 0
280 1 4 0 19.533110273883388 8.252793237748268 4.9873941773316375 -1 0 0
282 1 1 -0.106 19.582582767909315 9.688946737734934 5.449692088880478 -1 0 0
222 1 5 0.053 11.079678364167904 6.767435004064302 6.318319263229448 -1 0 0
278 1 4 0 19.390934878104023 5.536910354378075 4.348793792236528 -1 0 0
116 1 8 -0.1654 19.42824643037328 4.112106289177307 4.030420200293092 -1 0 0
179 1 5 0.1268 11.313076244369023 6.784458110830167 2.5088213001832966 0 0 0
180 1 4 -0.1268 12.111357850606845 7.380608003167205 1.948742229440183 0 0 0
529 1 5 0.053 18.507851320496815 2.9808871342039565 5.679521323668005 0 0 1
249 1 5 0.053 16.66952958436847 1.7547286992415227 8.695458130885733 -1 0 0
297 1 5 0.053 14.851858595885343 1.7900971336456224 8.531514701365928 -1 0 0
123 1 3 0.08 15.66330619246653 3.6836962699413975 9.390527012420222 -1 0 0
223 1 1 -0.0233 11.439532783701452 6.948027877475807 7.4212901666465125 -1 0 0
224 1 5 0.053 11.669773202108416 5.977433793110865 7.834911095075086 -1 0 0
291 1 9 -0.266 15.817580604092678 3.585544481556548 7.943018147167435 -1 0 0
270 1 5 0.053 17.52915222763046 4.245829309987158 3.048891413998412 0 1 1
277 1 4 -0.1268 18.392319579821503 7.462661998454891 5.249059906456965 -1 0 0
269 1 1 -0.0233 18.47531005377995 3.7335805635618544 2.9876748006248253 0 1 1
115 1 5 0.053 14.902393688623395 5.4695419999840915 4.909519317490626 -1 0 0
157 1 5 0.053 15.673884538694368 7.0919820008374055 4.768535597308607 -1 0 0
276 1 4 0 18.245493958419377 6.160781386132346 4.888543464293761 -1 0 0
113 1 1 -0.159 15.778774402095696 5.997496386801176 4.550495257701214 -1 0 0
117 1 5 0.053 16.790487975738436 5.538394905864297 6.4169488330650255 -1 0 0
274 1 1 -0.106 16.996672820878864 5.49265558746814 5.301719154976803 -1 0 0
158 1 5 0.053 15.79507432611659 5.835877260593363 3.4436604756929445 -1 0 0
193 1 11 -0.5571 12.371341598379198 9.011862779705398 6.592772043443966 -1 0 0
275 1 5 0.1268 17.5644996278833 7.996761830617989 5.7522004032208365 -1 0 0
379 1 2 0.08 12.699515888390364 7.802456870352887 7.358138519225295 -1 0 0
273 1 5 0.053 16.99405867399215 4.4104841164617525 5.11108499092256 -1 0 0
428 1 5 0.053 13.511181071967059 7.000508756532993 9.216746589333358 -1 0 0
430 1 1 0.027 13.421535186111722 7.979175919240932 8.689038554350265 -1 0 0
378 1 5 0.053 13.39472685228023 7.233865278718282 6.707216396043627 -1 0 0
380 1 10 -0.1595 14.81477315677609 8.443320626514758 8.458960928626638 -1 0 0
11 1 4 -0.1268 12.246673630770532 3.868968294282015 4.707571749738863 0 0 0
10 1 5 0.1268 12.933284167163542 3.9330492071381826 5.5607151122057905 0 0 0
271 1 5 0.053 18.216687152966415 2.659705145181004 3.1768888515865585 0 1 1
12 1 4 0.0265 12.601003743674218 3.2565588286128113 3.510005802496223 0 0 0
9 1 10 -0.1595 13.8209636955652 2.6143398432058453 3.3363219959475785 0 0 0
126 1 5 0.1268 13.353208360354508 7.476036385845922 3.7078313373765512 0 0 0
432 1 5 0.053 12.863209540031981 8.614168752421556 9.317456062760414 -1 0 0
384 1 4 0.0265 15.420009453873089 9.092291429696187 9.542576578414607 -1 0 0
387 1 5 0.1268 17.222916547030962 8.523181580506519 8.609525943634967 -1 0 0
294 1 1 0.027 15.753750374811194 2.361487560238841 8.683483958900238 -1 0 0
14 1 4 -0.1268 11.707090360569357 3.3623909739477558 2.401429905198065 0 0 0
128 1 4 -0.1268 13.191630937803065 7.823369194692827 2.6736937433568424 0 0 0
388 1 4 -0.1268 16.844619840690903 8.968111849443261 9.553825036125934 -1 0 0
241 1 10 -0.1595 18.110559410253558 3.8710367360281706 9.991563912302892 -1 0 0
121 1 1 0.027 16.792344003018066 4.412548690240374 10.198017276029557 -1 0 0
119 1 5 0.053 16.880931965028733 5.509959390202937 9.932395077018151 -1 0 0
6 1 5 0.053 15.134996869971639 3.035436436722506 4.962243009558794 0 0 0
8 1 1 0.027 14.548773543469213 2.1915501362701946 4.441384742737517 0 0 0
129 1 10 -0.1595 15.202431942896101 9.20202480137656 2.81212765726233 0 0 0
355 1 7 0.4241 13.310192340684292 9.414312798941646 6.571292847005523 0 1 0
16 1 5 0.1268 11.885016740259537 2.9686662300914692 1.4301950790604465 0 0 0
7 1 5 0.053 14.001460962289633 1.8359366938581385 5.377799147445961 0 0 0
5 1 5 0.053 15.920466523662425 1.5109212172578401 3.0157318930243795 0 0 0
370 1 11 -0.5571 15.028497685754113 10.054403910539165 5.747245193693857 0 0 0
483 1 5 0.053 18.589719369974112 10.006146495723351 5.256884872544768 -1 0 0
292 1 5 0.053 14.720067785917104 3.9919075307700473 9.688224784698475 -1 0 0
37 1 7 0.4241 15.127746346878936 10.131512127311286 4.805843934551545 0 0 0
248 1 5 0.053 17.60667278599765 10.254649349613981 3.6169228103582998 0 0 0
472 1 2 0.08 19.041629854831275 3.9503890185759243 1.5066420683413526 0 1 1
474 1 5 0.053 19.45944064004383 5.022043515616084 1.442346954882988 0 1 1
199 2 11 -0.5571 8.557370725770276 15.786194831363728 1.7530986388113554 -1 0 1
194 2 5 0.053 7.258274715358415 13.233686737542637 1.6009154144677922 -1 0 1
461 1 10 -0.1595 7.785543304650483 19.563303697860764 8.936002788620241 0 0 0
421 1 4 -0.1268 10.090405954097736 19.40094875256427 8.366594187071563 0 0 0
532 1 1 0.027 2.122293930427293 19.505521391225574 6.477274304037699 1 -1 1
462 1 4 0.0265 9.030436362955642 19.107153277525345 9.241960480510775 0 0 0
407 1 5 0.053 10.008872369521992 10.688195018496074 6.4767062974924405 0 1 0
75 1 5 0.053 3.7917420649998483 11.504955896832007 7.874786856150915 0 0 0
84 2 1 -0.0233 4.437619741689991 13.819546674259243 1.7301578024164574 0 0 1
530 1 5 0.053 2.88465270988202 18.654613822159167 6.337174834851937 1 -1 1
465 2 5 0.053 4.13277027782777 16.492049404178324 1.5942650110878764 0 -1 1
535 1 5 0.1268 2.3899959069182666 19.263421693525128 9.134416767861293 1 -1 1
552 2 5 0.053 4.706881734804258 12.732410883953882 1.9250538543886964 0 0 1
151 2 5 0.053 8.267205211328026 13.313414609312982 3.5010967351231064 0 -1 1
202 1 5 0.053 5.822612254870701 13.20299659393813 7.037971546517533 0 0 0
203 1 5 0.053 4.281950485866295 13.00036047518042 6.1818535071234875 0 0 0
205 1 5 0.053 4.439242507245293 14.42127660933864 7.213937643197651 0 0 0
324 2 5 0.1268 5.379723363594467 18.365859840128092 4.4098478248388435 0 -1 1
323 2 4 -0.1268 5.740298899034479 17.351572877224044 4.352159611877031 0 -1 1
152 2 1 -0.159 7.21447011183632 13.461377200082453 3.9489214014669565 0 -1 1
68 1 4 0 4.859899063047161 12.651972261603083 9.461691553096612 0 0 0
327 2 8 -0.3314 8.482831144201626 15.178342886356411 5.765974092025157 0 -1 1
322 2 4 0 6.780404968956481 14.88810947899655 4.038610245606353 0 -1 1
320 2 4 0 5.839083239946986 15.343152754719535 3.1015613390035415 0 -1 1
325 2 4 0 7.3456113844752275 15.696264495022646 5.029432689120959 0 -1 1
326 2 4 0 6.7929198971147775 16.99746574554588 5.1503781519089795 0 -1 1
71 1 1 -0.106 3.993393318625096 12.581112943493943 8.215121701161493 0 0 0
204 1 1 -0.159 4.705897500581659 13.33994639763371 7.10084931735665 0 0 0
101 1 5 0.053 3.0822311495074626 13.119315862879171 8.38794971486514 0 0 0
321 2 4 0 5.171509356175718 16.534999096318707 3.4185274547114606 0 -1 1
510 2 1 -0.159 2.6939225225310217 16.816585924440012 3.1699693511205016 0 -1 1
451 2 5 0.053 7.655813708838833 15.433260509168413 7.6866864659198395 0 0 0
328 2 1 -0.106 7.445268198964605 18.14173814576076 5.926632598983757 0 -1 1
319 2 1 -0.106 4.04962057321101 17.04395519349748 2.5487363072365787 0 -1 1
385 2 5 0.053 8.264323049418877 17.72966706625332 6.409981628257444 0 -1 1
316 2 5 0.053 4.144737890678501 18.065000559560936 2.3754277740467336 0 -1 1
154 2 5 0.053 7.340298216492727 13.040651965081985 4.917558150645167 0 -1 1
569 2 1 -0.0233 8.645131996437954 15.273393998553912 7.204986734868411 0 0 0
156 2 6 0.2487 8.695666657663079 14.253249184976884 5.447642086278831 0 -1 1
100 1 5 0.1268 3.9619178253006844 14.484021192823334 9.757051001919905 0 0 0
66 1 4 -0.1268 4.854029871348512 13.893594917269038 10.053734471108264 0 0 0
70 1 4 0 5.628229458464445 11.620148308845337 10.08504336693021 0 0 0
332 2 5 0.053 6.769148525605888 18.562953103452422 6.669385780249919 0 -1 1
150 2 5 0.053 6.657197796842113 12.691530732875437 3.4394209730041707 0 -1 1
567 2 5 0.053 9.17823944073023 16.173955377688188 7.517982078955021 0 0 0
571 2 1 0.027 10.174013077138016 14.31210994692808 9.026803404947223 0 0 0
566 2 5 0.053 10.638976332187472 15.290116126129114 9.056657115257954 0 0 0
570 2 5 0.053 9.521903588953805 14.426288803191639 9.93871298801596 0 0 0
583 2 5 0.053 2.6440507385840357 17.379490098220426 4.161517457402388 0 -1 1
82 2 5 0.053 3.7932222192362337 14.031960733676925 2.710420959223954 0 0 1
568 2 2 0.08 9.277255656705044 13.986587757239736 7.762322276687362 0 0 0
383 2 1 -0.159 7.893208278079493 19.348590175756527 5.004974276237529 0 -1 1
389 2 5 0.053 8.772654095520329 19.03994634898725 4.361605270760267 0 -1 1
464 2 7 0.4241 7.816764013307268 16.10152187057877 2.3796443927755333 0 -1 1
509 2 5 0.053 2.5776032534492126 15.738451102552707 3.3110043457894416 0 -1 1
125 1 11 -0.5571 18.399062002347698 10.738377705200287 1.7679082533539638 0 0 0
511 2 5 0.053 1.8381541522397267 17.15432101166239 2.578614847996623 0 -1 1
317 2 8 -0.1654 5.653038496377481 14.646776275465704 1.723288116309661 0 -1 1
255 1 4 -0.1268 9.371419576560353 18.365890008882403 10.412126489311774 0 0 0
32 1 4 -0.1268 1.4399105809408155 18.515377510082313 9.09410026348871 1 -1 1
546 1 5 0.053 4.63713759655816 16.887898629672094 9.906461482758935 0 0 0
564 2 11 -0.5571 8.20925891409049 13.072212291330995 8.020340788432652 0 0 0
289 1 5 0.053 1.6434114923166119 10.827969069139295 7.2929247622241595 0 0 0
39 1 11 -0.5571 2.9937994897663964 11.002474079476054 1.9195870937984962 0 0 0
565 2 5 0.053 9.964329070733081 13.582635541646425 6.942829607943657 0 0 0
329 2 7 0.4241 8.60374029696142 12.225840159833703 8.254213366009834 0 -1 1
376 1 5 0.1268 14.638231756512042 13.49417155241937 10.307816599803425 0 0 0
30 1 4 0 18.299623543448888 16.900095312188725 10.295184566963336 0 -1 1
250 1 1 -0.0233 16.441714301113123 11.857506643910467 2.5548092852258764 0 0 0
215 1 5 0.1268 13.437308692040917 17.33434423886507 7.540522439571639 0 0 0
23 1 4 -0.1268 17.45556390218749 16.85785734408654 9.236210715450312 0 -1 1
4 1 2 0.08 15.531987555853984 19.39888060356553 3.9399353216002426 0 -1 0
24 1 4 -0.1268 18.33671890879882 13.825598803232948 10.499246899795276 0 -1 1
364 1 5 0.053 13.919027625991742 11.43612371455375 7.681372715190118 0 0 0
259 1 5 0.053 11.846349828640683 11.980296090057413 5.275913211276158 0 0 0
87 1 5 0.053 10.70218633907948 17.63853683154379 2.3228429813582827 0 0 0
425 1 4 -0.1268 13.843200428611341 15.450499916844269 10.308897517126095 0 0 0
264 1 5 0.053 10.832487903843031 11.354647324785265 4.095553312680308 0 0 0
112 1 4 0 15.512192251008365 14.673748545643681 3.449615799411959 0 0 0
575 2 4 0.0265 11.205869698522152 12.475585540310444 10.329971399117596 0 0 0
373 1 5 0.053 17.2630685625401 11.704792819594184 4.992861965573715 0 0 0
1 1 11 -0.5571 16.491437461085972 19.25410547208993 5.009064125229843 0 -1 0
92 1 1 -0.159 16.969800290857656 14.927443286494505 3.849381669746338 0 0 0
21 1 5 0.1268 16.609920912342638 16.11657439830949 9.214875319196796 0 -1 1
265 1 5 0.053 11.055846837485777 13.088005471396603 4.079044361037797 0 0 0
260 1 5 0.053 12.391414087707396 11.94283635731451 2.270660767677911 0 0 0
267 1 4 0 13.564754530739375 13.30892813607229 3.1989884009531373 0 0 0
3 1 1 -0.0233 14.852519902509265 18.064669549713468 3.7094638193611567 0 -1 0
424 1 4 0 11.659281677980594 18.288771995116832 9.819113334048916 0 0 0
2 1 5 0.053 14.651321622365765 17.685174707422394 4.741016196044622 0 -1 0
422 1 5 0.1268 12.277311967371348 19.29146744207618 8.08814681401971 0 0 0
28 1 5 0.1268 17.740364628163896 14.163817862833453 9.641679547019569 0 -1 1
371 1 4 0.0265 14.603470800504946 14.189320247246892 8.40658215339753 0 0 0
94 1 5 0.053 17.517933751731995 13.992122626905157 3.9541579813252468 0 0 0
153 1 7 0.4241 19.207506612689606 10.845485833563135 2.2613761713587057 0 0 0
33 1 4 -0.1268 19.381275564112215 17.80364661197634 10.205918809962617 0 -1 1
91 1 4 0 14.8196690964939 15.806883055362276 2.9527800970647693 0 0 0
225 1 5 0.053 13.008726187522544 17.722447718059748 1.7946600110779418 0 0 0
263 1 1 -0.159 11.606419059431568 12.148536165009226 4.22982924409679 0 0 0
95 1 8 -0.1654 15.500729800734138 17.04094282963492 2.8517837938755584 0 0 0
262 1 1 -0.106 12.802581969989118 12.022472198848744 3.294820975831021 0 0 0
221 1 5 0.053 13.771044896232358 18.74325087672761 9.841839265734675 0 0 0
365 1 5 0.053 13.873091953257008 12.763576254926525 6.438104238798169 0 0 0
148 1 4 -0.1268 19.036247101925316 12.69221196519564 10.331185061784318 0 -1 1
219 1 1 -0.106 13.098483963726316 17.947748911151418 10.126218595770837 0 0 0
188 1 4 -0.1268 14.223247232675245 15.27841058298775 7.5922859368151 0 0 0
368 1 2 0.08 15.561057026739052 11.318086646638982 6.219715334174796 0 0 0
19 1 5 0.053 17.227354301832868 18.86486378713348 2.023806548755738 0 -1 1
372 1 1 -0.0233 16.283829196276105 12.116108559230975 5.120427282061625 0 0 0
453 2 4 -0.1268 11.143859373573841 11.05688207327967 10.124405228097983 0 0 0
145 1 5 0.1268 18.711561756918346 12.0327421906612 9.48071264448513 0 -1 1
184 1 5 0.1268 14.522881486862069 15.202432863971953 6.530818037292007 0 0 0
110 1 5 0.053 11.616369021065081 17.600281736361808 3.847359909477023 0 0 0
111 1 4 0 13.490484216408792 15.661370689883377 2.5058452385406182 0 0 0
374 1 4 -0.1268 14.336935016606816 14.315322440357333 9.713848096717575 0 0 0
261 1 5 0.053 13.393729043333801 11.106411247366925 3.5274106373843637 0 0 0
375 1 5 0.053 16.5469876372757 13.07918808656027 5.587587936604144 0 0 0
93 1 5 0.053 17.541408234811925 15.647973146601274 3.16996172011237 0 0 0
155 1 8 -0.1654 15.682462065857383 12.245831929453086 3.738926083514085 0 0 0
534 1 10 -0.1595 19.102467253243287 19.04144576712112 6.798204461694928 0 -1 1
102 1 5 0.053 15.884383469996832 12.022330968791703 1.5745832338361754 0 0 0
423 1 4 -0.1268 11.417279345950536 19.09336695819044 8.683342980137368 0 0 0
20 1 5 0.1268 17.06215266549649 17.612596474670845 7.190686420389166 0 -1 1
366 1 5 0.053 16.357467964968123 11.0464768528703 6.943373972178174 0 0 0
452 2 5 0.1268 11.133562544422638 10.66390959656672 9.090633545562284 0 0 0
268 1 4 -0.1268 12.98919734927534 14.383120487142948 2.56109487170144 0 0 0
26 1 4 0.0265 18.868949398333406 18.42474380186382 7.985797521374744 0 -1 1
85 1 1 -0.159 11.397256425011145 17.033455751316655 2.9226422511002945 0 0 0
109 1 4 0 14.933123306042905 13.404786331514318 3.4876831274431437 0 0 0
573 2 10 -0.1595 11.188648947055503 13.326349702078332 9.22853785212191 0 0 0
218 1 4 0 13.617740386217069 16.580374930942583 9.537817863989083 0 0 0
97 1 7 0.4241 17.164943424178105 18.608581951693992 4.773783801678889 0 0 0
103 1 5 0.053 17.149212816367175 12.69659722399082 2.4476068410609626 0 0 0
22 1 4 -0.1268 17.695421873147584 17.64229027512715 8.091737256611552 0 -1 1
367 1 1 0.027 14.54854307413666 12.130599726750736 7.100822998458657 0 0 0
38 1 5 0.053 17.10069413735988 15.388547976275767 4.819086017729442 0 0 0
266 1 5 0.1268 11.95450625840953 14.188946358710687 2.1962328300860063 0 0 0
99 1 5 0.053 13.856564609252489 18.26456960134055 3.3770562682890937 0 -1 0
251 1 2 0.08 17.322341044051576 10.555503992477822 2.625615903511754 0 0 0
369 1 10 -0.1595 15.248082495772817 13.039318432553104 8.005346328206661 0 0 0
89 1 1 -0.106 12.547032266645687 16.779387529584582 1.969412731616611 0 0 0
216 1 4 -0.1268 13.682934051449536 16.44477252194781 8.150095656139442 0 0 0
83 1 5 0.053 10.773670496702955 16.112387868979944 3.169678884196368 0 0 0
105 1 1 -0.0233 15.696281585499927 17.478475974695428 1.4639041789076892 0 -1 1
118 1 5 0.1268 2.3480773069423875 4.327150540950351 10.561183446844362 0 0 0
537 2 5 0.053 1.67940395693695 14.81771563325353 1.4896412661006408 0 0 1
519 1 9 -0.266 6.797559948876561 5.704381285164171 15.990462638906484 0 0 0
237 1 5 0.1268 5.069345309073109 2.3529413699994173 13.707439199103066 0 0 0
521 1 3 0.08 5.396844603192528 5.611995326708463 15.53597253440913 0 0 0
520 1 1 0.027 4.336345718686457 6.703395129937146 15.690258701224788 0 0 0
192 1 5 0.1268 9.188626884023229 7.261306092560162 15.743560053241172 0 0 -1
524 1 5 0.053 4.197575812610724 6.867410446038531 16.78445274033762 0 0 0
525 1 5 0.053 5.383508892646207 5.236109336077147 14.507880188643032 0 0 0
523 1 1 0.027 5.943316249871117 4.66876135477856 16.469072503837005 0 0 0
522 1 5 0.053 5.716362881451249 4.54683932633154 17.539565112332884 0 0 0
526 1 5 0.053 6.210259016359929 3.7285792271249765 15.912190411751162 0 0 0
190 1 4 -0.1268 8.912154292990031 8.123882733338558 16.388121132726834 0 0 -1
186 1 4 0 9.533934983972877 8.322899431987905 17.623421913849302 0 0 -1
311 1 1 0.027 7.846486482706365 7.106498298114586 12.504315775375979 0 0 0
313 1 9 -0.266 8.167774099742307 6.555027419252305 11.266872554208353 0 0 0
312 1 3 0.08 7.232819582736456 5.817145110139313 12.126783558507288 0 0 0
182 1 4 -0.1268 9.207445425141007 9.550110949700567 18.334878599148784 0 0 -1
60 1 4 -0.1268 7.864191296200462 8.948281409350052 16.041634218241896 0 0 -1
61 1 5 0.1268 7.296201780691469 8.720658918661638 15.175102482336403 0 0 -1
358 1 10 -0.1595 3.067176381977683 6.318745195345682 15.239998922975534 0 0 0
518 1 5 0.053 4.707875155854672 7.608786400754333 15.099089712010203 0 0 0
310 1 1 0.027 7.791791306198868 4.4963900566228725 12.67224824481298 0 0 0
377 1 5 0.053 6.982424034002172 3.9751991742636847 13.152957134898015 0 0 0
306 1 10 -0.1595 8.85752647049955 4.719639166076912 13.591406620732304 0 0 0
315 1 5 0.053 6.252713986666033 5.652271070395987 11.643806138739707 0 0 0
309 1 5 0.053 8.179640104332378 3.9939639255048607 11.75553805509281 0 0 0
308 1 5 0.053 8.55497311311846 7.161374959047351 13.325626324940746 0 0 0
170 1 5 0.053 3.382230364024487 9.573846168945934 18.801753883495753 0 0 -1
314 1 5 0.053 7.129574627051452 7.895897498622635 12.595149962966854 0 0 0
479 1 4 -0.1268 10.279725427542042 3.2305055182248408 16.812419194517144 1 1 0
230 1 5 0.1268 3.333293990274181 4.114672725141263 12.760766083324327 0 0 0
353 1 4 0.0265 2.1474286841884416 7.273116411315056 14.699742839310423 0 0 0
562 1 5 0.1268 8.228425846421548 3.225291291494027 17.317498061578867 1 1 0
477 1 4 -0.1268 9.117815089399116 2.607178083830961 17.181697547236404 1 1 0
350 1 4 -0.1268 2.20082114426793 8.61739390735465 15.022332009399413 0 0 0
517 1 5 0.1268 2.910230891968755 8.944105172590493 15.775551413536533 0 0 0
563 1 5 0.1268 10.163801053424702 4.274529354456485 16.403504903066224 1 1 0
140 1 2 0.08 3.6426926922830507 9.19120419948348 11.149191540618054 1 -1 1
139 1 11 -0.5571 3.587169508625461 8.094538608941559 12.054862193661267 1 -1 1
254 1 5 0.053 5.775497125360902 9.331685608298276 11.520900172094152 1 -1 1
120 1 5 0.1268 6.541044129033961 6.278944315865911 18.53980214207529 0 0 -1
169 1 10 -0.1595 5.890302463161507 8.897910448752146 19.377332160273582 0 0 -1
176 1 4 -0.1268 6.812908832127392 6.602566929021197 19.55684273632767 0 0 -1
471 1 5 0.053 2.0479384954918256 3.5431156671719037 18.271760852489034 1 1 0
226 1 5 0.053 3.179277956419994 3.2936663366692436 14.904446592166174 0 0 0
232 1 4 -0.1268 2.4320810699523 3.5202185033832802 12.534100881230065 0 0 0
229 1 1 -0.106 2.666943932976359 2.330569292896777 14.758499936323524 0 0 0
73 1 7 0.4241 2.6632340403390202 7.972086493311033 12.296658341105253 0 0 0
473 1 1 0.027 1.9157530407426742 3.0707902117401247 19.3024019006612 1 1 0
469 1 4 0.0265 4.172463204725302 2.4581268090277857 19.468304389358597 1 1 0
233 1 4 0 1.8679754142579548 2.5879159803749126 13.426907637362971 0 0 0
106 1 5 0.053 14.83079553306117 18.112282513697853 19.505382828447313 0 -1 0
234 1 4 -0.1268 1.822644442071062 3.760372000033401 11.339668437508815 0 0 0
48 1 5 0.053 7.969878666195869 10.550251435970308 10.741468472011924 0 0 0
257 1 1 -0.0233 5.117660798963925 9.254049176328031 10.623668610829053 1 -1 1
459 1 5 0.053 7.455430668430268 2.191270444961992 10.791261182872793 0 1 0
304 1 4 0.0265 10.074382378535113 4.293727557091419 13.199765754126325 0 0 0
228 1 5 0.053 2.007044157163137 2.182955149388463 15.556812563093136 0 0 0
443 1 5 0.053 1.6321871933114966 2.0506906824928937 19.088943163804284 1 1 0
141 1 5 0.053 2.5703937412024818 10.398956791523416 12.729891776098478 1 -1 1
58 1 4 0.0265 7.522687578705921 10.086811960148077 16.783346912431483 0 0 -1
331 1 4 -0.1268 4.256862023817484 1.9394778965422637 18.118861875507616 1 1 0
54 1 5 0.053 5.87628234861384 10.080778991856613 14.600293894764548 0 0 -1
330 1 5 0.1268 3.4772762643790225 1.871471273055474 17.343612752511305 1 1 0
44 1 5 0.053 7.23895746726779 10.479948418113144 12.42129934755401 0 0 0
300 1 5 0.1268 9.879685516244024 2.3024441834898197 14.178563089350643 0 0 0
189 1 5 0.053 10.06589273142955 6.680811578054806 18.89258263214668 0 0 -1
178 1 5 0.1268 9.929369909955868 9.713458461821762 19.145477174980257 0 0 -1
243 1 11 -0.5571 4.762036733682853 2.322007673050518 10.728078557375007 0 1 0
212 2 5 0.053 1.6523710276007757 7.35723533306787 18.140595155241698 1 0 0
301 1 4 -0.1268 10.499665189265905 3.0338189392280555 13.614994539963584 0 0 0
142 1 1 0.027 3.1999504996797885 10.521827613942705 11.825964955700375 1 -1 1
333 1 4 -0.1268 5.438671433528187 1.4301218786256626 17.670163401287528 1 1 0
52 1 5 0.053 4.604083092344267 10.634679012300127 15.732782586393961 0 0 -1
181 1 4 -0.1268 8.190073657608922 10.406343411812479 17.94708060923545 0 0 -1
585 1 4 -0.1268 6.499689423308126 1.9066985704727675 19.70949045678633 1 1 0
187 1 1 -0.106 10.597884354330636 7.362780655899291 18.132602109631005 0 0 -1
460 2 5 0.053 10.58328885481311 10.054712377381549 14.637016577687193 0 0 0
549 2 5 0.053 10.542451697711492 8.875910604357996 13.327681116271451 0 0 0
122 1 5 0.053 16.48295292599139 4.2838622576773275 11.226917108546502 -1 0 0
183 1 5 0.053 10.90287542717629 6.689511482980462 17.28329387571021 0 0 -1
335 1 5 0.1268 18.642281002483102 9.121985319197204 10.594873499120125 -1 0 0
457 2 5 0.1268 11.02482351350442 9.076594368691769 11.086921628858656 0 0 0
488 1 5 0.053 13.808096483831102 6.5103170196776725 17.09087699111817 1 1 0
343 1 4 -0.1268 19.563540368816373 9.484295872288756 14.516699999558268 -1 0 0
466 1 11 -0.5571 17.90978218294158 3.8856340859863328 18.86405412828534 0 1 0
307 1 5 0.1268 10.717663570131934 5.985706045698466 11.92804124736136 0 0 0
305 1 4 -0.1268 10.904486945574563 4.975127450600729 12.31726447528788 0 0 0
482 1 4 0.0265 11.56307990272924 2.562223502597027 16.88972905416469 1 1 0
352 1 4 -0.1268 19.54568272119226 6.843916293589357 13.730334615713314 -1 0 0
290 1 5 0.1268 19.530407974766053 5.815174397430223 13.556134695493332 -1 0 0
348 1 4 -0.1268 18.64189728830438 7.779112516926627 13.191973396897431 -1 0 0
485 1 5 0.053 13.24683892196397 4.676118536866469 15.603452516755837 1 1 0
581 2 1 -0.106 11.149865845002182 9.683750296205659 13.721887339499602 0 0 0
487 1 1 0.027 12.907935315642924 4.545219349491704 16.673349133291403 1 1 0
484 1 10 -0.1595 12.817138309451384 3.146433314126798 16.80114543386359 1 1 0
235 1 4 -0.1268 18.95879884781883 2.017465678798995 13.134257245798235 -1 0 0
302 1 4 -0.1268 12.18132301820368 4.403979384546227 12.011970671566988 0 0 0
191 1 5 0.1268 12.138058634646804 9.382098398602619 17.607995166386797 0 0 -1
136 1 4 -0.1268 12.562504102621473 8.95216332869257 18.563111423516222 0 0 -1
284 1 5 0.1268 17.83190548984389 7.438644749101102 12.547910556022588 -1 0 0
135 1 4 -0.1268 13.718328826301784 9.35091267190791 19.147897635973052 0 0 -1
214 2 5 0.053 18.153258772576304 6.656946239006677 16.27905438841146 0 0 0
213 2 9 -0.266 17.81880230212588 6.8658952744525505 18.49468353834941 0 0 0
210 2 1 0.027 18.914844590205085 7.69794781242232 18.16902834955178 0 0 0
211 2 3 0.08 17.86011404818582 7.343560369984821 17.154004457180182 0 0 0
208 2 1 0.027 16.68235978406667 8.335650924560795 16.784655697634328 0 0 0
414 2 4 0.0265 15.186533258385927 8.625917996461448 15.00586512705616 0 0 0
413 2 10 -0.1595 16.387916256285635 8.237172293985322 15.417731949532515 0 0 0
206 2 5 0.053 16.988236275752854 9.354133308843288 17.12060238182747 0 0 0
209 2 5 0.053 15.81795156472531 8.096236107753906 17.411262045641774 0 0 0
417 2 4 0 12.562350166564816 9.270596946771514 14.183433006344654 0 0 0
412 2 4 -0.1268 14.401255285967101 7.698830551213602 14.318369008919436 0 0 0
455 2 4 -0.1268 13.105254315676282 8.008214331210223 14.011796382179522 0 0 0
411 2 5 0.1268 14.827137005529188 6.698796994563427 14.080044438592475 0 0 0
454 2 5 0.1268 12.509185492453037 7.324410696643092 13.358212773306125 0 0 0
299 1 4 0 12.638974399882503 3.1860206672363507 12.542041138420554 0 0 0
137 1 5 0.1268 14.359829263504386 10.162807034945308 18.707536689782735 0 0 -1
207 2 5 0.053 18.987525455045372 8.704163792330846 18.653235567380044 0 0 0
415 2 4 -0.1268 14.584810093672278 9.83059102423013 15.446386697615207 0 0 0
303 1 5 0.1268 12.702233995967756 4.904450290333491 11.194426219604706 0 0 0
418 2 4 -0.1268 13.29489505456675 10.14730229771863 15.011717996387707 0 0 0
239 1 4 -0.1268 18.199384469766485 2.4943396530423336 12.060303772567574 -1 0 0
342 1 4 0 18.659998105467917 9.118081988815076 13.519035957560382 -1 0 0
490 1 3 0.08 13.967004563204165 5.460822071398333 17.41016030346654 1 1 0
334 1 4 0 16.93824609502058 9.858329661638114 11.777811413318979 -1 0 0
491 1 5 0.053 11.971690010943286 5.117842023362394 16.804613754690628 1 1 0
463 1 5 0.1268 15.29327307301703 4.123141428212424 14.676065310017549 0 0 0
505 1 5 0.1268 16.37557255935291 3.048127995944151 16.580379706029323 0 0 0
486 1 9 -0.266 15.363922202097864 5.227498923856292 17.47722203054496 1 1 0
458 1 5 0.053 14.637409010548172 3.8067981854233466 12.09038367975721 0 0 0
502 1 4 -0.1268 15.335377768005307 3.0001669665476274 14.668211225884175 0 0 0
390 1 4 -0.1268 15.561601308967042 10.123483422498081 11.660672001275302 -1 0 0
337 1 1 -0.106 17.671160345169955 10.19682341750716 13.008072329715816 -1 0 0
456 2 4 -0.1268 11.01998184762971 10.205211731026473 11.273225991018565 0 0 0
185 1 4 0 11.763590989215068 7.906300913436741 18.973309002917034 0 0 -1
493 1 5 0.053 14.68155879914831 4.2677384813749795 19.21068224829593 1 1 0
240 1 5 0.1268 17.17150088145768 2.164805987840795 11.92547951251104 -1 0 0
114 1 7 0.4241 17.35995046729784 4.59655504985263 19.12890877036611 -1 0 -1
338 1 5 0.053 17.02119440761235 10.575829849411889 13.784421475059652 -1 0 0
295 1 1 -0.106 14.072203710629246 2.860352311774251 12.36422929878644 0 0 0
492 1 1 0.027 14.675995252990568 5.249960925129145 18.720898850716612 1 1 0
506 1 5 0.053 16.474252983117225 1.8137352093331014 18.41939397654043 0 0 0
503 1 4 -0.1268 15.952381435783497 2.432229529278233 15.763562086111394 0 0 0
499 1 4 0 14.717835934284002 2.295275812167991 13.629400889435505 0 0 0
392 1 4 -0.1268 17.552510520994502 9.271450598069016 10.68126388209607 -1 0 0
494 1 5 0.053 14.87813590181365 6.062516836772825 19.42847706961556 1 1 0
133 1 5 0.053 16.34093483130149 9.365818679059457 19.339617009128794 0 0 -1
298 1 4 -0.1268 11.740026916786467 2.5155033692404656 13.337811988253542 0 0 0
386 1 4 -0.1268 14.76232784166227 9.66470828123247 10.601803003194192 -1 0 0
339 1 5 0.1268 19.65707289004506 10.46766440552136 14.967665651246936 -1 0 0
293 1 5 0.053 14.139513708324912 2.126389150679002 11.569680409881784 0 0 0
296 1 5 0.1268 11.93847384837349 1.5661353924338703 13.852084711318579 0 0 0
236 1 5 0.1268 18.493235654602536 19.514006816383066 13.731736680747613 -1 -1 0
238 1 4 0.0265 18.79036283657283 3.38675717089585 11.150838401479204 -1 0 0
382 1 5 0.1268 13.668445079585801 9.711306268468245 10.646300963689251 -1 0 0
201 1 4 -0.1268 4.9269879102207375 19.693027616943414 14.16365848251737 0 -1 0
231 1 4 0 3.681586214177021 19.452168530420753 14.7552348740959 0 -1 0
475 1 4 0 9.082195932939577 19.574062403730238 17.646956961548977 1 0 0
143 1 10 -0.1595 2.4395458089686235 11.230686930208927 10.819489120875126 1 -1 1
516 1 4 0 6.612059251785393 19.620698775092627 18.43254422981927 1 0 0
539 1 5 0.053 4.852266505298912 15.601454506342986 12.703480566837404 0 0 0
64 1 4 0 5.460633942332572 14.278239386068394 11.174327174004185 0 0 0
144 1 5 0.053 4.04709101008884 11.180837115542396 12.12119991650519 1 -1 1
272 1 5 0.1268 5.398006208924198 19.40554285437751 16.66380078924168 1 0 0
478 1 4 -0.1268 10.333090193313827 18.832618060182348 17.57718989649447 1 0 0
409 1 5 0.1268 6.913779337754843 19.03367392988478 13.579480628117375 0 -1 0
514 1 5 0.053 7.868056569102994 17.913724908495162 18.56469258827642 1 0 0
513 1 5 0.053 7.555519848308996 18.391341527328972 16.873990199576774 1 0 0
67 1 4 0 6.466458712322928 12.006389802277107 11.180682663621837 0 0 0
98 1 5 0.053 6.203430961808927 16.24942637091029 11.51294844485964 0 0 0
404 1 4 -0.1268 5.964253186712136 18.762875922335418 14.156873062658 0 -1 0
515 1 1 -0.106 7.762936282540477 18.805796977140492 17.84725179294056 1 0 0
445 1 4 -0.1268 3.391793568580964 18.162631981412776 15.195250682600303 0 -1 0
69 1 1 -0.159 7.582410222538095 11.10893761046752 11.618684422854205 0 0 0
51 1 5 0.1268 8.05537826709742 11.372566849163722 18.480574247977604 0 0 -1
408 1 5 0.053 8.492241797167114 17.321245562349258 14.594806707078002 0 -1 0
400 1 4 0.0265 5.751201482097764 17.46399611740239 14.66826017130303 0 -1 0
402 1 10 -0.1595 6.683497174262399 16.370316822587796 14.68464028313724 0 -1 0
397 1 4 -0.1268 4.455210758053868 17.239429636511193 15.18051669040846 0 -1 0
396 1 5 0.1268 4.192190747472728 16.226658147494504 15.50016462805208 0 -1 0
561 2 1 0.027 2.087788990687132 14.278160531305163 18.811864998825534 0 0 0
55 1 1 0.027 5.566453538376631 10.909865577963533 15.271109118392665 0 0 -1
559 2 11 -0.5571 3.690706152323803 12.758457275164105 17.957581306947024 0 0 0
540 1 7 0.4241 5.26422086498346 14.016147213342991 14.859650021303818 0 0 0
410 1 5 0.053 7.826401144611874 17.13814147622731 12.985835112956915 0 -1 0
86 2 2 0.08 3.5954526681006174 13.957012991631316 18.663449781837876 0 0 0
544 1 1 -0.0233 8.141149970881617 14.39365335995769 12.763509341963848 0 -1 0
538 1 5 0.053 8.634652570513529 14.842158581054601 14.924481232021767 0 -1 0
548 1 5 0.053 8.945058789337695 13.695333332280653 12.47090755062775 0 -1 0
405 1 2 0.08 8.737622326932266 15.260736185855416 13.911530287513061 0 -1 0
59 1 10 -0.1595 6.492852182700536 11.026248501855518 16.375207751505236 0 0 -1
406 1 1 0.027 7.902966114841415 16.579653156045083 14.025218050114415 0 -1 0
88 2 5 0.053 4.0764838365995395 14.8062909292861 18.121027537893116 0 0 0
79 1 2 0.08 5.442204425848182 12.234927519254834 14.424686841745121 0 0 -1
77 1 11 -0.5571 4.89987035667583 13.245949116811218 15.292737549559694 0 0 -1
76 1 5 0.053 7.240892205184874 13.182922688192324 14.983155966059122 0 0 -1
81 1 5 0.053 4.8003559048615205 12.22320713287588 13.491280868156618 0 0 -1
78 1 1 -0.0233 6.8167510632910115 12.723773230261054 14.106419710680916 0 0 -1
80 1 5 0.053 7.6374244001040035 11.949473636558297 13.914362274874126 0 0 -1
542 1 8 -0.1654 6.879547122086419 13.693194039732395 13.021924287311698 0 0 0
65 1 4 0 6.261325941278802 13.301311089987099 11.78283512302454 0 0 0
197 2 2 0.08 7.95283858856883 15.105107735518285 18.966167004767556 -1 0 0
198 2 5 0.053 6.437301358817021 13.763788834500676 18.35492143780984 -1 0 0
46 1 5 0.053 8.48040171470732 11.62344046553942 12.005169819324477 0 0 0
200 2 5 0.053 7.3928910138223545 15.805738132686365 18.330312325515173 -1 0 0
541 1 5 0.053 8.14079104491001 15.045932718621032 11.859110262697202 0 -1 0
543 1 11 -0.5571 10.197665563407856 15.431730301288566 13.769956491828449 0 -1 0
195 2 1 0.027 9.068554100467871 14.446653586582412 18.165243999833944 -1 0 0
398 2 5 0.053 8.775044432108528 13.832834819703075 17.288511746250624 -1 0 0
318 2 7 0.4241 4.046949244524021 13.04577660981669 17.03374054553693 0 -1 0
163 2 5 0.053 9.615324050049809 13.733134272416148 18.820653436378933 -1 0 0
394 2 10 -0.1595 10.040310607296604 15.384116706112914 17.67110182101971 -1 0 0
147 1 5 0.1268 2.9141953509618848 12.896532719884878 12.846162649709584 1 -1 1
149 1 4 -0.1268 2.0786482336846452 13.16258423636933 12.277317895960437 1 -1 1
196 2 1 -0.0233 6.85471115301928 14.098137943066055 19.32902589787083 -1 0 0
547 1 7 0.4241 10.673776910387007 15.189682064355463 14.589725071278089 0 0 0
476 1 5 0.1268 10.283809005137748 17.799447427422198 17.98442988607953 1 0 0
27 1 5 0.1268 1.6248213043343118 15.052276658609088 13.103555633738383 1 -1 1
558 2 10 -0.1595 1.5973087949728026 14.948077601201533 17.644017039665176 0 0 0
444 1 5 0.1268 2.4184917033569824 17.871704001044407 15.676341975864002 0 -1 0
63 1 1 -0.106 5.182530500950675 15.69296543214853 11.631593060867951 0 0 0
36 1 5 0.1268 1.7111974080342158 18.02968955709108 11.118851666376916 1 -1 1
146 1 4 0.0265 1.7448077608657413 12.376737486944103 11.165667899732272 1 -1 1
172 1 5 0.053 5.393311792511387 10.874212597904338 19.171287688627526 0 0 -1
449 1 7 0.4241 3.059489847234703 11.53183134908604 19.357859853902557 0 0 -1
576 1 5 0.053 4.023287202987309 17.592387725715803 11.418407500676013 0 0 0
256 1 5 0.1268 8.513698906769198 17.840377477320807 10.88221312768666 0 0 0
545 1 1 -0.159 4.253489782648493 16.614903979155557 10.891892260234926 0 0 0
90 2 5 0.053 1.5644567508880152 13.314726822465927 18.936385116221512 0 0 0
572 1 5 0.053 3.2591672115096078 16.16063265482062 10.796275001129487 0 0 0
582 1 5 0.053 18.035261573654893 19.390439331003204 17.85113477413973 0 -1 0
62 1 5 0.053 12.132597999772191 16.4487717770814 19.294403341200912 0 0 -1
107 1 11 -0.5571 18.09057703411668 17.41512643493389 19.271276002854968 0 -1 0
217 1 4 -0.1268 10.64493483809773 17.876099739836658 10.59913737078616 0 0 0
416 2 5 0.1268 15.232109128394221 10.496339062285495 16.044842644659116 0 0 0
391 1 5 0.1268 15.06431946441592 10.471300170944595 12.573789217936241 -1 0 0
419 2 5 0.1268 12.862911416444867 11.09284317094718 15.089099299025515 0 0 0
220 1 5 0.1268 10.78266753916423 17.223368431219512 11.534759923759136 0 0 0
108 1 2 0.08 17.015709466645433 18.291377434538727 19.3952607233743 0 -1 0
481 1 5 0.1268 12.459207040769938 18.91931678114159 17.284816752991148 1 0 0
104 1 5 0.053 15.616300349221085 16.582619381001585 19.149869440879836 0 -1 0
393 2 4 -0.1268 11.936546427221925 15.838475989421735 16.21781294594211 -1 0 0
25 1 4 -0.1268 19.677572395284404 14.348199040999829 12.334249874385966 0 -1 1
551 2 5 0.1268 17.86850498070711 13.730471260229807 18.782381476045256 -1 0 0
580 2 4 0 11.251547390720186 10.662022276243984 12.581234381430285 0 0 0
437 2 5 0.1268 10.873798970525659 12.96044379121881 17.43894908857289 -1 0 0
96 1 7 0.4241 17.80643375760853 17.011428731909234 18.432284878926364 0 0 -1
557 2 4 -0.1268 17.194174959293516 14.773308730211117 15.157673545043993 -1 0 0
579 2 5 0.1268 11.554214874086346 12.49705010486464 13.738500135952181 0 0 0
501 1 10 -0.1595 16.227708859755513 18.51249418658033 16.99206097719039 0 -1 0
442 2 4 0.0265 11.129921534263248 14.94201823555788 16.93167448387826 -1 0 0
34 1 5 0.053 18.473876398289935 16.789973421846813 12.295870992530752 0 -1 1
480 1 4 -0.1268 11.493760796135561 19.475924827493238 17.2032372598148 1 0 0
577 2 4 -0.1268 11.400054795100534 12.919613972027674 11.631654334832056 0 0 0
555 2 4 0 16.145504107743932 14.216100957810895 15.909558621733115 -1 0 0
336 1 5 0.053 18.28886825874663 11.097208511341586 12.817636473134167 -1 0 0
429 2 5 0.053 14.903300921314049 12.745650801894094 14.976317128788072 -1 0 0
441 2 5 0.1268 13.731542479544952 16.133140012272392 15.018774185476403 -1 0 0
556 2 4 0.0265 18.67832177829527 14.626733075307033 17.06510542194311 -1 0 0
427 1 5 0.053 13.183508447082996 17.86244495211996 11.181837165435818 0 0 0
395 2 5 0.1268 11.563984723948193 16.88964044075111 16.113041541882843 -1 0 0
500 1 4 0.0265 15.880832435774048 19.339929248010353 15.84762039982813 0 -1 0
498 1 4 -0.1268 15.29622572018561 18.584943465895414 14.785938096945145 0 -1 0
553 2 4 -0.1268 16.395877081231554 13.777231154646184 17.23211807013018 -1 0 0
35 1 5 0.053 16.968746818291983 15.975717635315668 11.64707735384956 0 -1 1
496 1 5 0.1268 15.333280275597614 17.455695071415313 14.766489557271589 0 -1 0
426 1 5 0.1268 13.856945735127033 15.495257535877398 11.409755599896082 0 0 0
431 2 5 0.053 14.884073180078042 14.215488130591586 14.098124430941056 -1 0 0
439 2 4 -0.1268 13.150819640343496 15.468304520666223 15.659107571362757 -1 0 0
436 2 4 0 13.61879339463368 14.137573684811436 15.774997731626113 -1 0 0
495 1 5 0.1268 14.398421001056143 18.691999355098684 12.859868942423182 0 -1 0
536 2 5 0.1268 19.308902967303563 15.514648954897725 15.341599725703988 -1 0 0
435 2 4 -0.1268 12.911523248229438 13.263110638216125 16.609035967931717 -1 0 0
438 2 4 -0.1268 11.636236648820029 13.70037741945819 17.04412587352863 -1 0 0
574 2 5 0.1268 11.642445245057424 14.005789992680477 11.718579684274763 0 0 0
497 1 4 -0.1268 14.807471795570734 19.23532985613599 13.666901165318409 0 -1 0
29 1 4 0 18.684292812531417 14.787644465420131 11.460723919717505 0 -1 1
434 2 1 -0.106 14.917777202105984 13.807482387726857 15.09874774418784 -1 0 0
550 2 5 0.1268 15.552664541216735 13.238059944851427 17.837621785443602 -1 0 0
504 1 1 0.027 16.920846156570704 19.130443559708013 18.15135894428955 0 -1 0
440 2 5 0.1268 17.02280963836795 15.047677385201247 14.100536093201223 -1 0 0
578 2 4 -0.1268 11.42797433211336 12.060559242715481 12.75316293020851 0 0 0
433 2 5 0.1268 13.20298147390747 12.230154203188285 16.74266958996568 -1 0 0
560 2 4 -0.1268 18.39963573849063 15.094316395445153 15.80258741521522 -1 0 0
554 2 4 -0.1268 17.690501238837996 13.896649785707913 17.729041305470243 -1 0 0
31 1 1 -0.106 18.020415576931395 16.08980796912015 11.513270267430892 0 -1 1
253 1 5 0.053 6.612490497603888 18.97560566941 10.655445618870498 0 0 0

Velocities

447 -0.005051066676193042 -0.002508022029517166 -0.00793620264055435
351 0.0016861892164104178 -0.01196851821296484 -0.003611825047585158
446 -0.0013433302417342067 0.002164533115361467 0.005830728717421813
285 -0.001729690644550451 -0.0009875563740493866 0.0033642054742199883
286 0.02556464435045404 -0.019768799773081373 0.004247919644126006
349 -0.00884940451442791 -0.0007075532484919871 0.004187598664692533
47 0.002845152425627498 -0.004205354111084886 0.012276494158217832
45 -0.005788606088004155 0.03203073862980219 0.0077629971740908865
49 0.0062642492313853965 0.00579540255227622 0.002022335779328017
344 0.006176079506041671 -0.0013990096463204439 0.0010997764245365335
347 0.002817583111520471 -0.0056413547704631615 -0.011379122568025523
341 0.013958182762152046 -0.0008938624151251435 0.003621718355175606
165 0.008714197833413605 0.00010741937261591097 0.002329156370095259
356 0.0010600580565318706 -0.0032168233184632846 -0.005732699900514289
354 0.0026195381989908223 -0.007171914986523394 0.0038319031685410416
283 0.006353912883315071 0.002040377613820425 0.0045040708861195135
177 0.0006749608445208474 -0.0035754381904851223 0.002614360242729262
162 0.008593991280443783 0.005325966941689199 0.002933271419473067
124 0.006209617748173648 0.0018825700413401757 0.0016987925569612265
166 -0.011949714181668193 0.0005622618232927882 0.009357998843766294
164 -0.0017894406694969208 0.013300869692378012 -0.04866703989572577
173 -0.0018854477308296895 -7.32526476900625e-05 -0.0005750951316644276
171 -0.00768886639818308 -0.000519171589313136 0.008356113379287898
56 0.002923630496767526 0.0011446105227014237 -0.002773432704210801
448 0.0211264158966282 0.036699354315085295 -0.027678708441407254
450 0.005950066404532239 -0.0032000689352917884 -0.0039475792048747375
159 0.00027956590374599 -0.018928859418472745 -0.010230251102193496
161 0.009352722504064425 0.008365007753684707 -0.016171789155733963
245 -0.01834601528622127 0.00365998182283906 -0.0009661181515849818
244 0.002766315526932365 0.0036345498509220762 -0.00199987420557882
167 -0.01588611615641248 -0.013613670242987111 0.009754487532072764
160 0.004458730245165316 0.036851598531834596 0.011959841226322286
57 -0.01675562413936073 -0.01744034341361979 -0.02951079714690538
345 0.0011219384482858655 0.003471050636920662 0.002373089563559494
247 -0.0037364719453730146 0.009414975043898127 -0.004385913129680862
50 0.012495147503927271 0.011381189828648289 0.0052389440854968775
281 0.007544408910533134 -0.0032918027730689274 0.004172628209855845
132 0.0012755946246310885 0.012205621863393324 -6.0981577506942534e-05
246 0.00666852287689471 0.04465179114404667 0.0028956953078238686
527 -0.007735836695636259 -0.004552356244197592 0.0005872859893241602
531 -0.0012630058323500294 0.0016803214890425044 -0.00026365825301902457
468 0.014395876638068208 -0.0034473703432277903 0.006534342766085454
227 -0.017485563353735738 -0.011114187696799406 -0.006494870444008192
242 -0.0133473842095781 -0.01185181820203506 0.011080530152745842
467 -0.004376967505774661 0.00175452949563446 0.0010844935041099918
361 0.003114514063879475 -0.0027999724906688102 -0.004956440689127771
41 0.002051932233001772 -0.005600361683863534 -0.003970305009634457
403 0.0007183530073851835 -0.004821633938188619 0.0007281782052184541
362 -0.02247807044984826 0.006727827377945673 0.017975747680934004
18 0.01535383199031595 0.011826025281142285 -0.010811069928734396
42 -0.036999935553242484 0.001400050685757867 0.003760744001767355
74 -0.015057210552840348 0.0004574226417568508 -0.02390725287031565
72 0.0033629789563231947 0.0059052458492017965 -0.006111103942105166
15 0.0033139995233216505 -9.708624720143545e-05 -0.0008277563387809352
360 0.005375072609526087 -0.006499900131700458 0.0002401423270074044
508 0.00862882760015834 -0.02515056904391909 0.0025162360228871113
175 0.008720282945740083 -0.01538619360319992 -0.006516763629751031
17 -0.003893873855784808 0.0009066706646552712 -0.002229443048469976
138 0.02369265633074494 0.01887562079232809 -0.00442972856055697
470 0.00576800419793142 -0.0010783990150635087 0.0025818301571854272
420 -0.02984084158015018 0.007577722594041555 -0.005642716507920633
363 -0.00040290846487438963 -0.010320259712589179 0.005720098456859382
279 -0.00793377744090668 -0.004432724157302033 0.006460065249082084
399 -0.014228618446372451 0.0019721862372422583 -0.019049804158256904
401 -0.011549443592015705 -0.01564577096747087 -0.011505383927152928
489 -0.0052631124654661295 0.0014234892424531452 0.010165710916782101
359 -0.011461540292181768 -0.0031692140281832327 -0.008850959742602152
357 -0.0024443687909053496 0.0026377703532943545 -0.0014799349840588405
512 0.0022425418543593244 -0.013225297221706355 -0.021262118501615745
287 0.0013782028626806882 0.002225649169539332 0.006033338851221014
346 0.0032328108313022675 0.01782205728918024 -0.025665467098534154
340 -0.0011083403534575436 0.017085296536176287 0.0021330122762951106
584 -0.001702768780308082 0.030485198318309283 0.007891022306452652
507 0.016447886126832956 0.007013397396274473 0.03116739306708748
381 -0.02675839246153645 -0.007754965153989037 0.001737832490732066
40 0.03246708932417251 0.009858152181578428 0.014720842300127037
252 0.0021712945141772427 -0.008644310869572028 0.0032526950201673577
533 0.013843904653309268 -0.0013377486755898772 -0.006825162570254929
258 0.011481073276878135 -0.012942344651628739 0.01215239357938435
174 -0.004221365510376364 0.0024455688005634224 -0.0018048059645322347
127 0.0018481468419493854 0.006883997189508884 0.009678162483296672
168 0.00129938945934759 0.010413340905593612 0.001739833104435104
43 0.003043036603101855 -0.0010816421614369004 -0.003622003047093938
53 -0.0012782445702097806 -0.005559774591833801 -0.005427567312461365
13 -0.0009495575283913543 0.001313107431217095 0.006580699277742805
528 -0.0028660686272701653 0.0034999851670272047 -0.003070391396512729
288 -0.002140635162838415 -0.0025993563583366 0.009584335826891376
134 -0.0035778900911814697 0.00013211392775503737 0.011802534208590343
131 -0.0019423414993757025 -0.00404477307062173 -0.003917460657368361
130 -0.004744839438115698 0.001139566381628092 -0.004439663264130592
280 0.0035224033440359593 -0.00012254193614496313 0.0016466712504818266
282 -0.008008688809130759 0.0017927089714578496 -0.002472894715631872
222 -0.0016787364731018256 0.00894349949924174 0.010152219580651104
278 -0.0021738851105313852 0.00010632087547031834 -0.0001082187493733156
116 -0.0007065176248262646 -0.0025065729658600394 -0.0020093361464188545
179 -0.017307080938893923 -0.004554019638924331 0.002090873546314043
180 -0.0064481458040202225 -0.00024350241552686965 0.0017256515758731594
529 0.0003074052345757008 0.014839122162449812 0.010905045333047684
249 0.021997970698062856 0.01799989479770818 0.0014822399857095984
297 0.005013939474641403 -0.011675724817835407 -0.024652173144717463
123 0.003827042445202544 3.836622824045784e-06 0.003484461146467879
223 -0.0017947998380927939 0.0010019833219624854 0.007444636472142804
224 0.00794044428992296 0.0033152308551991053 0.0035026856971908673
291 0.002649140639661571 -0.0016271374995012015 -0.0027664530646959694
270 -0.018755643445569816 0.0045205955967487195 -0.0032598057492782295
277 -0.004890192439793969 -0.003525496563605609 0.0017742434548020077
269 -0.0019037128361487422 0.007413893781207002 0.0037632815647162497
115 0.011226482997432457 -0.019546673192754885 -0.003000938581028359
157 -0.006212541263494186 0.007357592729367307 -0.005724826035890072
276 0.000454416537818806 0.0069631542789688975 0.00405193658942142
113 -0.007579473754653119 0.0021905883211345025 -0.004380881001421125
117 0.03770889177295314 0.015331695591013652 -0.024008972990330217
274 0.00859393336664428 -0.008146423506917338 -0.0014921156194144323
158 -0.035426782046292495 0.017572815394170035 0.0536649825884612
193 0.008252111428103961 0.0001557243248726874 -0.003176740293999293
275 -4.9006427696934846e-05 0.004452673993948153 -0.011939942220182539
379 0.002174255897833115 -0.005351430685540049 -0.0031481893360127146
273 0.013441118492798589 -0.0027848612002899713 0.0008782316874656579
428 0.003158939951671278 -0.00966595510543023 -0.02662298194902865
430 -0.003776977999329405 0.005528493030082607 -0.0010343098323922601
378 0.01277002995183303 0.017835570367086044 -0.007266937290825495
380 0.002482061288696336 -0.002620800337177831 0.0007538399182418148
11 0.001191112388691206 -0.007676536402583731 0.005173196943007666
10 -0.007171443360924895 -0.009218018332459848 -0.0035608934593082437
271 -0.007481282092568303 -0.008756428767013442 0.021028992488784835
12 -0.00869414089412396 0.006328246192616192 0.0025369949502405077
9 0.0012520768411107069 0.0013480593271726902 -0.003591148292325189
126 0.018631429762590617 -0.0070995102335735085 -0.005721435496448069
432 0.027033865860213287 0.002630239382506524 0.010681357093524099
384 -0.004488119573245414 0.005397792406166798 -0.0016634875073511745
387 -0.01858160427378351 0.0016478440794546214 0.0002820574213229551
294 -0.0008496001051415209 -0.004466372613259327 0.004003460698451172
14 -0.0036730909604531263 -0.0031409513596441273 -0.0007872597228989683
128 -0.0030553311894957395 0.0067058177335325994 0.006418880264243614
388 -0.007817942946122768 0.0021740181179188828 -0.005400189742776029
241 -0.007255077939757029 0.010405920774030396 0.005735692958492704
121 -0.0026847329079149615 0.003231606271477471 -0.00019145362622603054
119 0.026784536883008712 -0.005069162818960476 0.007522024386902563
6 -0.006768225415328123 -0.01777005180593193 -0.01780452745076842
8 -0.005030068053106632 -0.004091414527144818 -0.004674774306301958
129 -0.006092444493211273 -0.0009178918308654807 0.00044791167979912037
355 -0.00741191299680251 0.0032906310950739084 -0.0004845096919915962
16 0.01128440413323809 -0.009983049168012232 -0.0043111049998658104
7 -0.006668574511118022 0.013131196439883272 -0.0006265588854964705
5 0.018018274829593187 0.006552592369887138 -0.018383448142060187
370 -0.0006104079756863668 0.002921035240349974 0.0028093636711358245
483 -0.013408837121447926 -0.0045140676787773365 -0.013847415335973801
292 -0.006802667371226072 -0.011239818998484925 -0.01904912050277996
37 0.00186580610178123 -0.005817158783122329 0.0071897090374451345
248 0.0032440727112844265 -0.0013397242597431391 0.012634785736335257
472 0.002844230989995782 -0.00040046720461180704 0.004037391824203492
474 0.03382445617026983 0.00992597915256694 0.024535358332614676
199 0.002623551439657431 0.00255120015118238 0.00759679538288598
194 0.01134477211650008 -0.006864365930629294 -0.004068878119877571
461 0.0032147202245550884 0.002923544365672457 -0.0008674527102431956
421 -0.000295645998822719 0.005735521536542628 -0.0020141686694978367
532 0.007006385240549315 -0.009440771956006231 -0.0024464213114355968
462 0.0075228610389715496 -0.0016948099045994676 -0.0033888193626709943
407 -0.0022116436501286338 0.0023562354943155893 0.009734841384606471
75 0.016335601492236482 0.018351280618468458 -0.022888672489802243
84 0.0006257504515849352 -0.00016694655406263958 -0.0031296112943215715
530 0.007658462468402956 0.039607849957694674 0.02370093875227355
465 0.02175242758208497 0.00479005731312625 0.02802058424705447
535 0.004313130140220153 -0.008775838254870607 0.019711008321153297
552 0.02657312069273639 0.026918788216159974 0.014672738702305505
151 -0.012272263505403426 -0.012462984048667096 -0.011231765335594628
202 -0.01998976562190643 0.0031375183538759673 -0.006298746913335787
203 0.01058125117318197 -0.018264938123255314 -0.004735908550933289
205 0.02211019326575397 -0.0005224992753273602 -0.036555489830851974
324 0.019570619113520066 -0.015123298070035056 0.0017942860852528794
323 -0.01054217371699791 0.008730862227392786 0.006116884050622396
152 0.004608084267341037 0.0012957345753147407 -0.005218534307322907
68 0.0003596787390599801 -0.003135920234210108 -0.001027040712017512
327 -0.003957807758511915 0.002273666630905204 0.005825549781558918
322 -0.002812983942275134 -0.0008337868950163505 0.0018404999328475587
320 0.01017621629976476 0.002738980550513558 0.009352318701287781
325 -0.002794016088400417 0.002464248749766408 0.00408863570635686
326 0.0007168168914422054 0.00542321757625838 -0.0012859288088563014
71 0.00549068266668314 0.0014779687575889784 -0.0009694499251722651
204 -0.002149071209623508 0.0004648324281400231 -0.00040694525020718405
101 -0.00994709682651035 -0.011248812145404737 -0.0030783082241146614
321 0.0007083443510092401 0.002551416627870361 -0.0021202988183866636
510 0.001976859656210226 0.0015510354694587218 -0.0035736170971834564
451 -0.018571758050981508 0.011194431287783614 -0.017342662999536424
328 0.0008824313727323215 -0.0061095332383332476 0.00157161713577081
319 0.004928216258567086 0.002949327096876071 -0.003916480187434313
385 -0.027163965544199496 -0.0017406976379704723 -0.0007564403293355635
316 0.0138866184472032 -0.009308682287397212 -0.008033010638615262
154 0.027944851295187367 -0.011313211767664234 -6.93768562982336e-05
569 -0.0004046835382944846 -0.0032075655257826313 0.0033210708489808498
156 -0.0015632528689951532 -0.010163748041582005 0.009874666159576339
100 -0.019125689265911718 0.022870133345961306 -0.005373947219157465
66 -0.004921267828424481 0.006173908716375686 -0.004115572024632616
70 -0.0014604454966451953 -0.0020878126565379803 -0.0033667205750181157
332 0.008481948080165832 0.008225107637835181 -0.006986661492942298
150 -0.014070062298795392 0.002798506434617086 0.012637880196723867
567 -0.0012794687755202103 0.005817009730786722 0.013702601424780891
571 -0.0016578685879139812 -0.004188569621859028 -0.0012801666052582826
566 -0.007902139403759188 0.010067672267612971 -0.0002849383121966569
570 0.02551597687674001 0.011883484139001258 -0.00948529393137437
583 -0.010482296706582106 0.0016887305394831672 -0.0314621916141231
82 0.0009017975878450322 0.011952527776243858 0.004913669197257921
568 -0.0034719028623121464 -2.495582602648519e-05 -0.0017350480563288885
383 0.002335000466042248 -0.0025259291796919316 0.004331687758405777
389 0.001705605613519461 0.010064520644098128 -0.0060463909484945845
464 0.0002860631525727244 -9.428030342653376e-05 0.020544172142051027
509 -0.03461849883831417 0.00803506440444869 0.007104185508806201
125 0.0007901190003168889 0.00375756385975349 -0.0018212501027513191
511 0.015266075152421826 0.01335692088934096 0.01516763430046268
317 -0.00020693848012299054 -9.839653397362396e-05 0.0029158141900833597
255 -0.0010799344678643534 -0.004118453120469169 0.0020809081066822032
32 -0.011276996646094772 0.001427795387213603 0.0027732053788874036
546 -0.005544940333496249 -0.014977995663797166 -0.020550241706198
564 -0.002225560536565132 0.0023496945086935775 2.188647063736433e-05
289 -0.044234088266381325 -0.004857764725708278 -0.012598320840469402
39 -0.0011791675583302107 0.0008144252287988655 -0.0007261338746174028
565 -0.028962227269705765 -0.029339806550410887 -0.0069154398944078245
329 -0.02624508784084933 0.0017959630263201833 0.004816427856676578
376 0.006620793591913758 0.00052148441292062 -0.001810892858987962
30 -0.0023078654216418227 -0.001904546895174088 -0.0031666050012405557
250 -0.0026056818110671187 -0.004240290210961199 -0.004108833156832609
215 0.015379005509559647 0.035661691683267306 -0.008299658474019797
23 0.005925842984062161 0.0001680181686178724 0.002172486569527056
4 -0.0056050489646687325 0.0034270242051658247 -0.00014168901171399308
24 0.002649441117937412 -0.009011168859805187 0.0013819381471412517
364 -0.0003936424743361937 0.012819362203919295 -0.044831276599435275
259 0.0019537882779845648 0.00488415395827182 -0.01872932860870569
87 -0.02358715102691964 -0.0006094157557995994 -0.008934690034961426
425 -0.0010524374356217596 0.0028520445421648466 0.00018398505155072312
264 -0.019266913824995253 -0.02014835772965475 0.04736479076229854
112 0.0012142862064220402 0.003153381997823554 -0.0029603414294493984
575 0.0010299662683499798 -0.0056879791568375925 0.001438723098172084
373 0.0028091919404259567 0.004678465336425941 0.016031064738727206
1 0.0016122690195200604 -0.006990863040942056 -0.004197048454019569
92 0.004979451944785194 -0.0016629478925218404 0.004478790132153187
21 -0.00692889790476035 0.020560696590459396 -0.015515575477967452
265 0.005130380476361479 -0.00790226554581981 -0.018500157734079415
260 -0.01805233331357152 0.0004022271656104409 -0.03459330249646269
267 0.0019178323406505023 -0.006287820339535474 -0.002853085949724308
3 -0.0026637910692485344 0.0029600351919099282 -0.004135274793545853
424 0.0032436530232218736 -0.0032770563169962517 -0.006899673479243492
2 -2.8429853295502743e-05 -0.003851977832536048 0.01175145776172581
422 -0.02148879703673731 0.004234830860474209 -0.014102961889645433
28 -0.01020712502673423 -0.032754287210486496 0.03036512824693431
371 -0.002619927530814649 0.011835986447285361 0.0030398873739220476
94 0.008106636610389016 -0.03812623297332366 0.019553161683027835
153 0.02365729667969983 0.009948309705331625 -0.0007882745026003977
33 -0.006608707811532079 0.00035439157822970144 -0.004663432662901964
91 0.005464728490102487 0.0013164899943992178 0.0029637299696743803
225 0.004144191717921754 -0.013928969119923003 -1.8988008915883733e-05
263 0.0011383361406361433 -0.003226989369699363 0.004678533693866906
95 0.00755377261852353 0.004270446734457787 -0.003918765252256456
262 0.00043866062951745737 -0.005215503131878955 -2.0869629252452942e-05
221 -0.0042490259603849495 0.02955206954290301 -0.009196566062249415
365 0.006114172267037694 0.015815010199646404 -0.00041406828897859346
148 -0.00897691033771979 0.0036396631574052317 -0.0009858728325604156
219 0.0016958889268016508 -0.007411005274571696 0.011974651394514655
188 -0.0015440373151257832 0.0027579494688306345 -0.0007110206159404983
368 0.003500075798798074 0.001769462977783466 -0.007756992811028539
19 0.0053177572858752005 0.021074799693099566 0.004304271187980125
372 0.0003088151094911092 0.0020534266456491974 -0.0014575819812336626
453 0.011232082386955373 0.0023772819701396897 0.0029318949332773855
145 0.014589750361337615 -0.013100545878005342 -0.004958824322489462
184 -0.00837557821381846 -0.0006211848037960361 0.011510828268450946
110 0.037201270841304715 -0.028920514958723876 0.0011401014142772008
111 0.0026705847936673638 0.0094177303092398 -0.002166768724013861
374 -0.008983255179420257 -0.0031967809842690974 0.003918736953024737
261 0.020363609611008086 0.005796026923805307 -3.48169708009009e-05
375 -0.0012273215202231672 0.020089634958599643 -0.0077952483712828745
93 -0.006928568221008861 -0.015744637230729348 -0.006549953755250882
155 0.005331901010437432 0.0025738747297314357 0.0029931264202406175
534 0.007483953135553239 0.0009430193669975266 0.006181853781720813
102 0.011662280292812638 -0.02800734597205071 -0.017799341563581938
423 0.004607979343777913 0.004893239347552342 -0.0012290369027404817
20 -0.002691583886138715 0.02027581473559136 0.022666063686086754
366 -0.020086436605002148 -0.015786662236666735 0.01025963431804505
452 -0.03732387286742954 -0.007041065737068969 -0.000589479856133281
268 -0.007763596611083653 0.007266654079279338 0.002448029344588186
26 0.0020692429667066806 -0.004210721274294938 0.0005707895022845846
85 0.0015846613588803395 0.0034334829642039605 0.0029193147143330486
109 -0.007004391662614759 -0.004138656501557245 -0.01300555000982967
573 -0.003147752884942005 -0.006555535629032005 -0.002713678192842955
218 -0.0028011651818539113 -0.0007729552868359331 -0.002596444722723058
97 -0.01663584831936467 -0.0033479210892741703 0.004712762434154187
103 0.024981730278320978 0.037927700299073996 0.01702425731676441
22 -0.0018410017716179226 -0.012616948146556332 -0.004377290160000829
367 -0.005824338839774414 -0.003416576228960719 -0.0012040115049808367
38 0.015697531032186535 0.021242710968912108 0.03967190255058949
266 0.011001542890847595 0.015964268996241163 0.01435426421941508
99 -0.015490728718875272 -0.017398167343884087 -0.016240185762587792
251 0.006207754309469595 -6.993929115629152e-05 0.006602261887281942
369 -0.0018532381734702227 -0.003294633920799198 0.00041759245754080006
89 -0.002016367045700047 0.0033069446447314267 0.0007119920895962475
216 0.0018962160213701815 -0.011389533414882986 0.0005930663241142427
83 -0.006216535522764226 -0.02454069025325495 0.02760900353824598
105 -0.0012203094183279614 -0.0021045414332791284 -0.003278661762660905
118 0.006444228611534947 0.003925331326661345 -0.01155158248992638
537 0.014331701390158547 -0.008294903077690714 -0.004919331713364309
519 0.0021447641560576533 0.003284373340004285 0.004243531043109648
237 0.005704733474495825 -0.015461181174386515 -0.0170765079873304
521 0.0023628310399006923 0.001324139526512883 0.005041752719987275
520 -0.00488968149782806 -0.0005169846700481669 0.003213808171968917
192 0.0023434876890470694 0.00404065841854299 -0.001753077485957908
524 -0.0030668005143576903 -0.00040563369008749694 0.01457706132560942
525 0.023885566208234843 0.003034605258452355 0.01686763567570391
523 0.006447875201925859 0.006981723033829438 -0.0019780340294313064
522 -0.011842043128933812 0.012737715028405958 -0.01133652818266897
526 -0.00825652026401458 0.007721924688445675 -0.03134171566129675
190 0.004966443937434613 0.004646545806958067 0.0033535846565166632
186 0.004497584308265366 0.0064847067901989885 -0.006801624951739962
311 0.007034087568656656 0.0003052503659995757 0.014295431223194871
313 -0.004388294864723957 0.00457048244037239 0.0018573814279100307
312 -0.002427150619581103 -0.006220188973149516 -0.006982423088995909
182 0.0010398453535375184 0.0042925730287613605 -0.007540032160891782
60 0.0013899062020755314 0.004150593794870838 0.003301219914442323
61 -0.013674910571232012 0.02570258196612356 0.013757933966630399
358 0.004574787998549852 -0.002641538282937656 -0.00664113492874554
518 0.03626886043429539 0.010755361748544768 0.01103466344466354
310 0.0026334408727987316 0.006083601818326993 0.004384738287300551
377 -0.0011539400325580765 -0.019669232482072318 0.016387769341454722
306 0.0029401303084372536 -0.0020903804252969923 -0.002666167864304068
315 0.006240350916988699 0.001754928048929647 0.013989243514888913
309 -0.011239249339125476 -0.00928440568204599 0.01018766146431583
308 -0.0181925036149106 -0.02211997078729332 0.01824355820585221
170 0.00580082076923446 -0.03797325461371286 0.012046312751122959
314 0.012809996036501962 0.003861838899981048 -0.030812350129465985
479 -0.008184461573311557 0.0028406355302155106 0.0068128835890422
230 0.03369112630333706 -0.01372829774082247 -0.02058423900351948
353 -0.0036570505358825742 -0.0019024656239246933 -0.004935737937581367
562 0.005111247043478589 0.012953930802711719 0.019853235675483097
477 -0.0024706294421347518 -0.0009693149183694939 -0.0040402361923170815
350 0.004763851739378102 -0.006903311106705911 0.0007202217309085926
517 -0.02851877869407647 0.0124918057155872 0.01195055782248417
563 0.0025773020939164185 -0.018166333549366163 0.021585779289247452
140 0.001465873652556148 0.00035245706105073275 0.004715975031190402
139 -0.0025133214089345705 -0.0007062138405549252 -0.0004756807561321784
254 -0.01071615982070831 -0.017212889025563113 -0.029039284088884586
120 -0.019982911875957042 -0.005066379688186397 0.023019907347554876
169 -0.004112352765360736 -0.001423957257479331 0.008284755759808856
176 0.006324140030795579 -0.0024780427237599567 -0.0009513088034237255
471 0.039959826415996616 0.03817775764379717 -0.029059204967105595
226 0.011237845061599985 -0.012156410227995807 0.005663115746318119
232 0.0015895229377603005 -0.00657560720666602 0.002836915219338315
229 -0.0017232104117827197 -0.0029044484802513803 0.0005543987717398411
73 0.02339885116824815 0.024527114640080856 -0.0164721246373857
473 -0.0018734355592494125 -0.006197814151392093 0.002365303932655176
469 0.002152620265336217 0.0027107431343853638 -0.0022486905845947123
233 0.0015143088026754303 -0.0029591849380840754 -0.005293123578757401
106 -0.023776811056313702 -0.0008226761797140759 -0.035707293909895375
234 -0.008042207167111588 -0.0010622480972902963 -0.0008591139555233283
48 -0.0014746169474252695 -0.00609261493364497 -0.0019762924923579623
257 0.001479360997457407 -0.0029136120129873177 -0.002516989144306785
459 0.02600902076660026 -0.001257104554391161 0.014872086062568459
304 0.0005478648018054815 0.0038087626351427355 0.004120601238238597
228 0.0024903868443493416 -0.04711145781738697 0.0021755550735049704
443 -0.002055730246963248 -0.01755268133950285 -0.006838615303445424
141 0.027730841027848306 0.020986587683506596 0.0030354134738091636
58 -0.0020006811615555847 -0.000629053349112561 -0.0005741759851353846
331 -0.006341368752018778 -0.002008201223310804 -0.0009333790713252868
54 -0.006058483575542801 -0.006338521170934284 0.004246087045929783
330 -0.026365152437989068 -0.036254695174528645 0.00250409133692288
44 0.00923248097895263 -0.01053872873664285 -0.02917142662281489
300 -0.028686432628735305 -0.011175541909607647 0.018756174751941135
189 0.004669224302800395 -0.00567750945001739 -0.02706870550273803
178 -0.037487152823092215 0.0037800154958629773 0.005885830758623613
243 0.004632248513414928 -0.007255616899969097 0.0016235872566194407
212 -0.026997458296353142 -0.002703847928270992 -0.0033572140837990405
301 -0.0036891164782801252 -0.002419109005476077 0.011509817615507553
142 -0.0006704273051490279 0.0009720438262621061 -0.0007729050398706328
333 -0.00030456002174292755 -0.006790097684200482 -0.007311308872484413
52 0.014782685879815616 0.010452561670074164 -0.013560655824131664
181 -0.0011336700457310511 0.011122845040385949 -0.0016109028235007704
585 -0.0054468207624383865 -0.00646342048113124 0.0026598774287337457
187 -0.013614778314700406 0.0070564783567859 -0.0002518815822100653
460 0.000532061065167522 0.0093919641308106 0.011562130206763211
549 0.012061286020344513 -0.016762522553982043 0.013506270717509839
122 0.005711207395962598 -0.0019038476991608854 -0.008786171084947949
183 -0.016932335585886846 -0.0012777096030259251 -0.00845419933240117
335 0.015151887717624839 0.006318266793704625 -0.03327738572603458
457 0.017314383910540698 0.001251465285294098 -0.002376995465021318
488 0.020130304483060787 -0.013124774171785265 0.0012061903716400176
343 0.005840548305572272 0.0015266575856628486 -0.004727403788044308
466 0.0026478659063403865 -0.003169118435088154 -0.00037678550953159615
307 -0.0036953939239817235 0.016494093377256963 0.004540478917697025
305 -0.0014404752722857754 0.0014795726435734811 0.0009828198543836058
482 -3.291753548728088e-06 -0.006176664432930561 -0.0012612529319293096
352 -0.00194075500606564 -0.006334216729072151 0.0036594838216164557
290 0.008517934754500493 -0.005309582081160193 0.007687574835884176
348 -0.004722114540406577 0.0037932334490701995 -0.006005752165310542
485 0.004697181894782316 0.007401128812301105 -0.01871092548645034
581 -0.005312786772532004 -0.0028961527857708416 -0.0018043183622270373
487 0.0028691785277763417 0.0011477454461741898 0.003397945088252593
484 0.0024170027875826112 0.00025216125579612797 -0.002778318128860717
235 0.0001564387678091178 0.0019204100040405808 0.0022478041808614933
302 -0.00934280910606536 -0.0015597893825752011 0.0014763005077510377
191 -0.0061919268345670435 0.007468712474506713 0.00918569272177361
136 -0.004306329466700684 -0.004248702156460747 0.00019702350207433293
284 -0.006275257048040625 -0.002901252140578341 -0.011093580084225474
135 -0.002814065638380166 -0.005448081694674525 -0.004564842336276243
214 0.020843146380360545 -0.002200427372531575 0.019676389407634
213 -0.0026411917523853244 -0.002357528957169236 -0.004387093370917017
210 0.0011912476426180916 -0.002313887583981148 -0.006512449041250605
211 0.007620450522464609 -0.006376745752294406 0.003959470239415828
208 0.0009622658410429729 -0.0006923973778861588 -0.0016229423555616763
414 -0.004409232492535049 -0.001842447570495414 0.006857419323596381
413 -0.0016380585078784146 -0.00085554970915817 0.006644215679647382
206 0.01956443923725128 -0.0006983091592597438 -0.018515899533174625
209 0.019046465664173305 -0.02875037424021908 -0.01828087844332803
417 -0.0015807603756049318 0.005038514086130642 0.002585482890999136
412 0.0016845976012164483 0.005550864758516347 0.002254900819111261
455 7.248166972373884e-05 0.0067712712753942835 -0.012438029466948065
411 0.017185734262264746 0.0007163738499306371 -0.014628879002769404
454 0.006764955654520635 0.028880463497044522 0.01806969930282086
299 0.005350108992383221 -0.00026860616874491134 -0.008190663775518272
137 -0.0069319846479941015 0.025587538148605246 -0.009654693545586852
207 -0.008367809155511928 0.0030410464129331577 0.010396309146272851
415 -0.00011556145472713385 0.0025731102355864197 0.006257213114422309
303 0.0040419864929263655 -0.0266782419958317 0.012627003147203188
418 0.0009057723340552783 0.002382631634583403 0.004363273017965005
239 -0.0012142805362164181 0.0025992094156338298 0.007964365970446767
342 0.0035461169859868197 0.006192056585391667 0.0033530498462317976
490 -0.0070452954255532056 -0.001866244439562484 0.007954708305446385
334 -0.0013392268129873003 -0.002856900025136449 0.006988910056946445
491 0.012212340309457436 -0.024077441354967387 0.0006708183620299324
463 0.027212896790518054 -0.01469803154960904 -0.013331177844158425
505 0.0028833023382054982 -0.0114644472715154 -0.012868014875668824
486 0.0010549722552125548 0.005730585693223525 -0.001365809071139986
458 0.020304065038676888 0.0017899584474670252 -0.03189491144486173
502 -0.0013038668602721299 0.007881339284804568 0.0012727516847086976
390 0.0021903052179149934 -0.0019276849596719476 -0.0023331696335738743
337 0.010033104284146572 0.005041702147295138 0.0014362582784785067
456 0.005425405157227148 0.0037001265233300245 0.00217758756768004
185 -0.0012171934420376579 -0.0024766477508245915 0.00465448496651487
493 0.022918411399139593 -0.0062833752201249884 0.015404188574269718
240 -0.01695275039406237 -0.01075970134848513 0.01393137775326218
114 0.006153557924178365 0.015478200564245795 -0.0018112270270857875
338 0.003712120865947985 0.011692838763954973 0.005529132741145759
295 -0.0023743340628195465 0.008316007624141818 0.002884875053834128
492 -0.003497708821065681 0.002480337013483585 -0.004117469318810054
506 -0.01402258368208346 -0.011337348379653833 0.002504586712138522
503 5.835790245403761e-05 -0.00181016845432472 -0.002006639938428159
499 -0.003952909925639259 0.0018013835665276767 -0.004902737958262111
392 0.0022478934340157226 0.002403558590985832 0.004834851682478282
494 -0.021251540277680996 -0.02048265052251972 0.005181911770003322
133 -0.00784850113616111 0.0050770096897404075 0.022313630506689757
298 0.0017776950833432203 0.0011442270815821436 0.0010232312960515239
386 -0.006530152776525023 0.0018172113717665667 -0.0013750352846355024
339 0.009895396015790323 0.01488628283180618 -0.01450461622600403
293 -0.0007649960202862087 -0.018591507096412323 -0.0014188768334896203
296 0.017785955301213796 0.014058956369201524 -0.022043465908544873
236 0.006078264106805472 -0.025959086107327358 -0.029290715125356904
238 -0.0018109887011901681 -0.008688471968043572 -0.0014163382818101027
382 0.02089964480068673 0.0058895375031196295 -0.0010499914498202632
201 0.00719590226410806 -0.005165439964086135 0.0021908872520987072
231 -0.005266738275591251 -0.0002636048164278459 -0.0007801184380458996
475 0.004921150493376593 -0.0008305746241441238 0.002379135339550256
143 0.002228392572020926 -0.0027661936079359955 -0.005214580278331882
516 0.0065364780679859355 -0.0024036230924658307 -0.0023036639344028026
539 -0.008117143487481741 -0.013971228345713066 -0.01262392560008538
64 0.0015907008851278174 0.005642295661011666 0.0004958746972864906
144 0.0032899356192624537 0.0034665139927640685 0.0045747181187389555
272 0.027627996466775037 0.034245368631048156 0.00015487357865983238
478 0.0027969918010697322 0.00900440704661539 0.000512055094168963
409 -0.037032601511225144 -0.0022947185350128485 -0.0005804990600461166
514 0.010136639734582396 -0.016269774285342053 -0.010647270126140194
513 0.009931058443576786 -0.0004954213237756598 0.03959357372434986
67 0.006827876211604718 0.00011614613888135139 -0.0047277054848977
98 0.006082606280669087 -0.006323252406492726 0.002052661000474509
404 -0.003979026349602434 0.002376720936551762 0.006423780177704874
515 -0.013102015222426208 0.0016238281174195744 5.440642074703829e-05
445 -0.00429039767681284 -4.0563375020118405e-05 -0.00035592403728949514
69 -0.0010926332407387473 0.010008303612532847 -0.005933723921801071
51 -0.005510892780680344 -0.03329238110897928 -0.013219809710756847
408 0.008477243811633443 -0.004668731889265592 0.001070582198623071
400 -0.0045776548255795045 0.004152719657683323 0.0012829468564480528
402 -0.0030597358701928037 0.0011548379596870095 -0.006418608015748959
397 -0.0031523969104860243 0.0007914288048503104 -0.0008593320982249308
396 0.013981464023851194 -0.012586735458598472 0.004250241461695279
561 -0.003037524032280417 0.002412444636413935 -0.003804965455759827
55 -0.007162917310690751 0.001731644713462881 0.0017395620570507032
559 -0.005510769852513334 -0.007966945939229513 -0.001973975779027221
540 0.001310030746066242 -0.02811631844425033 0.015958302324321837
410 0.0361877590372864 -0.01756452206775654 -0.01049370620225422
86 -0.0028715246867334664 -0.008826224174101215 -0.007973587250459982
544 -0.005166685037469576 -0.0027132835303450733 -0.0017810481147118183
538 0.02291337029472479 -0.0037099018693509188 -0.012784526061081493
548 0.00836134968443902 -0.005722221578539555 0.013411218713777399
405 0.0013538444092377803 0.006588249463226942 0.004038508438867637
59 -0.004111596661059364 -0.0019422267551871327 0.0013310684547203986
406 0.00047401076705149185 0.004672762358607771 0.003534460456379462
88 -0.004198027821653001 -0.001083900456501998 -0.006658387033215555
79 -0.0008148939445811724 0.007406716716819533 -0.005302574652287501
77 0.002549188650910592 -0.00046633509787493945 0.0002021162581527347
76 0.021974476863023146 0.018884782999363088 0.009340896290209608
81 -0.029371982147338608 -0.016407547652663158 0.026935674405356366
78 0.006502966010274157 -0.0031373467176166302 -0.0076376625627168826
80 -0.007892389102692982 0.009043893531262361 0.005187519423576107
542 -0.0008780844073278582 0.0018894988697617423 0.001320768329416117
65 0.00044472160245569555 -0.0012098243300258306 0.002862933175310897
197 0.006751144649597385 -0.007639053800434073 0.00919322442894064
198 -0.005094577067678755 0.0026109726947030573 0.013711145577468538
46 0.009469945535134054 0.0033048547076552095 0.012153628697158586
200 -0.008647431931637693 -0.01800278583037051 0.006921092403257473
541 0.021196861801585323 0.0010904472708598368 0.0063241321212084665
543 0.00807095226689317 -0.0037199150822804566 -0.002027474508508937
195 -0.008773383540073572 0.0026334959322060233 -0.0012061570535014745
398 0.011375840624504505 -0.0011338972470967348 0.004187950694579654
318 -0.014089419220355295 0.009259181219678949 0.014212974163188216
163 0.01264467587995591 -0.014406585478918241 -0.004610560334027992
394 0.0025483723360492615 -0.0010198203794385082 -0.004654035415532532
147 0.046677078513565846 0.006375179231874473 -0.03549278302917023
149 -0.00033780107791791576 -0.0031994379348481605 0.0029429677162398785
196 -0.00033318868698506036 0.002705625193946053 0.0021549901306617404
547 -0.018882021173327743 0.007206694473266993 -0.035717247992045925
476 -0.016967357316299374 -0.045153579903728265 -0.02924947550530567
27 -0.0032952951638826698 -0.004386333485847865 0.009499469790053583
558 0.0009995769837006425 0.0014282047743788724 -0.0003824939551500834
444 -0.013153774949803028 -0.002095221061498107 -0.000749919812611722
63 -0.0012733676123970541 0.002342571112803563 -0.008871499492712483
36 -0.0009100385777266926 0.01695501694707861 0.005004760774487905
146 0.003197012408058217 0.0024145934669583796 -0.0008879686864168642
172 0.03140925606204507 0.0070541953238813584 0.005021732950964293
449 0.003120839535883382 0.01865067533252094 0.016600689625514774
576 -0.005057829750658752 0.012687128468396662 0.001355683789636483
256 0.002049415750117237 -0.0034026990541347075 0.01392040103262698
545 -0.00018906448256544959 0.0045361840394282866 0.0007519601131630091
90 0.0145149527643218 -0.005397887122051726 0.0021005223256521134
572 -0.015616869246464308 3.014177722536876e-05 0.012391975549045487
582 0.024837879106456684 0.023058283648778932 -0.020707522875811298
62 0.0199561175385027 0.012371014745590991 0.01569025895335976
107 0.002096929918524271 -0.0005438663504635442 -0.004946547750488869
217 0.005074290224335256 0.002173479818228356 0.002636256982679813
416 -0.0043537119606364885 -0.0010494560687016243 0.0072175187457725895
391 -0.005732519765774626 -0.002674556152897994 -0.011981210939534727
419 0.0002670615097955183 -0.015770926817674183 -0.00907188499366431
220 -0.016838578358256872 -0.031197645233140624 0.020137123769847626
108 0.005562368828259335 -0.005833131538263962 0.0010171471078005481
481 0.02044827315777303 0.005856549760562925 0.017659528956400796
104 0.00785954138543774 0.012913503322664341 0.0005417079218953516
393 -0.0025968304700405304 0.0005174943548101566 -0.0032441567128193506
25 0.0017530402479566183 -0.007780218603303933 -0.006044052911206066
551 0.008498469684976443 0.004045009688955411 -0.020391807642549532
580 -0.005942971523300868 -0.0010849155127679478 -0.0007294155886670198
437 0.006806234882649009 -0.042202863339092025 -0.013222402816737483
96 -0.002794754151170476 -0.010786471689408139 -0.010080028401739542
557 0.001988777161785401 0.014190702854025138 -0.004945073831314495
579 0.030997405248059835 0.0001764254585115144 0.005851536428509656
501 0.0018163414805599902 -5.548496197755202e-05 -0.003780621577617067
442 -0.006497462385546979 -0.004952198681826903 0.002796151654386614
34 0.005002910503894977 0.010821841772696855 0.006226731246126489
480 -0.007085460959028959 -0.006525847155095718 0.0015988934561472021
577 -0.0019163046554076914 -0.00014575715716048482 0.007297084997788521
555 0.0007900082182065153 0.00021587128481225917 0.007776879819658178
336 -0.01150702810427532 -0.014767721943611211 -0.015437973913437745
429 -0.009362473403210508 0.006806006434280559 0.017665775210939264
441 -0.005347642399041515 0.0006688222524548523 -0.007624084919001918
556 0.0047384512929351955 -0.003924552092409708 -0.001764134195986094
427 -0.007362552698049854 -0.0043225130797224535 0.016247058398645025
395 0.0109272757656926 0.004021182531347151 0.001352110285066819
500 -0.0018451133520170442 -0.008942059532715667 0.0019382726712658157
498 -0.0016970758902150039 -0.00424023119494254 -0.004068300180557937
553 0.004462166142097859 0.000493661177508801 -0.0027480028601260514
35 0.0029161604019712953 -0.04019798223850839 0.012794676968908363
496 0.007477565280331632 0.007114835086155517 0.0019294901609775794
426 -0.0015977011283319343 -0.018956672332751574 0.021585022648610726
431 0.01767633676012781 -0.02594982283177696 -0.0011266578418149358
439 -0.005065413003688153 -0.000539144367845127 0.000291326409892849
436 -0.0018816087113208758 -0.00014716471248684023 0.006229241758637685
495 0.0050974422421751885 -0.0005059126114850106 0.0033100233225687205
536 -0.009597062453074295 0.0028332537210989284 0.014527873823983278
435 0.0026406659503693856 0.0017925492603429692 -0.00827524071852259
438 -0.0006646352779056899 0.0007579810137880452 0.004389240822200594
574 0.005448701299054403 0.01387417968277409 -0.015492750084656714
497 -0.004999306411247701 -0.0011616423580960425 9.090397507816423e-05
29 0.0011130565697277412 -0.006596408101370493 0.0004135832755736698
434 -0.00879456301912638 0.002657242533944714 0.004772118776891348
550 0.0242017163092424 -0.007128217144846262 -0.0036142948417297637
504 0.004369100411144447 0.0019863354476639876 -0.0037672828334497327
440 -0.009590126714356873 0.03983081026377815 0.0023822580596322817
578 0.0036451355629864785 0.006824181420241322 0.0011315759647899176
433 -0.010345719471083486 -0.017715759002294898 0.008323471615687335
560 -0.0015546678596825457 0.0057540805102329045 0.0019246908157751195
554 0.007493894828107223 -0.0026895157120701875 0.005000683041608716
31 -0.003406025797382029 0.0034295894958165226 -0.004969965386619934
253 0.0031068574032332877 0.008098417017513812 -0.0003982285882434837

Bonds

1 4 447 281
2 5 447 446
3 5 447 450
4 5 447 448
5 15 351 173
6 17 286 285
7 13 349 354
8 13 47 174
9 14 47 45
10 13 49 47
11 14 49 50
12 13 344 349
13 14 344 341
14 13 347 344
15 13 347 351
16 4 165 347
17 5 165 164
18 5 165 166
19 13 356 351
20 13 354 356
21 15 354 357
22 13 283 281
23 15 283 285
24 13 177 49
25 13 177 124
26 1 162 165
27 5 162 160
28 5 162 161
29 5 162 159
30 14 124 127
31 17 171 173
32 4 56 15
33 4 56 177
34 5 56 132
35 5 56 57
36 6 244 173
37 2 244 247
38 5 244 245
39 5 244 242
40 4 345 349
41 1 345 403
42 5 345 346
43 5 345 340
44 10 247 243
45 9 247 246
46 13 281 278
47 10 531 527
48 9 531 533
49 18 227 527
50 4 361 356
51 5 361 363
52 5 361 360
53 5 361 362
54 6 41 285
55 2 41 43
56 5 41 40
57 5 41 42
58 5 403 401
59 5 403 407
60 5 403 399
61 17 74 72
62 13 15 13
63 18 175 243
64 13 17 15
65 14 17 18
66 13 470 585
67 14 470 468
68 17 359 357
69 5 287 289
70 5 287 288
71 5 287 489
72 8 252 461
73 2 252 247
74 5 252 459
75 5 252 253
76 16 174 169
77 13 174 176
78 8 168 169
79 2 168 43
80 5 168 172
81 5 168 167
82 10 43 39
83 9 43 170
84 13 13 11
85 14 13 53
86 2 528 531
87 6 528 116
88 5 528 507
89 5 528 529
90 8 131 129
91 2 131 251
92 5 131 134
93 5 131 133
94 16 130 129
95 13 130 128
96 13 280 283
97 4 282 280
98 1 282 287
99 5 282 279
100 5 282 483
101 15 278 116
102 14 180 179
103 12 123 291
104 11 123 292
105 6 223 357
106 2 223 379
107 5 223 224
108 5 223 222
109 13 277 280
110 14 277 275
111 6 269 116
112 2 269 472
113 5 269 270
114 5 269 271
115 13 276 277
116 13 276 278
117 1 113 274
118 5 113 115
119 5 113 158
120 5 113 157
121 4 274 276
122 5 274 117
123 5 274 273
124 10 379 193
125 9 379 378
126 8 430 380
127 2 430 379
128 5 430 428
129 5 430 432
130 14 11 10
131 16 12 9
132 13 12 14
133 13 12 11
134 16 384 380
135 13 384 388
136 7 294 291
137 3 294 123
138 5 294 297
139 5 294 249
140 13 14 17
141 14 14 16
142 13 128 180
143 14 128 126
144 13 388 392
145 14 388 387
146 3 121 123
147 8 121 241
148 5 121 119
149 5 121 122
150 8 8 9
151 2 8 4
152 5 8 7
153 5 8 6
154 18 355 193
155 18 37 370
156 10 472 466
157 9 472 474
158 14 421 420
159 8 532 534
160 2 532 531
161 5 532 530
162 5 532 508
163 16 462 461
164 13 462 255
165 13 462 421
166 2 84 86
167 6 84 317
168 5 84 552
169 5 84 82
170 13 323 321
171 14 323 324
172 4 152 322
173 5 152 154
174 5 152 151
175 5 152 150
176 13 68 66
177 13 68 70
178 13 322 325
179 13 320 322
180 15 320 317
181 15 325 327
182 13 326 323
183 13 326 325
184 4 71 68
185 5 71 75
186 5 71 101
187 1 204 71
188 5 204 203
189 5 204 202
190 5 204 205
191 13 321 320
192 5 510 583
193 5 510 509
194 5 510 511
195 4 328 326
196 5 328 385
197 5 328 332
198 4 319 321
199 1 319 510
200 5 319 316
201 5 319 465
202 6 569 327
203 2 569 568
204 5 569 567
205 5 569 451
206 17 156 327
207 13 66 64
208 14 66 100
209 15 70 72
210 8 571 573
211 2 571 568
212 5 571 570
213 5 571 566
214 10 568 564
215 9 568 565
216 1 383 328
217 5 383 512
218 5 383 381
219 5 383 389
220 18 464 199
221 13 255 217
222 14 255 256
223 14 32 535
224 18 329 564
225 13 30 33
226 6 250 155
227 2 250 251
228 5 250 102
229 5 250 103
230 13 23 30
231 14 23 21
232 10 4 1
233 9 4 5
234 13 24 148
235 14 24 28
236 13 425 374
237 14 425 426
238 13 112 91
239 16 575 573
240 13 575 577
241 4 92 112
242 5 92 93
243 5 92 94
244 5 92 38
245 13 267 109
246 2 3 4
247 6 3 95
248 5 3 99
249 5 3 2
250 13 424 423
251 16 371 369
252 13 371 188
253 18 153 125
254 13 33 32
255 14 33 36
256 15 91 95
257 5 263 264
258 5 263 259
259 5 263 265
260 4 262 267
261 1 262 263
262 5 262 261
263 5 262 260
264 13 148 146
265 14 148 145
266 4 219 424
267 4 219 218
268 5 219 221
269 5 219 427
270 13 188 216
271 14 188 184
272 10 368 370
273 9 368 366
274 2 372 368
275 6 372 155
276 5 372 375
277 5 372 373
278 13 453 575
279 14 453 452
280 13 111 268
281 13 111 91
282 13 374 371
283 14 374 376
284 13 423 421
285 14 423 422
286 13 268 267
287 14 268 266
288 16 26 534
289 13 26 22
290 13 26 32
291 1 85 89
292 5 85 110
293 5 85 83
294 5 85 87
295 13 109 112
296 15 109 155
297 13 218 425
298 13 218 216
299 18 97 1
300 13 22 23
301 14 22 20
302 8 367 369
303 2 367 368
304 5 367 365
305 5 367 364
306 10 251 125
307 9 251 248
308 4 89 111
309 5 89 225
310 5 89 62
311 14 216 215
312 6 105 95
313 2 105 108
314 5 105 106
315 5 105 104
316 12 521 519
317 11 521 525
318 3 520 521
319 8 520 358
320 5 520 518
321 5 520 524
322 7 523 519
323 3 523 521
324 5 523 522
325 5 523 526
326 13 190 186
327 14 190 192
328 13 186 182
329 7 311 313
330 3 311 312
331 5 311 308
332 5 311 314
333 12 312 313
334 11 312 315
335 13 182 181
336 14 182 178
337 13 60 190
338 14 60 61
339 3 310 312
340 8 310 306
341 5 310 309
342 5 310 377
343 13 479 482
344 14 479 563
345 16 353 358
346 13 353 350
347 13 353 352
348 13 477 479
349 14 477 562
350 13 350 343
351 14 350 517
352 10 140 139
353 9 140 138
354 13 176 124
355 14 176 120
356 13 232 233
357 14 232 230
358 4 229 233
359 4 229 231
360 5 229 228
361 5 229 226
362 18 73 139
363 8 473 467
364 2 473 472
365 5 473 471
366 5 473 443
367 16 469 467
368 13 469 470
369 13 469 331
370 13 233 235
371 13 234 232
372 14 234 118
373 6 257 72
374 2 257 140
375 5 257 254
376 5 257 258
377 16 304 306
378 13 304 301
379 13 304 305
380 16 58 59
381 13 58 60
382 13 58 181
383 14 331 330
384 13 301 298
385 14 301 300
386 8 142 143
387 2 142 140
388 5 142 144
389 5 142 141
390 13 333 331
391 14 333 272
392 14 181 51
393 13 585 516
394 14 585 584
395 4 187 186
396 4 187 185
397 5 187 189
398 5 187 183
399 13 343 342
400 14 343 339
401 14 305 307
402 16 482 484
403 13 482 480
404 14 352 290
405 13 348 352
406 14 348 284
407 4 581 417
408 4 581 580
409 5 581 460
410 5 581 549
411 8 487 484
412 3 487 490
413 5 487 485
414 5 487 491
415 13 235 239
416 14 235 236
417 13 302 305
418 14 302 303
419 13 136 135
420 14 136 191
421 13 135 130
422 14 135 137
423 7 210 213
424 3 210 211
425 5 210 207
426 5 210 212
427 12 211 213
428 11 211 214
429 3 208 211
430 8 208 413
431 5 208 206
432 5 208 209
433 16 414 413
434 13 414 415
435 13 414 412
436 13 417 455
437 14 412 411
438 13 455 412
439 14 455 454
440 13 299 302
441 13 415 418
442 14 415 416
443 13 418 417
444 14 418 419
445 14 239 240
446 13 342 348
447 12 490 486
448 11 490 488
449 13 334 390
450 13 334 392
451 13 502 503
452 14 502 463
453 13 390 386
454 14 390 391
455 4 337 342
456 4 337 334
457 5 337 338
458 5 337 336
459 13 456 453
460 14 456 457
461 13 185 136
462 13 185 180
463 18 114 466
464 4 295 299
465 4 295 499
466 5 295 293
467 5 295 458
468 3 492 490
469 7 492 486
470 5 492 493
471 5 492 494
472 13 503 500
473 14 503 505
474 13 499 502
475 13 499 497
476 14 392 335
477 13 298 299
478 14 298 296
479 13 386 384
480 14 386 382
481 16 238 241
482 13 238 234
483 13 238 239
484 13 201 404
485 14 201 237
486 13 231 201
487 13 231 445
488 13 475 477
489 13 475 478
490 13 516 333
491 13 64 65
492 14 478 476
493 13 67 70
494 13 404 400
495 14 404 409
496 4 515 516
497 4 515 475
498 5 515 513
499 5 515 514
500 14 445 444
501 4 69 67
502 5 69 46
503 5 69 44
504 5 69 48
505 16 400 402
506 13 400 397
507 13 397 445
508 14 397 396
509 8 561 558
510 2 561 86
511 5 561 90
512 5 561 537
513 8 55 59
514 2 55 79
515 5 55 52
516 5 55 54
517 18 540 77
518 10 86 559
519 9 86 88
520 6 544 542
521 2 544 405
522 5 544 541
523 5 544 548
524 10 405 543
525 9 405 538
526 8 406 402
527 2 406 405
528 5 406 410
529 5 406 408
530 10 79 77
531 9 79 81
532 2 78 79
533 6 78 542
534 5 78 80
535 5 78 76
536 13 65 67
537 15 65 542
538 10 197 199
539 9 197 200
540 8 195 394
541 2 195 197
542 5 195 163
543 5 195 398
544 18 318 559
545 13 149 25
546 14 149 147
547 6 196 317
548 2 196 197
549 5 196 194
550 5 196 198
551 18 547 543
552 4 63 64
553 1 63 545
554 5 63 98
555 5 63 539
556 16 146 143
557 13 146 149
558 18 449 39
559 5 545 576
560 5 545 572
561 5 545 546
562 13 217 424
563 14 217 220
564 10 108 107
565 9 108 19
566 14 393 395
567 14 25 27
568 13 580 456
569 13 580 578
570 18 96 107
571 14 557 440
572 16 442 394
573 13 442 438
574 13 442 393
575 13 480 478
576 14 480 481
577 13 577 578
578 14 577 574
579 13 555 553
580 13 555 557
581 16 556 558
582 13 556 560
583 16 500 501
584 13 500 498
585 13 498 497
586 14 498 496
587 13 553 554
588 14 553 550
589 13 439 393
590 14 439 441
591 13 436 439
592 13 435 436
593 14 435 433
594 13 438 435
595 14 438 437
596 14 497 495
597 13 29 24
598 13 29 25
599 4 434 436
600 4 434 555
601 5 434 431
602 5 434 429
603 8 504 501
604 2 504 108
605 5 504 506
606 5 504 582
607 14 578 579
608 13 560 557
609 14 560 536
610 13 554 556
611 14 554 551
612 4 31 30
613 4 31 29
614 5 31 35
615 5 31 34

Angles

1 23 281 447 446
2 23 281 447 450
3 23 281 447 448
4 29 446 447 450
5 29 446 447 448
6 29 450 447 448
7 24 347 351 356
8 26 356 351 173
9 26 347 351 173
10 11 41 285 283
11 28 283 285 286
12 12 41 285 286
13 9 345 349 344
14 24 344 349 354
15 9 345 349 354
16 24 49 47 174
17 25 49 47 45
18 25 174 47 45
19 24 177 49 47
20 25 177 49 50
21 25 47 49 50
22 24 347 344 349
23 25 347 344 341
24 25 349 344 341
25 9 165 347 344
26 9 165 347 351
27 24 344 347 351
28 1 162 165 347
29 2 162 165 164
30 2 162 165 166
31 23 347 165 164
32 29 164 165 166
33 23 347 165 166
34 9 361 356 354
35 24 354 356 351
36 9 361 356 351
37 24 349 354 356
38 26 356 354 357
39 26 349 354 357
40 24 280 283 281
41 26 281 283 285
42 26 280 283 285
43 9 56 177 49
44 9 56 177 124
45 24 49 177 124
46 2 165 162 160
47 29 160 162 161
48 29 160 162 159
49 2 165 162 161
50 29 161 162 159
51 2 165 162 159
52 24 177 124 176
53 25 177 124 127
54 25 176 124 127
55 11 244 173 351
56 28 351 173 171
57 12 244 173 171
58 22 15 56 177
59 23 15 56 132
60 23 15 56 57
61 23 177 56 132
62 29 132 56 57
63 23 177 56 57
64 16 247 244 173
65 30 245 244 173
66 30 242 244 173
67 15 247 244 245
68 29 245 244 242
69 15 247 244 242
70 1 403 345 349
71 23 349 345 346
72 23 349 345 340
73 2 403 345 346
74 29 346 345 340
75 2 403 345 340
76 3 244 247 252
77 5 244 247 243
78 4 244 247 246
79 4 252 247 246
80 33 246 247 243
81 5 252 247 243
82 9 447 281 283
83 24 283 281 278
84 9 447 281 278
85 18 531 527 227
86 3 528 531 532
87 5 528 531 527
88 4 528 531 533
89 4 532 531 533
90 33 533 531 527
91 5 532 531 527
92 14 473 467 469
93 23 356 361 363
94 23 356 361 360
95 23 356 361 362
96 29 363 361 360
97 29 363 361 362
98 29 360 361 362
99 16 43 41 285
100 30 40 41 285
101 30 42 41 285
102 15 43 41 40
103 29 40 41 42
104 15 43 41 42
105 2 345 403 401
106 2 345 403 407
107 2 345 403 399
108 29 401 403 407
109 29 401 403 399
110 29 407 403 399
111 11 257 72 70
112 28 70 72 74
113 12 257 72 74
114 9 56 15 17
115 24 17 15 13
116 9 56 15 13
117 24 14 17 15
118 25 14 17 18
119 25 15 17 18
120 24 469 470 585
121 25 469 470 468
122 25 585 470 468
123 11 223 357 354
124 28 354 357 359
125 12 223 357 359
126 2 282 287 289
127 2 282 287 288
128 2 282 287 489
129 29 289 287 288
130 29 289 287 489
131 29 288 287 489
132 17 247 252 461
133 15 247 252 459
134 15 247 252 253
135 32 459 252 461
136 29 459 252 253
137 32 253 252 461
138 27 47 174 169
139 24 47 174 176
140 27 176 174 169
141 17 43 168 169
142 15 43 168 172
143 15 43 168 167
144 32 172 168 169
145 29 172 168 167
146 32 167 168 169
147 3 41 43 168
148 5 41 43 39
149 4 41 43 170
150 4 168 43 170
151 33 170 43 39
152 5 168 43 39
153 24 15 13 11
154 25 15 13 53
155 25 11 13 53
156 16 531 528 116
157 30 507 528 116
158 30 529 528 116
159 15 531 528 507
160 29 507 528 529
161 15 531 528 529
162 17 251 131 129
163 15 251 131 134
164 15 251 131 133
165 32 134 131 129
166 29 134 131 133
167 32 133 131 129
168 27 135 130 129
169 24 135 130 128
170 27 128 130 129
171 9 282 280 277
172 24 277 280 283
173 9 282 280 283
174 1 287 282 280
175 23 280 282 279
176 23 280 282 483
177 2 287 282 279
178 29 279 282 483
179 2 287 282 483
180 24 276 278 281
181 26 276 278 116
182 26 281 278 116
183 11 528 116 278
184 11 269 116 278
185 10 528 116 269
186 24 185 180 128
187 25 185 180 179
188 25 128 180 179
189 6 294 123 121
190 8 294 123 291
191 7 294 123 292
192 7 121 123 292
193 34 292 123 291
194 8 121 123 291
195 16 379 223 357
196 30 224 223 357
197 30 222 223 357
198 15 379 223 224
199 29 224 223 222
200 15 379 223 222
201 13 294 291 123
202 24 276 277 280
203 25 276 277 275
204 25 280 277 275
205 16 472 269 116
206 30 270 269 116
207 30 271 269 116
208 15 472 269 270
209 29 270 269 271
210 15 472 269 271
211 9 274 276 277
212 9 274 276 278
213 24 277 276 278
214 2 274 113 115
215 29 115 113 158
216 29 115 113 157
217 2 274 113 158
218 29 158 113 157
219 2 274 113 157
220 1 113 274 276
221 2 113 274 117
222 2 113 274 273
223 23 276 274 117
224 29 117 274 273
225 23 276 274 273
226 18 379 193 355
227 3 223 379 430
228 5 223 379 193
229 4 223 379 378
230 4 430 379 378
231 33 378 379 193
232 5 430 379 193
233 17 379 430 380
234 15 379 430 428
235 15 379 430 432
236 32 428 430 380
237 29 428 430 432
238 32 432 430 380
239 14 430 380 384
240 24 12 11 13
241 25 12 11 10
242 25 13 11 10
243 27 14 12 9
244 27 11 12 9
245 24 14 12 11
246 14 8 9 12
247 27 386 384 380
248 24 386 384 388
249 27 388 384 380
250 31 297 294 291
251 19 123 294 297
252 29 297 294 249
253 31 249 294 291
254 19 123 294 249
255 20 123 294 291
256 24 12 14 17
257 25 12 14 16
258 25 17 14 16
259 24 130 128 180
260 25 130 128 126
261 25 180 128 126
262 24 384 388 392
263 25 384 388 387
264 25 392 388 387
265 14 121 241 238
266 21 123 121 241
267 19 123 121 119
268 19 123 121 122
269 32 119 121 241
270 29 119 121 122
271 32 122 121 241
272 17 4 8 9
273 15 4 8 7
274 15 4 8 6
275 32 7 8 9
276 29 7 8 6
277 32 6 8 9
278 14 131 129 130
279 18 368 370 37
280 3 269 472 473
281 5 269 472 466
282 4 269 472 474
283 4 473 472 474
284 33 474 472 466
285 5 473 472 466
286 18 197 199 464
287 14 252 461 462
288 24 462 421 423
289 25 462 421 420
290 25 423 421 420
291 17 531 532 534
292 15 531 532 530
293 15 531 532 508
294 32 530 532 534
295 29 530 532 508
296 32 508 532 534
297 27 255 462 461
298 27 421 462 461
299 24 255 462 421
300 16 86 84 317
301 30 552 84 317
302 30 82 84 317
303 15 86 84 552
304 29 552 84 82
305 15 86 84 82
306 24 326 323 321
307 25 326 323 324
308 25 321 323 324
309 23 322 152 154
310 23 322 152 151
311 23 322 152 150
312 29 154 152 151
313 29 154 152 150
314 29 151 152 150
315 9 71 68 66
316 9 71 68 70
317 24 66 68 70
318 11 569 327 325
319 28 325 327 156
320 12 569 327 156
321 9 152 322 320
322 24 320 322 325
323 9 152 322 325
324 24 321 320 322
325 26 321 320 317
326 26 322 320 317
327 24 326 325 322
328 26 326 325 327
329 26 322 325 327
330 9 328 326 323
331 9 328 326 325
332 24 323 326 325
333 1 204 71 68
334 2 204 71 75
335 2 204 71 101
336 23 68 71 75
337 29 75 71 101
338 23 68 71 101
339 2 71 204 203
340 29 203 204 202
341 29 203 204 205
342 2 71 204 202
343 29 202 204 205
344 2 71 204 205
345 9 319 321 323
346 24 323 321 320
347 9 319 321 320
348 2 319 510 583
349 2 319 510 509
350 2 319 510 511
351 29 583 510 509
352 29 583 510 511
353 29 509 510 511
354 1 383 328 326
355 2 383 328 385
356 2 383 328 332
357 23 326 328 385
358 29 385 328 332
359 23 326 328 332
360 1 510 319 321
361 23 321 319 316
362 23 321 319 465
363 2 510 319 316
364 29 316 319 465
365 2 510 319 465
366 16 568 569 327
367 30 567 569 327
368 30 451 569 327
369 15 568 569 567
370 29 567 569 451
371 15 568 569 451
372 24 68 66 64
373 25 68 66 100
374 25 64 66 100
375 24 68 70 67
376 26 68 70 72
377 26 67 70 72
378 17 568 571 573
379 15 568 571 570
380 15 568 571 566
381 32 570 571 573
382 29 570 571 566
383 32 566 571 573
384 3 569 568 571
385 5 569 568 564
386 4 569 568 565
387 4 571 568 565
388 33 565 568 564
389 5 571 568 564
390 2 328 383 512
391 29 512 383 381
392 29 512 383 389
393 2 328 383 381
394 29 381 383 389
395 2 328 383 389
396 18 251 125 153
397 11 84 317 320
398 11 196 317 320
399 10 84 317 196
400 24 462 255 217
401 25 462 255 256
402 25 217 255 256
403 24 26 32 33
404 25 26 32 535
405 25 33 32 535
406 18 568 564 329
407 18 43 39 449
408 9 31 30 23
409 24 23 30 33
410 9 31 30 33
411 16 251 250 155
412 30 102 250 155
413 30 103 250 155
414 15 251 250 102
415 29 102 250 103
416 15 251 250 103
417 24 22 23 30
418 25 22 23 21
419 25 30 23 21
420 3 3 4 8
421 5 3 4 1
422 4 3 4 5
423 4 8 4 5
424 33 5 4 1
425 5 8 4 1
426 24 29 24 148
427 25 29 24 28
428 25 148 24 28
429 24 218 425 374
430 25 218 425 426
431 25 374 425 426
432 9 92 112 109
433 24 109 112 91
434 9 92 112 91
435 27 453 575 573
436 24 453 575 577
437 27 577 575 573
438 18 4 1 97
439 23 112 92 93
440 23 112 92 94
441 23 112 92 38
442 29 93 92 94
443 29 93 92 38
444 29 94 92 38
445 9 262 267 268
446 24 268 267 109
447 9 262 267 109
448 16 4 3 95
449 30 99 3 95
450 30 2 3 95
451 15 4 3 99
452 29 99 3 2
453 15 4 3 2
454 9 219 424 217
455 24 217 424 423
456 9 219 424 423
457 27 374 371 369
458 24 374 371 188
459 27 188 371 369
460 24 30 33 32
461 25 30 33 36
462 25 32 33 36
463 24 111 91 112
464 26 111 91 95
465 26 112 91 95
466 2 262 263 264
467 2 262 263 259
468 2 262 263 265
469 29 264 263 259
470 29 264 263 265
471 29 259 263 265
472 11 3 95 91
473 11 105 95 91
474 10 3 95 105
475 1 263 262 267
476 23 267 262 261
477 23 267 262 260
478 2 263 262 261
479 29 261 262 260
480 2 263 262 260
481 24 24 148 146
482 25 24 148 145
483 25 146 148 145
484 22 424 219 218
485 23 424 219 221
486 23 424 219 427
487 23 218 219 221
488 29 221 219 427
489 23 218 219 427
490 24 371 188 216
491 25 371 188 184
492 25 216 188 184
493 3 372 368 367
494 5 372 368 370
495 4 372 368 366
496 4 367 368 366
497 33 366 368 370
498 5 367 368 370
499 16 368 372 155
500 30 375 372 155
501 30 373 372 155
502 15 368 372 375
503 29 375 372 373
504 15 368 372 373
505 24 456 453 575
506 25 456 453 452
507 25 575 453 452
508 9 89 111 268
509 9 89 111 91
510 24 268 111 91
511 24 425 374 371
512 25 425 374 376
513 25 371 374 376
514 11 372 155 109
515 11 250 155 109
516 10 372 155 250
517 14 532 534 26
518 24 424 423 421
519 25 424 423 422
520 25 421 423 422
521 24 111 268 267
522 25 111 268 266
523 25 267 268 266
524 27 22 26 534
525 27 32 26 534
526 24 22 26 32
527 2 89 85 110
528 29 110 85 83
529 29 110 85 87
530 2 89 85 83
531 29 83 85 87
532 2 89 85 87
533 24 267 109 112
534 26 112 109 155
535 26 267 109 155
536 14 571 573 575
537 9 219 218 425
538 9 219 218 216
539 24 425 218 216
540 24 26 22 23
541 25 26 22 20
542 25 23 22 20
543 17 368 367 369
544 15 368 367 365
545 15 368 367 364
546 32 365 367 369
547 29 365 367 364
548 32 364 367 369
549 3 250 251 131
550 5 250 251 125
551 4 250 251 248
552 4 131 251 248
553 33 248 251 125
554 5 131 251 125
555 14 367 369 371
556 1 85 89 111
557 2 85 89 225
558 2 85 89 62
559 23 111 89 225
560 29 225 89 62
561 23 111 89 62
562 24 218 216 188
563 25 218 216 215
564 25 188 216 215
565 16 108 105 95
566 30 106 105 95
567 30 104 105 95
568 15 108 105 106
569 29 106 105 104
570 15 108 105 104
571 13 523 519 521
572 6 523 521 520
573 8 523 521 519
574 7 523 521 525
575 7 520 521 525
576 34 525 521 519
577 8 520 521 519
578 21 521 520 358
579 19 521 520 518
580 19 521 520 524
581 32 518 520 358
582 29 518 520 524
583 32 524 520 358
584 31 522 523 519
585 19 521 523 522
586 29 522 523 526
587 31 526 523 519
588 19 521 523 526
589 20 521 523 519
590 24 60 190 186
591 25 60 190 192
592 25 186 190 192
593 9 187 186 190
594 24 190 186 182
595 9 187 186 182
596 31 308 311 313
597 19 312 311 308
598 29 308 311 314
599 31 314 311 313
600 19 312 311 314
601 20 312 311 313
602 13 311 313 312
603 6 311 312 310
604 8 311 312 313
605 7 311 312 315
606 7 310 312 315
607 34 315 312 313
608 8 310 312 313
609 24 186 182 181
610 25 186 182 178
611 25 181 182 178
612 24 58 60 190
613 25 58 60 61
614 25 190 60 61
615 14 520 358 353
616 21 312 310 306
617 19 312 310 309
618 19 312 310 377
619 32 309 310 306
620 29 309 310 377
621 32 377 310 306
622 14 310 306 304
623 24 477 479 482
624 25 477 479 563
625 25 482 479 563
626 27 350 353 358
627 27 352 353 358
628 24 350 353 352
629 24 475 477 479
630 25 475 477 562
631 25 479 477 562
632 24 353 350 343
633 25 353 350 517
634 25 343 350 517
635 3 257 140 142
636 5 257 140 139
637 4 257 140 138
638 4 142 140 138
639 33 138 140 139
640 5 142 140 139
641 18 140 139 73
642 14 168 169 174
643 24 174 176 124
644 25 174 176 120
645 25 124 176 120
646 24 234 232 233
647 25 234 232 230
648 25 233 232 230
649 22 233 229 231
650 23 233 229 228
651 23 233 229 226
652 23 231 229 228
653 29 228 229 226
654 23 231 229 226
655 17 472 473 467
656 15 472 473 471
657 15 472 473 443
658 32 471 473 467
659 29 471 473 443
660 32 443 473 467
661 27 470 469 467
662 27 331 469 467
663 24 470 469 331
664 9 229 233 232
665 24 232 233 235
666 9 229 233 235
667 24 238 234 232
668 25 238 234 118
669 25 232 234 118
670 16 140 257 72
671 30 254 257 72
672 30 258 257 72
673 15 140 257 254
674 29 254 257 258
675 15 140 257 258
676 27 301 304 306
677 27 305 304 306
678 24 301 304 305
679 27 60 58 59
680 27 181 58 59
681 24 60 58 181
682 24 469 331 333
683 25 469 331 330
684 25 333 331 330
685 18 247 243 175
686 24 304 301 298
687 25 304 301 300
688 25 298 301 300
689 17 140 142 143
690 15 140 142 144
691 15 140 142 141
692 32 144 142 143
693 29 144 142 141
694 32 141 142 143
695 24 516 333 331
696 25 516 333 272
697 25 331 333 272
698 24 58 181 182
699 25 58 181 51
700 25 182 181 51
701 24 470 585 516
702 25 470 585 584
703 25 516 585 584
704 22 186 187 185
705 23 186 187 189
706 23 186 187 183
707 23 185 187 189
708 29 189 187 183
709 23 185 187 183
710 24 350 343 342
711 25 350 343 339
712 25 342 343 339
713 18 472 466 114
714 24 304 305 302
715 25 304 305 307
716 25 302 305 307
717 27 479 482 484
718 24 479 482 480
719 27 480 482 484
720 24 353 352 348
721 25 353 352 290
722 25 348 352 290
723 24 342 348 352
724 25 342 348 284
725 25 352 348 284
726 22 417 581 580
727 23 417 581 460
728 23 417 581 549
729 23 580 581 460
730 29 460 581 549
731 23 580 581 549
732 21 490 487 484
733 32 485 487 484
734 32 491 487 484
735 19 490 487 485
736 29 485 487 491
737 19 490 487 491
738 14 487 484 482
739 24 233 235 239
740 25 233 235 236
741 25 239 235 236
742 24 299 302 305
743 25 299 302 303
744 25 305 302 303
745 24 185 136 135
746 25 185 136 191
747 25 135 136 191
748 24 136 135 130
749 25 136 135 137
750 25 130 135 137
751 13 210 213 211
752 31 207 210 213
753 19 211 210 207
754 29 207 210 212
755 31 212 210 213
756 19 211 210 212
757 20 211 210 213
758 6 210 211 208
759 8 210 211 213
760 7 210 211 214
761 7 208 211 214
762 34 214 211 213
763 8 208 211 213
764 21 211 208 413
765 19 211 208 206
766 19 211 208 209
767 32 206 208 413
768 29 206 208 209
769 32 209 208 413
770 27 415 414 413
771 27 412 414 413
772 24 415 414 412
773 14 208 413 414
774 9 581 417 418
775 24 418 417 455
776 9 581 417 455
777 24 414 412 455
778 25 414 412 411
779 25 455 412 411
780 24 417 455 412
781 25 417 455 454
782 25 412 455 454
783 9 295 299 298
784 24 298 299 302
785 9 295 299 302
786 24 414 415 418
787 25 414 415 416
788 25 418 415 416
789 24 415 418 417
790 25 415 418 419
791 25 417 418 419
792 24 238 239 235
793 25 238 239 240
794 25 235 239 240
795 9 337 342 343
796 24 343 342 348
797 9 337 342 348
798 6 487 490 492
799 8 487 490 486
800 7 487 490 488
801 7 492 490 488
802 34 488 490 486
803 8 492 490 486
804 9 337 334 390
805 9 337 334 392
806 24 390 334 392
807 13 492 486 490
808 24 499 502 503
809 25 499 502 463
810 25 503 502 463
811 24 334 390 386
812 25 334 390 391
813 25 386 390 391
814 22 342 337 334
815 23 342 337 338
816 23 342 337 336
817 23 334 337 338
818 29 338 337 336
819 23 334 337 336
820 24 580 456 453
821 25 580 456 457
822 25 453 456 457
823 9 187 185 136
824 9 187 185 180
825 24 136 185 180
826 22 299 295 499
827 23 299 295 293
828 23 299 295 458
829 23 499 295 293
830 29 293 295 458
831 23 499 295 458
832 20 490 492 486
833 19 490 492 493
834 19 490 492 494
835 31 493 492 486
836 29 493 492 494
837 31 494 492 486
838 24 502 503 500
839 25 502 503 505
840 25 500 503 505
841 9 295 499 502
842 9 295 499 497
843 24 502 499 497
844 24 334 392 388
845 25 334 392 335
846 25 388 392 335
847 24 301 298 299
848 25 301 298 296
849 25 299 298 296
850 24 390 386 384
851 25 390 386 382
852 25 384 386 382
853 27 234 238 241
854 27 239 238 241
855 24 234 238 239
856 24 231 201 404
857 25 231 201 237
858 25 404 201 237
859 9 229 231 201
860 9 229 231 445
861 24 201 231 445
862 9 515 475 477
863 9 515 475 478
864 24 477 475 478
865 14 142 143 146
866 9 515 516 585
867 24 585 516 333
868 9 515 516 333
869 9 63 64 66
870 24 66 64 65
871 9 63 64 65
872 24 475 478 480
873 25 475 478 476
874 25 480 478 476
875 9 69 67 65
876 24 65 67 70
877 9 69 67 70
878 24 201 404 400
879 25 201 404 409
880 25 400 404 409
881 22 516 515 475
882 23 516 515 513
883 23 516 515 514
884 23 475 515 513
885 29 513 515 514
886 23 475 515 514
887 24 231 445 397
888 25 231 445 444
889 25 397 445 444
890 23 67 69 46
891 23 67 69 44
892 23 67 69 48
893 29 46 69 44
894 29 46 69 48
895 29 44 69 48
896 27 404 400 402
897 24 404 400 397
898 27 397 400 402
899 14 406 402 400
900 24 400 397 445
901 25 400 397 396
902 25 445 397 396
903 17 86 561 558
904 15 86 561 90
905 15 86 561 537
906 32 90 561 558
907 29 90 561 537
908 32 537 561 558
909 17 79 55 59
910 15 79 55 52
911 15 79 55 54
912 32 52 55 59
913 29 52 55 54
914 32 54 55 59
915 18 86 559 318
916 3 84 86 561
917 5 84 86 559
918 4 84 86 88
919 4 561 86 88
920 33 88 86 559
921 5 561 86 559
922 16 405 544 542
923 30 541 544 542
924 30 548 544 542
925 15 405 544 541
926 29 541 544 548
927 15 405 544 548
928 3 544 405 406
929 5 544 405 543
930 4 544 405 538
931 4 406 405 538
932 33 538 405 543
933 5 406 405 543
934 14 55 59 58
935 17 405 406 402
936 15 405 406 410
937 15 405 406 408
938 32 410 406 402
939 29 410 406 408
940 32 408 406 402
941 3 78 79 55
942 5 78 79 77
943 4 78 79 81
944 4 55 79 81
945 33 81 79 77
946 5 55 79 77
947 18 79 77 540
948 16 79 78 542
949 30 80 78 542
950 30 76 78 542
951 15 79 78 80
952 29 80 78 76
953 15 79 78 76
954 11 78 542 65
955 11 544 542 65
956 10 78 542 544
957 24 64 65 67
958 26 64 65 542
959 26 67 65 542
960 3 196 197 195
961 5 196 197 199
962 4 196 197 200
963 4 195 197 200
964 33 200 197 199
965 5 195 197 199
966 18 405 543 547
967 17 197 195 394
968 15 197 195 163
969 15 197 195 398
970 32 163 195 394
971 29 163 195 398
972 32 398 195 394
973 14 195 394 442
974 24 146 149 25
975 25 146 149 147
976 25 25 149 147
977 16 197 196 317
978 30 194 196 317
979 30 198 196 317
980 15 197 196 194
981 29 194 196 198
982 15 197 196 198
983 14 561 558 556
984 1 545 63 64
985 23 64 63 98
986 23 64 63 539
987 2 545 63 98
988 29 98 63 539
989 2 545 63 539
990 27 148 146 143
991 24 148 146 149
992 27 149 146 143
993 2 63 545 576
994 2 63 545 572
995 2 63 545 546
996 29 576 545 572
997 29 576 545 546
998 29 572 545 546
999 18 108 107 96
1000 24 255 217 424
1001 25 255 217 220
1002 25 424 217 220
1003 3 105 108 504
1004 5 105 108 107
1005 4 105 108 19
1006 4 504 108 19
1007 33 19 108 107
1008 5 504 108 107
1009 24 442 393 439
1010 25 442 393 395
1011 25 439 393 395
1012 24 29 25 149
1013 25 29 25 27
1014 25 149 25 27
1015 9 581 580 456
1016 9 581 580 578
1017 24 456 580 578
1018 24 555 557 560
1019 25 555 557 440
1020 25 560 557 440
1021 14 504 501 500
1022 27 438 442 394
1023 27 393 442 394
1024 24 438 442 393
1025 24 482 480 478
1026 25 482 480 481
1027 25 478 480 481
1028 24 575 577 578
1029 25 575 577 574
1030 25 578 577 574
1031 9 434 555 553
1032 9 434 555 557
1033 24 553 555 557
1034 27 554 556 558
1035 24 554 556 560
1036 27 560 556 558
1037 27 503 500 501
1038 24 503 500 498
1039 27 498 500 501
1040 24 500 498 497
1041 25 500 498 496
1042 25 497 498 496
1043 24 555 553 554
1044 25 555 553 550
1045 25 554 553 550
1046 24 436 439 393
1047 25 436 439 441
1048 25 393 439 441
1049 9 434 436 435
1050 24 435 436 439
1051 9 434 436 439
1052 24 438 435 436
1053 25 438 435 433
1054 25 436 435 433
1055 24 442 438 435
1056 25 442 438 437
1057 25 435 438 437
1058 24 499 497 498
1059 25 499 497 495
1060 25 498 497 495
1061 9 31 29 24
1062 9 31 29 25
1063 24 24 29 25
1064 22 436 434 555
1065 23 436 434 431
1066 23 436 434 429
1067 23 555 434 431
1068 29 431 434 429
1069 23 555 434 429
1070 17 108 504 501
1071 15 108 504 506
1072 15 108 504 582
1073 32 506 504 501
1074 29 506 504 582
1075 32 582 504 501
1076 24 580 578 577
1077 25 580 578 579
1078 25 577 578 579
1079 24 556 560 557
1080 25 556 560 536
1081 25 557 560 536
1082 24 553 554 556
1083 25 553 554 551
1084 25 556 554 551
1085 22 30 31 29
1086 23 30 31 35
1087 23 30 31 34
1088 23 29 31 35
1089 29 35 31 34
1090 23 29 31 34

Dihedrals

1 26 347 351 356 354
2 30 356 351 173 171
3 30 347 351 173 171
4 15 41 285 283 281
5 31 283 285 41 40
6 31 283 285 41 42
7 15 41 285 283 280
8 10 345 349 344 347
9 25 344 349 345 346
10 25 344 349 345 340
11 26 344 349 354 356
12 11 345 349 344 341
13 27 354 349 344 341
14 25 354 349 345 346
15 25 354 349 345 340
16 10 345 349 354 356
17 12 345 349 354 357
18 28 344 349 354 357
19 29 49 47 174 169
20 26 49 47 174 176
21 27 174 47 49 50
22 45 45 47 174 169
23 26 177 49 47 174
24 27 177 49 47 45
25 44 50 49 47 45
26 26 47 49 177 124
27 26 347 344 349 354
28 26 349 344 347 351
29 10 165 347 344 349
30 11 165 347 344 341
31 10 165 347 351 356
32 25 344 347 165 164
33 25 351 347 165 164
34 25 344 347 165 166
35 25 351 347 165 166
36 26 344 347 351 356
37 27 351 347 344 341
38 12 165 347 351 173
39 28 344 347 351 173
40 1 162 165 347 344
41 1 162 165 347 351
42 23 347 165 162 160
43 23 347 165 162 161
44 23 347 165 162 159
45 10 361 356 351 347
46 10 361 356 354 349
47 25 354 356 361 363
48 25 354 356 361 360
49 25 354 356 361 362
50 25 351 356 361 363
51 25 351 356 361 360
52 25 351 356 361 362
53 12 361 356 351 173
54 28 354 356 351 173
55 12 361 356 354 357
56 28 351 356 354 357
57 26 349 354 356 351
58 30 356 354 357 359
59 30 349 354 357 359
60 26 280 283 281 278
61 30 281 283 285 286
62 30 280 283 285 286
63 10 56 177 49 47
64 11 56 177 49 50
65 10 56 177 124 176
66 11 56 177 124 127
67 25 49 177 56 132
68 25 124 177 56 132
69 25 49 177 56 57
70 25 124 177 56 57
71 26 49 177 124 176
72 27 49 177 124 127
73 27 124 177 49 50
74 33 160 162 165 164
75 33 160 162 165 166
76 33 161 162 165 164
77 33 161 162 165 166
78 33 159 162 165 164
79 33 159 162 165 166
80 26 177 124 176 174
81 27 177 124 176 120
82 15 244 173 351 356
83 31 351 173 244 245
84 31 351 173 244 242
85 15 244 173 351 347
86 24 177 56 15 17
87 24 15 56 177 49
88 24 15 56 177 124
89 24 177 56 15 13
90 18 247 244 173 351
91 46 173 244 247 243
92 19 247 244 173 171
93 38 245 244 173 171
94 38 242 244 173 171
95 35 245 244 247 243
96 34 245 244 247 246
97 35 242 244 247 243
98 34 242 244 247 246
99 1 403 345 349 344
100 23 349 345 403 401
101 23 349 345 403 407
102 23 349 345 403 399
103 1 403 345 349 354
104 33 346 345 403 401
105 33 346 345 403 407
106 33 346 345 403 399
107 33 340 345 403 401
108 33 340 345 403 407
109 33 340 345 403 399
110 3 252 247 244 173
111 39 246 247 244 173
112 4 244 247 252 461
113 2 244 247 252 459
114 2 244 247 252 253
115 5 244 247 243 175
116 2 252 247 244 245
117 2 252 247 244 242
118 40 246 247 252 461
119 41 246 247 243 175
120 5 252 247 243 175
121 10 447 281 278 276
122 10 447 281 283 280
123 25 283 281 447 446
124 25 283 281 447 450
125 25 283 281 447 448
126 25 278 281 447 446
127 25 278 281 447 450
128 25 278 281 447 448
129 12 447 281 283 285
130 28 278 281 283 285
131 12 447 281 278 116
132 28 283 281 278 116
133 4 528 531 532 534
134 2 528 531 532 530
135 2 528 531 532 508
136 40 533 531 532 534
137 3 532 531 528 116
138 39 533 531 528 116
139 5 532 531 527 227
140 41 533 531 527 227
141 2 532 531 528 529
142 5 528 531 527 227
143 2 532 531 528 507
144 17 473 467 469 470
145 17 473 467 469 331
146 32 469 467 473 443
147 32 469 467 473 471
148 18 43 41 285 283
149 46 285 41 43 39
150 19 43 41 285 286
151 38 40 41 285 286
152 38 42 41 285 286
153 35 40 41 43 39
154 34 40 41 43 170
155 35 42 41 43 39
156 34 42 41 43 170
157 15 257 72 70 68
158 31 70 72 257 254
159 31 70 72 257 258
160 15 257 72 70 67
161 10 56 15 17 14
162 25 17 15 56 132
163 25 17 15 56 57
164 26 17 15 13 11
165 27 17 15 13 53
166 11 56 15 17 18
167 27 13 15 17 18
168 25 13 15 56 132
169 25 13 15 56 57
170 11 56 15 13 53
171 10 56 15 13 11
172 26 14 17 15 13
173 27 15 17 14 16
174 29 585 470 469 467
175 45 468 470 469 467
176 26 469 470 585 516
177 27 469 470 585 584
178 44 468 470 585 584
179 26 585 470 469 331
180 15 223 357 354 356
181 31 354 357 223 224
182 31 354 357 223 222
183 15 223 357 354 349
184 20 247 252 461 462
185 34 459 252 247 246
186 34 253 252 247 246
187 48 461 252 247 243
188 35 459 252 247 243
189 35 253 252 247 243
190 26 47 174 176 124
191 27 47 174 176 120
192 27 176 174 47 45
193 20 43 168 169 174
194 34 172 168 43 170
195 34 167 168 43 170
196 48 169 168 43 39
197 35 172 168 43 39
198 35 167 168 43 39
199 3 168 43 41 285
200 39 170 43 41 285
201 4 41 43 168 169
202 2 41 43 168 172
203 2 41 43 168 167
204 5 41 43 39 449
205 2 168 43 41 40
206 2 168 43 41 42
207 40 170 43 168 169
208 41 170 43 39 449
209 5 168 43 39 449
210 27 15 13 11 10
211 44 53 13 11 10
212 18 531 528 116 278
213 46 116 528 531 527
214 35 507 528 531 527
215 34 507 528 531 533
216 35 529 528 531 527
217 34 529 528 531 533
218 20 251 131 129 130
219 34 134 131 251 248
220 34 133 131 251 248
221 48 129 131 251 125
222 35 134 131 251 125
223 35 133 131 251 125
224 26 135 130 128 180
225 27 135 130 128 126
226 27 128 130 135 137
227 10 282 280 277 276
228 25 277 280 282 279
229 25 277 280 282 483
230 26 277 280 283 281
231 11 282 280 277 275
232 27 283 280 277 275
233 25 283 280 282 279
234 25 283 280 282 483
235 10 282 280 283 281
236 12 282 280 283 285
237 28 277 280 283 285
238 1 287 282 280 277
239 23 280 282 287 289
240 23 280 282 287 288
241 23 280 282 287 489
242 1 287 282 280 283
243 33 279 282 287 289
244 33 279 282 287 288
245 33 279 282 287 489
246 33 483 282 287 289
247 33 483 282 287 288
248 33 483 282 287 489
249 26 276 278 281 283
250 15 528 116 278 276
251 15 269 116 278 276
252 15 528 116 278 281
253 15 269 116 278 281
254 31 278 116 528 507
255 31 278 116 528 529
256 31 278 116 269 270
257 31 278 116 269 271
258 13 528 116 269 472
259 14 528 116 269 270
260 14 528 116 269 271
261 14 269 116 528 507
262 14 269 116 528 529
263 13 269 116 528 531
264 26 185 180 128 130
265 27 185 180 128 126
266 9 121 123 291 294
267 8 294 123 121 241
268 6 294 123 121 119
269 6 294 123 121 122
270 6 121 123 294 297
271 6 121 123 294 249
272 42 292 123 294 291
273 43 292 123 121 241
274 47 291 123 121 241
275 7 121 123 294 291
276 18 379 223 357 354
277 46 357 223 379 193
278 19 379 223 357 359
279 38 224 223 357 359
280 38 222 223 357 359
281 35 224 223 379 193
282 34 224 223 379 378
283 35 222 223 379 193
284 34 222 223 379 378
285 16 294 291 123 292
286 22 123 291 294 297
287 22 123 291 294 249
288 26 276 277 280 283
289 26 280 277 276 278
290 18 472 269 116 278
291 46 116 269 472 466
292 35 270 269 472 466
293 34 270 269 472 474
294 35 271 269 472 466
295 34 271 269 472 474
296 10 274 276 277 280
297 11 274 276 277 275
298 10 274 276 278 281
299 25 277 276 274 117
300 25 278 276 274 117
301 25 277 276 274 273
302 25 278 276 274 273
303 26 277 276 278 281
304 27 278 276 277 275
305 28 277 276 278 116
306 12 274 276 278 116
307 33 115 113 274 117
308 33 115 113 274 273
309 33 158 113 274 117
310 33 158 113 274 273
311 33 157 113 274 117
312 33 157 113 274 273
313 1 113 274 276 277
314 1 113 274 276 278
315 23 276 274 113 115
316 23 276 274 113 158
317 23 276 274 113 157
318 3 430 379 223 357
319 39 378 379 223 357
320 4 223 379 430 380
321 2 223 379 430 428
322 2 223 379 430 432
323 5 223 379 193 355
324 2 430 379 223 224
325 2 430 379 223 222
326 40 378 379 430 380
327 41 378 379 193 355
328 5 430 379 193 355
329 20 379 430 380 384
330 34 428 430 379 378
331 34 432 430 379 378
332 48 380 430 379 193
333 35 428 430 379 193
334 35 432 430 379 193
335 17 430 380 384 386
336 17 430 380 384 388
337 32 384 380 430 432
338 32 384 380 430 428
339 29 13 11 12 9
340 45 10 11 12 9
341 26 12 11 13 15
342 27 12 11 13 53
343 26 14 12 11 13
344 27 14 12 11 10
345 27 11 12 14 16
346 17 8 9 12 14
347 17 8 9 12 11
348 32 12 9 8 6
349 32 12 9 8 7
350 26 386 384 388 392
351 27 386 384 388 387
352 27 388 384 386 382
353 37 297 294 123 291
354 36 297 294 123 292
355 37 249 294 123 291
356 36 249 294 123 292
357 29 17 14 12 9
358 45 16 14 12 9
359 26 12 14 17 15
360 27 12 14 17 18
361 44 16 14 17 18
362 26 17 14 12 11
363 27 130 128 180 179
364 45 126 128 130 129
365 44 126 128 180 179
366 29 180 128 130 129
367 27 384 388 392 335
368 45 387 388 384 380
369 44 387 388 392 335
370 29 392 388 384 380
371 17 121 241 238 234
372 17 121 241 238 239
373 32 238 241 121 119
374 32 238 241 121 122
375 21 123 121 241 238
376 36 119 121 123 292
377 36 122 121 123 292
378 37 119 121 123 291
379 37 122 121 123 291
380 20 4 8 9 12
381 34 7 8 4 5
382 34 6 8 4 5
383 48 9 8 4 1
384 35 7 8 4 1
385 35 6 8 4 1
386 17 131 129 130 135
387 17 131 129 130 128
388 32 130 129 131 133
389 32 130 129 131 134
390 3 473 472 269 116
391 39 474 472 269 116
392 4 269 472 473 467
393 2 269 472 473 471
394 2 269 472 473 443
395 5 269 472 466 114
396 2 473 472 269 270
397 2 473 472 269 271
398 40 474 472 473 467
399 41 474 472 466 114
400 5 473 472 466 114
401 17 252 461 462 255
402 17 252 461 462 421
403 32 462 461 252 253
404 32 462 461 252 459
405 29 423 421 462 461
406 45 420 421 462 461
407 26 462 421 423 424
408 27 462 421 423 422
409 20 531 532 534 26
410 34 530 532 531 533
411 34 508 532 531 533
412 48 534 532 531 527
413 35 530 532 531 527
414 35 508 532 531 527
415 26 255 462 421 423
416 27 255 462 421 420
417 27 421 462 255 256
418 18 86 84 317 320
419 46 317 84 86 559
420 35 552 84 86 559
421 34 552 84 86 88
422 35 82 84 86 559
423 34 82 84 86 88
424 26 326 323 321 320
425 26 321 323 326 325
426 10 71 68 66 64
427 11 71 68 66 100
428 10 71 68 70 67
429 25 66 68 71 75
430 25 70 68 71 75
431 25 66 68 71 101
432 25 70 68 71 101
433 26 66 68 70 67
434 27 70 68 66 100
435 12 71 68 70 72
436 28 66 68 70 72
437 15 569 327 325 326
438 31 325 327 569 567
439 31 325 327 569 451
440 15 569 327 325 322
441 10 152 322 325 326
442 10 152 322 320 321
443 25 320 322 152 154
444 25 320 322 152 151
445 25 320 322 152 150
446 25 325 322 152 154
447 25 325 322 152 151
448 25 325 322 152 150
449 12 152 322 325 327
450 28 320 322 325 327
451 12 152 322 320 317
452 28 325 322 320 317
453 26 321 320 322 325
454 26 326 325 322 320
455 30 326 325 327 156
456 30 322 325 327 156
457 10 328 326 323 321
458 11 328 326 323 324
459 10 328 326 325 322
460 25 323 326 328 385
461 25 325 326 328 385
462 25 323 326 328 332
463 25 325 326 328 332
464 26 323 326 325 322
465 27 325 326 323 324
466 12 328 326 325 327
467 28 323 326 325 327
468 1 204 71 68 66
469 1 204 71 68 70
470 23 68 71 204 203
471 23 68 71 204 202
472 23 68 71 204 205
473 33 203 204 71 75
474 33 203 204 71 101
475 33 202 204 71 75
476 33 202 204 71 101
477 33 205 204 71 75
478 33 205 204 71 101
479 10 319 321 323 326
480 25 323 321 319 316
481 25 323 321 319 465
482 26 323 321 320 322
483 11 319 321 323 324
484 27 320 321 323 324
485 25 320 321 319 316
486 25 320 321 319 465
487 10 319 321 320 322
488 28 323 321 320 317
489 12 319 321 320 317
490 1 383 328 326 323
491 1 383 328 326 325
492 23 326 328 383 512
493 23 326 328 383 381
494 23 326 328 383 389
495 1 510 319 321 323
496 23 321 319 510 583
497 23 321 319 510 509
498 23 321 319 510 511
499 1 510 319 321 320
500 33 316 319 510 583
501 33 316 319 510 509
502 33 316 319 510 511
503 33 465 319 510 583
504 33 465 319 510 509
505 33 465 319 510 511
506 18 568 569 327 325
507 46 327 569 568 564
508 19 568 569 327 156
509 38 567 569 327 156
510 38 451 569 327 156
511 35 567 569 568 564
512 34 567 569 568 565
513 35 451 569 568 564
514 34 451 569 568 565
515 26 68 66 64 65
516 26 64 66 68 70
517 26 68 70 67 65
518 30 68 70 72 74
519 30 67 70 72 74
520 20 568 571 573 575
521 34 570 571 568 565
522 34 566 571 568 565
523 48 573 571 568 564
524 35 570 571 568 564
525 35 566 571 568 564
526 3 571 568 569 327
527 39 565 568 569 327
528 4 569 568 571 573
529 2 569 568 571 570
530 2 569 568 571 566
531 5 569 568 564 329
532 2 571 568 569 567
533 2 571 568 569 451
534 40 565 568 571 573
535 41 565 568 564 329
536 5 571 568 564 329
537 33 512 383 328 385
538 33 512 383 328 332
539 33 381 383 328 385
540 33 381 383 328 332
541 33 389 383 328 385
542 33 389 383 328 332
543 15 84 317 320 321
544 15 196 317 320 321
545 15 84 317 320 322
546 15 196 317 320 322
547 31 320 317 84 552
548 31 320 317 84 82
549 31 320 317 196 194
550 31 320 317 196 198
551 13 84 317 196 197
552 14 84 317 196 194
553 14 84 317 196 198
554 14 196 317 84 552
555 14 196 317 84 82
556 13 196 317 84 86
557 29 217 255 462 461
558 45 256 255 462 461
559 26 462 255 217 424
560 27 462 255 217 220
561 44 256 255 217 220
562 26 217 255 462 421
563 29 33 32 26 534
564 45 535 32 26 534
565 26 26 32 33 30
566 27 26 32 33 36
567 10 31 30 23 22
568 25 23 30 31 35
569 25 23 30 31 34
570 26 23 30 33 32
571 27 23 30 33 36
572 11 31 30 23 21
573 27 33 30 23 21
574 25 33 30 31 35
575 25 33 30 31 34
576 11 31 30 33 36
577 10 31 30 33 32
578 18 251 250 155 109
579 46 155 250 251 125
580 35 102 250 251 125
581 34 102 250 251 248
582 35 103 250 251 125
583 34 103 250 251 248
584 26 22 23 30 33
585 27 30 23 22 20
586 4 3 4 8 9
587 2 3 4 8 7
588 2 3 4 8 6
589 40 5 4 8 9
590 3 8 4 3 95
591 39 5 4 3 95
592 5 8 4 1 97
593 41 5 4 1 97
594 2 8 4 3 2
595 5 3 4 1 97
596 2 8 4 3 99
597 26 29 24 148 146
598 27 29 24 148 145
599 44 28 24 148 145
600 26 148 24 29 25
601 26 218 425 374 371
602 27 218 425 374 376
603 44 426 425 374 376
604 26 374 425 218 216
605 10 92 112 91 111
606 10 92 112 109 267
607 25 109 112 92 93
608 25 109 112 92 94
609 25 109 112 92 38
610 25 91 112 92 93
611 25 91 112 92 94
612 25 91 112 92 38
613 12 92 112 91 95
614 28 109 112 91 95
615 28 91 112 109 155
616 12 92 112 109 155
617 26 453 575 577 578
618 27 453 575 577 574
619 27 577 575 453 452
620 10 262 267 268 111
621 25 268 267 262 261
622 25 268 267 262 260
623 26 268 267 109 112
624 11 262 267 268 266
625 27 109 267 268 266
626 25 109 267 262 261
627 25 109 267 262 260
628 10 262 267 109 112
629 12 262 267 109 155
630 28 268 267 109 155
631 18 4 3 95 91
632 46 95 3 4 1
633 35 99 3 4 1
634 34 99 3 4 5
635 35 2 3 4 1
636 34 2 3 4 5
637 10 219 424 217 255
638 25 217 424 219 221
639 25 217 424 219 427
640 26 217 424 423 421
641 27 217 424 423 422
642 11 219 424 217 220
643 27 423 424 217 220
644 25 423 424 219 221
645 25 423 424 219 427
646 11 219 424 423 422
647 10 219 424 423 421
648 26 374 371 188 216
649 27 374 371 188 184
650 27 188 371 374 376
651 27 30 33 32 535
652 44 36 33 32 535
653 26 111 91 112 109
654 15 3 95 91 111
655 15 105 95 91 111
656 15 3 95 91 112
657 15 105 95 91 112
658 31 91 95 3 99
659 31 91 95 3 2
660 31 91 95 105 106
661 31 91 95 105 104
662 13 3 95 105 108
663 14 3 95 105 106
664 14 3 95 105 104
665 14 105 95 3 99
666 14 105 95 3 2
667 13 105 95 3 4
668 1 263 262 267 268
669 23 267 262 263 264
670 23 267 262 263 259
671 23 267 262 263 265
672 1 263 262 267 109
673 33 261 262 263 264
674 33 261 262 263 259
675 33 261 262 263 265
676 33 260 262 263 264
677 33 260 262 263 259
678 33 260 262 263 265
679 29 24 148 146 143
680 26 24 148 146 149
681 27 146 148 24 28
682 45 145 148 146 143
683 24 218 219 424 217
684 24 424 219 218 425
685 24 424 219 218 216
686 24 218 219 424 423
687 27 371 188 216 215
688 45 184 188 371 369
689 44 184 188 216 215
690 29 216 188 371 369
691 4 372 368 367 369
692 2 372 368 367 365
693 2 372 368 367 364
694 40 366 368 367 369
695 3 367 368 372 155
696 39 366 368 372 155
697 5 367 368 370 37
698 41 366 368 370 37
699 2 367 368 372 373
700 5 372 368 370 37
701 2 367 368 372 375
702 18 368 372 155 109
703 46 155 372 368 370
704 35 375 372 368 370
705 34 375 372 368 366
706 35 373 372 368 370
707 34 373 372 368 366
708 29 456 453 575 573
709 26 456 453 575 577
710 27 575 453 456 457
711 45 452 453 575 573
712 10 89 111 268 267
713 11 89 111 268 266
714 10 89 111 91 112
715 25 268 111 89 225
716 25 91 111 89 225
717 25 268 111 89 62
718 25 91 111 89 62
719 26 268 111 91 112
720 27 91 111 268 266
721 28 268 111 91 95
722 12 89 111 91 95
723 29 425 374 371 369
724 26 425 374 371 188
725 27 371 374 425 426
726 45 376 374 371 369
727 15 372 155 109 112
728 15 250 155 109 112
729 15 372 155 109 267
730 15 250 155 109 267
731 31 109 155 372 375
732 31 109 155 372 373
733 31 109 155 250 102
734 31 109 155 250 103
735 13 372 155 250 251
736 14 372 155 250 102
737 14 372 155 250 103
738 14 250 155 372 375
739 14 250 155 372 373
740 13 250 155 372 368
741 17 532 534 26 22
742 17 532 534 26 32
743 32 26 534 532 508
744 32 26 534 532 530
745 27 424 423 421 420
746 44 422 423 421 420
747 26 111 268 267 109
748 26 267 268 111 91
749 26 22 26 32 33
750 27 22 26 32 535
751 27 32 26 22 20
752 33 110 85 89 225
753 33 110 85 89 62
754 33 83 85 89 225
755 33 83 85 89 62
756 33 87 85 89 225
757 33 87 85 89 62
758 26 267 109 112 91
759 17 571 573 575 453
760 17 571 573 575 577
761 32 575 573 571 566
762 32 575 573 571 570
763 10 219 218 425 374
764 11 219 218 425 426
765 10 219 218 216 188
766 11 219 218 216 215
767 25 425 218 219 221
768 25 216 218 219 221
769 25 425 218 219 427
770 25 216 218 219 427
771 26 425 218 216 188
772 27 425 218 216 215
773 27 216 218 425 426
774 29 23 22 26 534
775 45 20 22 26 534
776 26 26 22 23 30
777 27 26 22 23 21
778 44 20 22 23 21
779 26 23 22 26 32
780 20 368 367 369 371
781 34 365 367 368 366
782 34 364 367 368 366
783 48 369 367 368 370
784 35 365 367 368 370
785 35 364 367 368 370
786 3 131 251 250 155
787 39 248 251 250 155
788 4 250 251 131 129
789 2 250 251 131 134
790 2 250 251 131 133
791 5 250 251 125 153
792 2 131 251 250 102
793 2 131 251 250 103
794 40 248 251 131 129
795 41 248 251 125 153
796 5 131 251 125 153
797 17 367 369 371 374
798 17 367 369 371 188
799 32 371 369 367 364
800 32 371 369 367 365
801 1 85 89 111 268
802 1 85 89 111 91
803 23 111 89 85 110
804 23 111 89 85 83
805 23 111 89 85 87
806 26 218 216 188 371
807 27 218 216 188 184
808 18 108 105 95 91
809 46 95 105 108 107
810 35 106 105 108 107
811 34 106 105 108 19
812 35 104 105 108 107
813 34 104 105 108 19
814 16 523 519 521 525
815 22 521 519 523 522
816 22 521 519 523 526
817 9 520 521 519 523
818 8 523 521 520 358
819 6 523 521 520 518
820 6 523 521 520 524
821 6 520 521 523 522
822 6 520 521 523 526
823 42 525 521 523 519
824 43 525 521 520 358
825 47 519 521 520 358
826 7 520 521 523 519
827 21 521 520 358 353
828 36 518 520 521 525
829 36 524 520 521 525
830 37 518 520 521 519
831 37 524 520 521 519
832 37 522 523 521 519
833 36 522 523 521 525
834 37 526 523 521 519
835 36 526 523 521 525
836 26 60 190 186 182
837 27 186 190 60 61
838 10 187 186 190 60
839 25 190 186 187 189
840 25 190 186 187 183
841 26 190 186 182 181
842 27 190 186 182 178
843 11 187 186 190 192
844 27 182 186 190 192
845 25 182 186 187 189
846 25 182 186 187 183
847 11 187 186 182 178
848 10 187 186 182 181
849 37 308 311 312 313
850 36 308 311 312 315
851 37 314 311 312 313
852 36 314 311 312 315
853 16 311 313 312 315
854 22 312 313 311 308
855 22 312 313 311 314
856 9 310 312 313 311
857 8 311 312 310 306
858 6 311 312 310 309
859 6 311 312 310 377
860 6 310 312 311 308
861 6 310 312 311 314
862 42 315 312 311 313
863 43 315 312 310 306
864 47 313 312 310 306
865 7 310 312 311 313
866 27 186 182 181 51
867 44 178 182 181 51
868 29 190 60 58 59
869 45 61 60 58 59
870 26 58 60 190 186
871 27 58 60 190 192
872 44 61 60 190 192
873 26 190 60 58 181
874 17 520 358 353 350
875 17 520 358 353 352
876 32 353 358 520 518
877 32 353 358 520 524
878 21 312 310 306 304
879 36 309 310 312 315
880 36 377 310 312 315
881 37 309 310 312 313
882 37 377 310 312 313
883 17 310 306 304 301
884 17 310 306 304 305
885 32 304 306 310 309
886 32 304 306 310 377
887 29 477 479 482 484
888 26 477 479 482 480
889 27 482 479 477 562
890 45 563 479 482 484
891 26 350 353 352 348
892 27 350 353 352 290
893 27 352 353 350 517
894 26 475 477 479 482
895 27 475 477 479 563
896 44 562 477 479 563
897 26 479 477 475 478
898 29 343 350 353 358
899 45 517 350 353 358
900 26 353 350 343 342
901 27 353 350 343 339
902 44 517 350 343 339
903 26 343 350 353 352
904 3 142 140 257 72
905 39 138 140 257 72
906 4 257 140 142 143
907 2 257 140 142 144
908 2 257 140 142 141
909 5 257 140 139 73
910 2 142 140 257 254
911 2 142 140 257 258
912 40 138 140 142 143
913 41 138 140 139 73
914 5 142 140 139 73
915 17 168 169 174 47
916 17 168 169 174 176
917 32 174 169 168 167
918 32 174 169 168 172
919 27 174 176 124 127
920 45 120 176 174 169
921 44 120 176 124 127
922 29 124 176 174 169
923 26 234 232 233 235
924 27 233 232 234 118
925 24 231 229 233 232
926 24 233 229 231 201
927 24 233 229 231 445
928 24 231 229 233 235
929 20 472 473 467 469
930 34 471 473 472 474
931 34 443 473 472 474
932 48 467 473 472 466
933 35 471 473 472 466
934 35 443 473 472 466
935 26 470 469 331 333
936 27 470 469 331 330
937 27 331 469 470 468
938 10 229 233 232 234
939 25 232 233 229 228
940 25 232 233 229 226
941 26 232 233 235 239
942 27 232 233 235 236
943 11 229 233 232 230
944 27 235 233 232 230
945 25 235 233 229 228
946 25 235 233 229 226
947 11 229 233 235 236
948 10 229 233 235 239
949 29 232 234 238 241
950 45 118 234 238 241
951 26 238 234 232 233
952 27 238 234 232 230
953 44 118 234 232 230
954 26 232 234 238 239
955 18 140 257 72 70
956 46 72 257 140 139
957 19 140 257 72 74
958 38 254 257 72 74
959 38 258 257 72 74
960 35 254 257 140 139
961 34 254 257 140 138
962 35 258 257 140 139
963 34 258 257 140 138
964 26 301 304 305 302
965 27 301 304 305 307
966 27 305 304 301 300
967 26 60 58 181 182
968 27 60 58 181 51
969 27 181 58 60 61
970 29 333 331 469 467
971 45 330 331 469 467
972 26 469 331 333 516
973 27 469 331 333 272
974 29 298 301 304 306
975 45 300 301 304 306
976 26 304 301 298 299
977 27 304 301 298 296
978 44 300 301 298 296
979 26 298 301 304 305
980 20 140 142 143 146
981 34 144 142 140 138
982 34 141 142 140 138
983 48 143 142 140 139
984 35 144 142 140 139
985 35 141 142 140 139
986 27 516 333 331 330
987 44 272 333 331 330
988 29 182 181 58 59
989 45 51 181 58 59
990 26 58 181 182 186
991 27 58 181 182 178
992 26 470 585 516 333
993 27 516 585 470 468
994 24 185 187 186 190
995 24 186 187 185 136
996 24 186 187 185 180
997 24 185 187 186 182
998 26 350 343 342 348
999 27 342 343 350 517
1000 29 302 305 304 306
1001 45 307 305 304 306
1002 26 304 305 302 299
1003 27 304 305 302 303
1004 26 479 482 480 478
1005 27 479 482 480 481
1006 27 480 482 479 563
1007 29 348 352 353 358
1008 45 290 352 353 358
1009 26 353 352 348 342
1010 27 353 352 348 284
1011 27 342 348 352 290
1012 44 284 348 352 290
1013 24 580 581 417 418
1014 24 417 581 580 456
1015 24 417 581 580 578
1016 24 580 581 417 455
1017 21 490 487 484 482
1018 37 485 487 490 486
1019 36 485 487 490 488
1020 37 491 487 490 486
1021 36 491 487 490 488
1022 17 487 484 482 479
1023 32 482 484 487 485
1024 32 482 484 487 491
1025 17 487 484 482 480
1026 27 233 235 239 240
1027 44 236 235 239 240
1028 27 299 302 305 307
1029 44 303 302 305 307
1030 26 185 136 135 130
1031 27 185 136 135 137
1032 44 191 136 135 137
1033 26 135 136 185 180
1034 29 136 135 130 129
1035 26 136 135 130 128
1036 27 130 135 136 191
1037 45 137 135 130 129
1038 16 210 213 211 214
1039 22 211 213 210 207
1040 22 211 213 210 212
1041 37 207 210 211 213
1042 36 207 210 211 214
1043 37 212 210 211 213
1044 36 212 210 211 214
1045 9 208 211 213 210
1046 8 210 211 208 413
1047 6 210 211 208 206
1048 6 210 211 208 209
1049 6 208 211 210 207
1050 6 208 211 210 212
1051 42 214 211 210 213
1052 43 214 211 208 413
1053 47 213 211 208 413
1054 7 208 211 210 213
1055 21 211 208 413 414
1056 36 206 208 211 214
1057 36 209 208 211 214
1058 37 206 208 211 213
1059 37 209 208 211 213
1060 26 415 414 412 455
1061 27 415 414 412 411
1062 27 412 414 415 416
1063 17 208 413 414 415
1064 17 208 413 414 412
1065 32 414 413 208 206
1066 32 414 413 208 209
1067 10 581 417 418 415
1068 25 418 417 581 460
1069 25 418 417 581 549
1070 26 418 417 455 412
1071 27 418 417 455 454
1072 11 581 417 418 419
1073 27 455 417 418 419
1074 25 455 417 581 460
1075 25 455 417 581 549
1076 11 581 417 455 454
1077 10 581 417 455 412
1078 29 455 412 414 413
1079 45 411 412 414 413
1080 26 414 412 455 417
1081 27 414 412 455 454
1082 27 417 455 412 411
1083 44 454 455 412 411
1084 10 295 299 298 301
1085 25 298 299 295 293
1086 25 298 299 295 458
1087 26 298 299 302 305
1088 27 298 299 302 303
1089 11 295 299 298 296
1090 27 302 299 298 296
1091 25 302 299 295 293
1092 25 302 299 295 458
1093 11 295 299 302 303
1094 10 295 299 302 305
1095 29 418 415 414 413
1096 45 416 415 414 413
1097 26 414 415 418 417
1098 27 414 415 418 419
1099 44 416 415 418 419
1100 26 418 415 414 412
1101 26 415 418 417 455
1102 27 417 418 415 416
1103 29 235 239 238 241
1104 45 240 239 238 241
1105 26 238 239 235 233
1106 27 238 239 235 236
1107 10 337 342 343 350
1108 25 343 342 337 338
1109 25 343 342 337 336
1110 26 343 342 348 352
1111 27 343 342 348 284
1112 11 337 342 343 339
1113 27 348 342 343 339
1114 25 348 342 337 338
1115 25 348 342 337 336
1116 11 337 342 348 284
1117 10 337 342 348 352
1118 8 492 490 487 484
1119 47 486 490 487 484
1120 43 488 490 487 484
1121 7 487 490 492 486
1122 6 487 490 492 493
1123 6 487 490 492 494
1124 9 487 490 486 492
1125 6 492 490 487 485
1126 6 492 490 487 491
1127 42 488 490 492 486
1128 10 337 334 390 386
1129 11 337 334 390 391
1130 10 337 334 392 388
1131 11 337 334 392 335
1132 25 390 334 337 338
1133 25 392 334 337 338
1134 25 390 334 337 336
1135 25 392 334 337 336
1136 26 390 334 392 388
1137 27 390 334 392 335
1138 27 392 334 390 391
1139 22 490 486 492 493
1140 22 490 486 492 494
1141 16 492 486 490 488
1142 26 499 502 503 500
1143 27 499 502 503 505
1144 44 463 502 503 505
1145 26 503 502 499 497
1146 26 334 390 386 384
1147 27 334 390 386 382
1148 44 391 390 386 382
1149 26 386 390 334 392
1150 24 334 337 342 343
1151 24 342 337 334 390
1152 24 342 337 334 392
1153 24 334 337 342 348
1154 26 580 456 453 575
1155 27 580 456 453 452
1156 44 457 456 453 452
1157 26 453 456 580 578
1158 10 187 185 136 135
1159 11 187 185 136 191
1160 10 187 185 180 128
1161 11 187 185 180 179
1162 25 136 185 187 189
1163 25 180 185 187 189
1164 25 136 185 187 183
1165 25 180 185 187 183
1166 26 136 185 180 128
1167 27 136 185 180 179
1168 27 180 185 136 191
1169 24 499 295 299 298
1170 24 299 295 499 502
1171 24 299 295 499 497
1172 24 499 295 299 302
1173 36 493 492 490 488
1174 36 494 492 490 488
1175 37 493 492 490 486
1176 37 494 492 490 486
1177 29 502 503 500 501
1178 26 502 503 500 498
1179 27 500 503 502 463
1180 45 505 503 500 501
1181 10 295 499 502 503
1182 11 295 499 502 463
1183 10 295 499 497 498
1184 11 295 499 497 495
1185 25 502 499 295 293
1186 25 497 499 295 293
1187 25 502 499 295 458
1188 25 497 499 295 458
1189 26 502 499 497 498
1190 27 502 499 497 495
1191 27 497 499 502 463
1192 26 334 392 388 384
1193 27 334 392 388 387
1194 26 301 298 299 302
1195 27 299 298 301 300
1196 29 390 386 384 380
1197 26 390 386 384 388
1198 27 384 386 390 391
1199 45 382 386 384 380
1200 26 234 238 239 235
1201 27 234 238 239 240
1202 27 239 238 234 118
1203 26 231 201 404 400
1204 27 231 201 404 409
1205 44 237 201 404 409
1206 26 404 201 231 445
1207 10 229 231 201 404
1208 11 229 231 201 237
1209 10 229 231 445 397
1210 11 229 231 445 444
1211 25 201 231 229 228
1212 25 445 231 229 228
1213 25 201 231 229 226
1214 25 445 231 229 226
1215 26 201 231 445 397
1216 27 201 231 445 444
1217 27 445 231 201 237
1218 10 515 475 477 479
1219 11 515 475 477 562
1220 10 515 475 478 480
1221 11 515 475 478 476
1222 25 477 475 515 513
1223 25 478 475 515 513
1224 25 477 475 515 514
1225 25 478 475 515 514
1226 26 477 475 478 480
1227 27 477 475 478 476
1228 27 478 475 477 562
1229 17 142 143 146 148
1230 17 142 143 146 149
1231 32 146 143 142 141
1232 32 146 143 142 144
1233 10 515 516 585 470
1234 25 585 516 515 513
1235 25 585 516 515 514
1236 26 585 516 333 331
1237 27 585 516 333 272
1238 11 515 516 585 584
1239 27 333 516 585 584
1240 25 333 516 515 513
1241 25 333 516 515 514
1242 11 515 516 333 272
1243 10 515 516 333 331
1244 10 63 64 66 68
1245 25 66 64 63 98
1246 25 66 64 63 539
1247 26 66 64 65 67
1248 11 63 64 66 100
1249 27 65 64 66 100
1250 25 65 64 63 98
1251 25 65 64 63 539
1252 10 63 64 65 67
1253 28 66 64 65 542
1254 12 63 64 65 542
1255 26 475 478 480 482
1256 27 475 478 480 481
1257 10 69 67 70 68
1258 10 69 67 65 64
1259 25 65 67 69 46
1260 25 65 67 69 44
1261 25 65 67 69 48
1262 25 70 67 69 46
1263 25 70 67 69 44
1264 25 70 67 69 48
1265 12 69 67 70 72
1266 28 65 67 70 72
1267 12 69 67 65 542
1268 28 70 67 65 542
1269 29 201 404 400 402
1270 26 201 404 400 397
1271 27 400 404 201 237
1272 45 409 404 400 402
1273 24 475 515 516 585
1274 24 516 515 475 477
1275 24 516 515 475 478
1276 24 475 515 516 333
1277 26 231 445 397 400
1278 27 231 445 397 396
1279 26 404 400 397 445
1280 27 404 400 397 396
1281 27 397 400 404 409
1282 17 406 402 400 404
1283 17 406 402 400 397
1284 32 400 402 406 408
1285 32 400 402 406 410
1286 27 400 397 445 444
1287 45 396 397 400 402
1288 44 396 397 445 444
1289 29 445 397 400 402
1290 20 86 561 558 556
1291 34 90 561 86 88
1292 34 537 561 86 88
1293 48 558 561 86 559
1294 35 90 561 86 559
1295 35 537 561 86 559
1296 20 79 55 59 58
1297 34 52 55 79 81
1298 34 54 55 79 81
1299 48 59 55 79 77
1300 35 52 55 79 77
1301 35 54 55 79 77
1302 4 84 86 561 558
1303 2 84 86 561 90
1304 2 84 86 561 537
1305 40 88 86 561 558
1306 3 561 86 84 317
1307 39 88 86 84 317
1308 5 561 86 559 318
1309 41 88 86 559 318
1310 2 561 86 84 82
1311 5 84 86 559 318
1312 2 561 86 84 552
1313 18 405 544 542 65
1314 46 542 544 405 543
1315 35 541 544 405 543
1316 34 541 544 405 538
1317 35 548 544 405 543
1318 34 548 544 405 538
1319 3 406 405 544 542
1320 39 538 405 544 542
1321 4 544 405 406 402
1322 2 544 405 406 410
1323 2 544 405 406 408
1324 5 544 405 543 547
1325 2 406 405 544 541
1326 2 406 405 544 548
1327 40 538 405 406 402
1328 41 538 405 543 547
1329 5 406 405 543 547
1330 17 55 59 58 60
1331 17 55 59 58 181
1332 32 58 59 55 54
1333 32 58 59 55 52
1334 20 405 406 402 400
1335 34 410 406 405 538
1336 34 408 406 405 538
1337 48 402 406 405 543
1338 35 410 406 405 543
1339 35 408 406 405 543
1340 4 78 79 55 59
1341 2 78 79 55 52
1342 2 78 79 55 54
1343 40 81 79 55 59
1344 3 55 79 78 542
1345 39 81 79 78 542
1346 5 55 79 77 540
1347 41 81 79 77 540
1348 2 55 79 78 76
1349 5 78 79 77 540
1350 2 55 79 78 80
1351 18 79 78 542 65
1352 46 542 78 79 77
1353 35 80 78 79 77
1354 34 80 78 79 81
1355 35 76 78 79 77
1356 34 76 78 79 81
1357 15 78 542 65 64
1358 15 544 542 65 64
1359 15 78 542 65 67
1360 15 544 542 65 67
1361 31 65 542 78 80
1362 31 65 542 78 76
1363 31 65 542 544 541
1364 31 65 542 544 548
1365 13 78 542 544 405
1366 14 78 542 544 541
1367 14 78 542 544 548
1368 14 544 542 78 80
1369 14 544 542 78 76
1370 13 544 542 78 79
1371 26 64 65 67 70
1372 3 195 197 196 317
1373 39 200 197 196 317
1374 4 196 197 195 394
1375 2 196 197 195 163
1376 2 196 197 195 398
1377 5 196 197 199 464
1378 2 195 197 196 194
1379 2 195 197 196 198
1380 40 200 197 195 394
1381 41 200 197 199 464
1382 5 195 197 199 464
1383 20 197 195 394 442
1384 34 163 195 197 200
1385 34 398 195 197 200
1386 48 394 195 197 199
1387 35 163 195 197 199
1388 35 398 195 197 199
1389 17 195 394 442 438
1390 17 195 394 442 393
1391 32 442 394 195 398
1392 32 442 394 195 163
1393 27 146 149 25 27
1394 45 147 149 146 143
1395 44 147 149 25 27
1396 29 25 149 146 143
1397 18 197 196 317 320
1398 46 317 196 197 199
1399 35 194 196 197 199
1400 34 194 196 197 200
1401 35 198 196 197 199
1402 34 198 196 197 200
1403 17 561 558 556 554
1404 17 561 558 556 560
1405 32 556 558 561 537
1406 32 556 558 561 90
1407 1 545 63 64 66
1408 23 64 63 545 576
1409 23 64 63 545 572
1410 23 64 63 545 546
1411 1 545 63 64 65
1412 33 98 63 545 576
1413 33 98 63 545 572
1414 33 98 63 545 546
1415 33 539 63 545 576
1416 33 539 63 545 572
1417 33 539 63 545 546
1418 26 148 146 149 25
1419 27 148 146 149 147
1420 27 149 146 148 145
1421 26 255 217 424 423
1422 27 424 217 255 256
1423 3 504 108 105 95
1424 39 19 108 105 95
1425 4 105 108 504 501
1426 2 105 108 504 506
1427 2 105 108 504 582
1428 5 105 108 107 96
1429 2 504 108 105 106
1430 2 504 108 105 104
1431 40 19 108 504 501
1432 41 19 108 107 96
1433 5 504 108 107 96
1434 29 439 393 442 394
1435 45 395 393 442 394
1436 26 442 393 439 436
1437 27 442 393 439 441
1438 26 29 25 149 146
1439 27 29 25 149 147
1440 10 581 580 456 453
1441 11 581 580 456 457
1442 10 581 580 578 577
1443 11 581 580 578 579
1444 25 456 580 581 460
1445 25 578 580 581 460
1446 25 456 580 581 549
1447 25 578 580 581 549
1448 26 456 580 578 577
1449 27 456 580 578 579
1450 27 578 580 456 457
1451 26 555 557 560 556
1452 27 555 557 560 536
1453 17 504 501 500 503
1454 17 504 501 500 498
1455 32 500 501 504 582
1456 32 500 501 504 506
1457 26 438 442 393 439
1458 27 438 442 393 395
1459 27 393 442 438 437
1460 27 482 480 478 476
1461 45 481 480 482 484
1462 44 481 480 478 476
1463 29 478 480 482 484
1464 27 575 577 578 579
1465 45 574 577 575 573
1466 44 574 577 578 579
1467 29 578 577 575 573
1468 10 434 555 553 554
1469 11 434 555 553 550
1470 10 434 555 557 560
1471 11 434 555 557 440
1472 25 553 555 434 431
1473 25 557 555 434 431
1474 25 553 555 434 429
1475 25 557 555 434 429
1476 26 553 555 557 560
1477 27 553 555 557 440
1478 27 557 555 553 550
1479 26 554 556 560 557
1480 27 554 556 560 536
1481 27 560 556 554 551
1482 26 503 500 498 497
1483 27 503 500 498 496
1484 27 498 500 503 505
1485 27 500 498 497 495
1486 45 496 498 500 501
1487 44 496 498 497 495
1488 29 497 498 500 501
1489 26 555 553 554 556
1490 27 555 553 554 551
1491 44 550 553 554 551
1492 26 554 553 555 557
1493 27 436 439 393 395
1494 44 441 439 393 395
1495 10 434 436 435 438
1496 25 435 436 434 431
1497 25 435 436 434 429
1498 26 435 436 439 393
1499 27 435 436 439 441
1500 11 434 436 435 433
1501 27 439 436 435 433
1502 25 439 436 434 431
1503 25 439 436 434 429
1504 11 434 436 439 441
1505 10 434 436 439 393
1506 26 438 435 436 439
1507 27 436 435 438 437
1508 29 435 438 442 394
1509 45 437 438 442 394
1510 26 442 438 435 436
1511 27 442 438 435 433
1512 44 437 438 435 433
1513 26 435 438 442 393
1514 26 499 497 498 500
1515 27 499 497 498 496
1516 10 31 29 24 148
1517 11 31 29 24 28
1518 10 31 29 25 149
1519 11 31 29 25 27
1520 25 24 29 31 35
1521 25 25 29 31 35
1522 25 24 29 31 34
1523 25 25 29 31 34
1524 26 24 29 25 149
1525 27 24 29 25 27
1526 27 25 29 24 28
1527 24 555 434 436 435
1528 24 436 434 555 553
1529 24 436 434 555 557
1530 24 555 434 436 439
1531 20 108 504 501 500
1532 34 506 504 108 19
1533 34 582 504 108 19
1534 48 501 504 108 107
1535 35 506 504 108 107
1536 35 582 504 108 107
1537 26 580 578 577 575
1538 27 580 578 577 574
1539 27 556 560 557 440
1540 45 536 560 556 558
1541 44 536 560 557 440
1542 29 557 560 556 558
1543 29 553 554 556 558
1544 26 553 554 556 560
1545 27 556 554 553 550
1546 45 551 554 556 558
1547 24 29 31 30 23
1548 24 30 31 29 24
1549 24 30 31 29 25
1550 24 29 31 30 33

Impropers

1 13 281 447 446 450
2 13 281 447 446 448
3 13 281 447 450 448
4 14 446 447 450 448
5 26 347 351 356 173
6 29 41 285 286 283
7 24 345 349 354 344
8 25 49 47 174 45
9 25 177 49 47 50
10 25 347 344 349 341
11 24 165 347 344 351
12 1 162 165 347 164
13 1 162 165 347 166
14 3 162 165 164 166
15 13 347 165 164 166
16 24 361 356 351 354
17 26 349 354 356 357
18 26 280 283 281 285
19 24 56 177 49 124
20 3 165 162 160 161
21 3 165 162 160 159
22 3 165 162 161 159
23 14 160 162 161 159
24 25 176 124 177 127
25 29 244 173 171 351
26 12 15 56 177 132
27 12 15 56 177 57
28 13 15 56 132 57
29 13 177 56 132 57
30 5 247 244 245 173
31 5 247 244 242 173
32 15 245 244 242 173
33 4 247 244 245 242
34 2 403 345 346 349
35 2 403 345 340 349
36 13 349 345 346 340
37 3 403 345 346 340
38 19 244 247 252 243
39 18 244 247 252 246
40 20 244 247 243 246
41 20 252 247 243 246
42 24 447 281 278 283
43 19 528 531 532 527
44 18 528 531 532 533
45 20 528 531 527 533
46 20 532 531 527 533
47 13 356 361 363 360
48 13 356 361 363 362
49 13 356 361 360 362
50 14 363 361 360 362
51 5 43 41 40 285
52 5 43 41 42 285
53 15 40 41 42 285
54 4 43 41 40 42
55 3 345 403 401 407
56 3 345 403 401 399
57 3 345 403 407 399
58 14 401 403 407 399
59 29 257 72 74 70
60 24 56 15 13 17
61 25 14 17 15 18
62 25 469 470 585 468
63 29 223 357 359 354
64 3 282 287 289 288
65 3 282 287 289 489
66 3 282 287 288 489
67 14 289 287 288 489
68 6 247 252 461 459
69 6 247 252 461 253
70 4 247 252 459 253
71 17 459 252 253 461
72 27 176 174 47 169
73 6 43 168 169 172
74 6 43 168 169 167
75 4 43 168 172 167
76 17 172 168 167 169
77 19 41 43 168 39
78 18 41 43 168 170
79 20 41 43 39 170
80 20 168 43 39 170
81 25 15 13 11 53
82 5 531 528 507 116
83 5 531 528 529 116
84 15 507 528 529 116
85 4 531 528 507 529
86 6 251 131 129 134
87 6 251 131 129 133
88 4 251 131 134 133
89 17 134 131 133 129
90 27 128 130 135 129
91 24 282 280 283 277
92 2 287 282 279 280
93 2 287 282 483 280
94 13 280 282 279 483
95 3 287 282 279 483
96 26 276 278 281 116
97 28 528 116 269 278
98 25 128 180 185 179
99 22 294 123 121 291
100 21 294 123 121 292
101 23 294 123 291 292
102 23 121 123 291 292
103 5 379 223 224 357
104 5 379 223 222 357
105 15 224 223 222 357
106 4 379 223 224 222
107 25 276 277 280 275
108 5 472 269 270 116
109 5 472 269 271 116
110 15 270 269 271 116
111 4 472 269 270 271
112 24 274 276 277 278
113 3 274 113 115 158
114 3 274 113 115 157
115 3 274 113 158 157
116 14 115 113 158 157
117 1 113 274 276 117
118 1 113 274 276 273
119 3 113 274 117 273
120 13 276 274 117 273
121 19 223 379 430 193
122 18 223 379 430 378
123 20 223 379 193 378
124 20 430 379 193 378
125 6 379 430 380 428
126 6 379 430 380 432
127 4 379 430 428 432
128 17 428 430 432 380
129 25 13 11 12 10
130 27 14 12 11 9
131 27 388 384 386 380
132 8 123 294 297 291
133 8 123 294 249 291
134 16 297 294 249 291
135 7 123 294 297 249
136 25 12 14 17 16
137 25 130 128 180 126
138 25 384 388 392 387
139 11 123 121 241 119
140 11 123 121 241 122
141 7 123 121 119 122
142 17 119 121 122 241
143 6 4 8 9 7
144 6 4 8 9 6
145 4 4 8 7 6
146 17 7 8 6 9
147 19 269 472 473 466
148 18 269 472 473 474
149 20 269 472 466 474
150 20 473 472 466 474
151 25 423 421 462 420
152 6 531 532 534 530
153 6 531 532 534 508
154 4 531 532 530 508
155 17 530 532 508 534
156 27 255 462 421 461
157 5 86 84 552 317
158 5 86 84 82 317
159 15 552 84 82 317
160 4 86 84 552 82
161 25 326 323 321 324
162 13 322 152 154 151
163 13 322 152 154 150
164 13 322 152 151 150
165 14 154 152 151 150
166 24 71 68 66 70
167 29 569 327 156 325
168 24 152 322 325 320
169 26 321 320 322 317
170 26 322 325 326 327
171 24 328 326 323 325
172 1 204 71 68 75
173 1 204 71 68 101
174 3 204 71 75 101
175 13 68 71 75 101
176 3 71 204 203 202
177 3 71 204 203 205
178 3 71 204 202 205
179 14 203 204 202 205
180 24 319 321 320 323
181 3 319 510 583 509
182 3 319 510 583 511
183 3 319 510 509 511
184 14 583 510 509 511
185 1 383 328 326 385
186 1 383 328 326 332
187 3 383 328 385 332
188 13 326 328 385 332
189 2 510 319 316 321
190 2 510 319 465 321
191 13 321 319 316 465
192 3 510 319 316 465
193 5 568 569 567 327
194 5 568 569 451 327
195 15 567 569 451 327
196 4 568 569 567 451
197 25 68 66 64 100
198 26 67 70 68 72
199 6 568 571 573 570
200 6 568 571 573 566
201 4 568 571 570 566
202 17 570 571 566 573
203 19 569 568 571 564
204 18 569 568 571 565
205 20 569 568 564 565
206 20 571 568 564 565
207 3 328 383 512 381
208 3 328 383 512 389
209 3 328 383 381 389
210 14 512 383 381 389
211 28 84 317 196 320
212 25 462 255 217 256
213 25 33 32 26 535
214 24 31 30 33 23
215 5 251 250 102 155
216 5 251 250 103 155
217 15 102 250 103 155
218 4 251 250 102 103
219 25 22 23 30 21
220 19 3 4 8 1
221 18 3 4 8 5
222 20 3 4 1 5
223 20 8 4 1 5
224 25 29 24 148 28
225 25 218 425 374 426
226 24 92 112 91 109
227 27 577 575 453 573
228 13 112 92 93 94
229 13 112 92 93 38
230 13 112 92 94 38
231 14 93 92 94 38
232 24 262 267 109 268
233 5 4 3 99 95
234 5 4 3 2 95
235 15 99 3 2 95
236 4 4 3 99 2
237 24 219 424 423 217
238 27 188 371 374 369
239 25 30 33 32 36
240 26 111 91 112 95
241 3 262 263 264 259
242 3 262 263 264 265
243 3 262 263 259 265
244 14 264 263 259 265
245 28 3 95 105 91
246 2 263 262 261 267
247 2 263 262 260 267
248 13 267 262 261 260
249 3 263 262 261 260
250 25 24 148 146 145
251 12 424 219 218 221
252 12 424 219 218 427
253 13 424 219 221 427
254 13 218 219 221 427
255 25 371 188 216 184
256 19 372 368 367 370
257 18 372 368 367 366
258 20 372 368 370 366
259 20 367 368 370 366
260 5 368 372 375 155
261 5 368 372 373 155
262 15 375 372 373 155
263 4 368 372 375 373
264 25 456 453 575 452
265 24 89 111 268 91
266 25 425 374 371 376
267 28 372 155 250 109
268 25 424 423 421 422
269 25 111 268 267 266
270 27 22 26 32 534
271 3 89 85 110 83
272 3 89 85 110 87
273 3 89 85 83 87
274 14 110 85 83 87
275 26 112 109 267 155
276 24 219 218 425 216
277 25 26 22 23 20
278 6 368 367 369 365
279 6 368 367 369 364
280 4 368 367 365 364
281 17 365 367 364 369
282 19 250 251 131 125
283 18 250 251 131 248
284 20 250 251 125 248
285 20 131 251 125 248
286 1 85 89 111 225
287 1 85 89 111 62
288 3 85 89 225 62
289 13 111 89 225 62
290 25 188 216 218 215
291 5 108 105 106 95
292 5 108 105 104 95
293 15 106 105 104 95
294 4 108 105 106 104
295 22 523 521 520 519
296 21 523 521 520 525
297 23 523 521 519 525
298 23 520 521 519 525
299 11 521 520 358 518
300 11 521 520 358 524
301 7 521 520 518 524
302 17 518 520 524 358
303 8 521 523 522 519
304 8 521 523 526 519
305 16 522 523 526 519
306 7 521 523 522 526
307 25 60 190 186 192
308 24 187 186 182 190
309 8 312 311 308 313
310 8 312 311 314 313
311 16 308 311 314 313
312 7 312 311 308 314
313 22 311 312 310 313
314 21 311 312 310 315
315 23 311 312 313 315
316 23 310 312 313 315
317 25 186 182 181 178
318 25 58 60 190 61
319 11 312 310 306 309
320 11 312 310 306 377
321 7 312 310 309 377
322 17 309 310 377 306
323 25 477 479 482 563
324 27 350 353 352 358
325 25 475 477 479 562
326 25 353 350 343 517
327 19 257 140 142 139
328 18 257 140 142 138
329 20 257 140 139 138
330 20 142 140 139 138
331 25 174 176 124 120
332 25 234 232 233 230
333 12 233 229 231 228
334 12 233 229 231 226
335 13 233 229 228 226
336 13 231 229 228 226
337 6 472 473 467 471
338 6 472 473 467 443
339 4 472 473 471 443
340 17 471 473 443 467
341 27 470 469 331 467
342 24 229 233 235 232
343 25 238 234 232 118
344 5 140 257 254 72
345 5 140 257 258 72
346 15 254 257 258 72
347 4 140 257 254 258
348 27 301 304 305 306
349 27 60 58 181 59
350 25 333 331 469 330
351 25 304 301 298 300
352 6 140 142 143 144
353 6 140 142 143 141
354 4 140 142 144 141
355 17 144 142 141 143
356 25 516 333 331 272
357 25 182 181 58 51
358 25 470 585 516 584
359 12 186 187 185 189
360 12 186 187 185 183
361 13 186 187 189 183
362 13 185 187 189 183
363 25 350 343 342 339
364 25 302 305 304 307
365 27 480 482 479 484
366 25 348 352 353 290
367 25 342 348 352 284
368 12 417 581 580 460
369 12 417 581 580 549
370 13 417 581 460 549
371 13 580 581 460 549
372 9 490 487 485 484
373 9 490 487 491 484
374 17 485 487 491 484
375 7 490 487 485 491
376 25 233 235 239 236
377 25 299 302 305 303
378 25 185 136 135 191
379 25 136 135 130 137
380 8 211 210 207 213
381 8 211 210 212 213
382 16 207 210 212 213
383 7 211 210 207 212
384 22 210 211 208 213
385 21 210 211 208 214
386 23 210 211 213 214
387 23 208 211 213 214
388 11 211 208 413 206
389 11 211 208 413 209
390 7 211 208 206 209
391 17 206 208 209 413
392 27 415 414 412 413
393 24 581 417 455 418
394 25 455 412 414 411
395 25 417 455 412 454
396 24 295 299 302 298
397 25 414 415 418 416
398 25 415 418 417 419
399 25 235 239 238 240
400 24 337 342 348 343
401 22 487 490 492 486
402 21 487 490 492 488
403 23 487 490 486 488
404 23 492 490 486 488
405 24 337 334 390 392
406 25 499 502 503 463
407 25 334 390 386 391
408 12 342 337 334 338
409 12 342 337 334 336
410 13 342 337 338 336
411 13 334 337 338 336
412 25 580 456 453 457
413 24 187 185 136 180
414 12 299 295 499 293
415 12 299 295 499 458
416 13 299 295 293 458
417 13 499 295 293 458
418 10 490 492 486 493
419 10 490 492 486 494
420 7 490 492 493 494
421 16 493 492 494 486
422 25 502 503 500 505
423 24 295 499 502 497
424 25 388 392 334 335
425 25 301 298 299 296
426 25 390 386 384 382
427 27 234 238 239 241
428 25 231 201 404 237
429 24 229 231 201 445
430 24 515 475 477 478
431 24 515 516 333 585
432 24 63 64 65 66
433 25 480 478 475 476
434 24 69 67 70 65
435 25 201 404 400 409
436 12 516 515 475 513
437 12 516 515 475 514
438 13 516 515 513 514
439 13 475 515 513 514
440 25 397 445 231 444
441 13 67 69 46 44
442 13 67 69 46 48
443 13 67 69 44 48
444 14 46 69 44 48
445 27 397 400 404 402
446 25 400 397 445 396
447 6 86 561 558 90
448 6 86 561 558 537
449 4 86 561 90 537
450 17 90 561 537 558
451 6 79 55 59 52
452 6 79 55 59 54
453 4 79 55 52 54
454 17 52 55 54 59
455 19 84 86 561 559
456 18 84 86 561 88
457 20 84 86 559 88
458 20 561 86 559 88
459 5 405 544 541 542
460 5 405 544 548 542
461 15 541 544 548 542
462 4 405 544 541 548
463 19 544 405 406 543
464 18 544 405 406 538
465 20 544 405 543 538
466 20 406 405 543 538
467 6 405 406 402 410
468 6 405 406 402 408
469 4 405 406 410 408
470 17 410 406 408 402
471 19 78 79 55 77
472 18 78 79 55 81
473 20 78 79 77 81
474 20 55 79 77 81
475 5 79 78 80 542
476 5 79 78 76 542
477 15 80 78 76 542
478 4 79 78 80 76
479 28 78 542 544 65
480 26 64 65 67 542
481 19 196 197 195 199
482 18 196 197 195 200
483 20 196 197 199 200
484 20 195 197 199 200
485 6 197 195 394 163
486 6 197 195 394 398
487 4 197 195 163 398
488 17 163 195 398 394
489 25 146 149 25 147
490 5 197 196 194 317
491 5 197 196 198 317
492 15 194 196 198 317
493 4 197 196 194 198
494 2 545 63 98 64
495 2 545 63 539 64
496 13 64 63 98 539
497 3 545 63 98 539
498 27 149 146 148 143
499 3 63 545 576 572
500 3 63 545 576 546
501 3 63 545 572 546
502 14 576 545 572 546
503 25 255 217 424 220
504 19 105 108 504 107
505 18 105 108 504 19
506 20 105 108 107 19
507 20 504 108 107 19
508 25 439 393 442 395
509 25 149 25 29 27
510 24 581 580 456 578
511 25 560 557 555 440
512 27 438 442 393 394
513 25 482 480 478 481
514 25 575 577 578 574
515 24 434 555 553 557
516 27 560 556 554 558
517 27 498 500 503 501
518 25 500 498 497 496
519 25 555 553 554 550
520 25 436 439 393 441
521 24 434 436 439 435
522 25 438 435 436 433
523 25 442 438 435 437
524 25 498 497 499 495
525 24 31 29 24 25
526 12 436 434 555 431
527 12 436 434 555 429
528 13 436 434 431 429
529 13 555 434 431 429
530 6 108 504 501 506
531 6 108 504 501 582
532 4 108 504 506 582
533 17 506 504 582 501
534 25 577 578 580 579
535 25 556 560 557 536
536 25 553 554 556 551
537 12 30 31 29 35
538 12 30 31 29 34
539 13 30 31 35 34
540 13 29 31 35 34
