LAMMPS data file via write_data, version 4 Jul 2026, timestep = 6433000, units = real

585 atoms
11 atom types
615 bonds
18 bond types
1090 angles
35 angle types
1556 dihedrals
48 dihedral types
540 impropers
30 improper types

1.4877763403597992 19.66600266963428 xlo xhi
1.4877763403597992 19.66600266963428 ylo yhi
1.4877763403597992 19.66600266963428 zlo zhi

Masses

1 12.01115
2 12.01115
3 12.01115
4 12.01115
5 1.00797
6 1.00797
7 1.00797
8 14.0067
9 15.9994
10 15.9994
11 15.9994

Pair Coeffs # lj/class2/coul/long

1 0.054 4.01
2 0.054 4.01
3 0.054 4.01
4 0.064 4.01
5 0.02 2.995
6 0.013 1.098
7 0.013 1.098
8 0.065 4.07
9 0.24 3.535
10 0.24 3.535
11 0.24 3.535

Bond Coeffs # class2

1 1.53 299.67 -501.77 679.81
2 1.53 299.67 -501.77 679.81
3 1.53 299.67 -501.77 679.81
4 1.501 321.902 -521.821 572.163
5 1.101 345 -691.89 844.6
6 1.457 365.805 -699.637 998.484
7 1.42 400.395 -835.195 1313.01
8 1.42 400.395 -835.195 1313.01
9 1.101 345 -691.89 844.6
10 1.42 400.395 -835.195 1313.01
11 1.101 345 -691.89 844.6
12 1.42 400.395 -835.195 1313.01
13 1.417 470.836 -627.618 1327.63
14 1.0982 372.825 -803.453 894.317
15 1.412 257.775 0 0
16 1.3768 428.88 -738.235 1114.97
17 1.006 466.74 -1073.6 1251.11
18 0.965 532.506 -1282.9 2004.77

Angle Coeffs # class2

1 108.4 43.9594 -8.3924 -9.3379
2 110.77 41.453 -10.604 5.129
3 112.67 39.516 -7.443 -9.5583
4 110.77 41.453 -10.604 5.129
5 111.27 54.5381 -8.3642 -13.0838
6 112.67 39.516 -7.443 -9.5583
7 110.77 41.453 -10.604 5.129
8 111.27 54.5381 -8.3642 -13.0838
9 120.05 44.7148 -22.7352 0
10 112.444 47.2337 -10.6612 -10.2062
11 109 80 0 0
12 110.954 50.8652 -4.4522 -10.0298
13 104.5 35.7454 -10.0067 -6.2729
14 102.969 38.9739 -6.2595 -8.171
15 110.77 41.453 -10.604 5.129
16 111.91 60.7147 -13.3366 -13.0785
17 111.27 54.5381 -8.3642 -13.0838
18 105.8 52.7061 -12.109 -9.8681
19 110.77 41.453 -10.604 5.129
20 111.27 54.5381 -8.3642 -13.0838
21 111.27 54.5381 -8.3642 -13.0838
22 111 44.3234 -9.4454 0
23 111 44.3234 -9.4454 0
24 118.9 61.0226 -34.9931 0
25 117.94 35.1558 -12.4682 0
26 120 102 0 0
27 123.42 73.6781 -21.6787 0
28 110 41.6 0 0
29 107.66 39.641 -12.921 -2.4318
30 110.62 51.3137 -6.7198 -2.6003
31 108.728 58.5446 -10.8088 -12.4006
32 108.728 58.5446 -10.8088 -12.4006
33 108.728 58.5446 -10.8088 -12.4006
34 108.728 58.5446 -10.8088 -12.4006
35 107.067 45.252 -7.5558 -9.512

BondBond Coeffs

1 0 1.53 1.501
2 3.3872 1.53 1.101
3 0 1.53 1.53
4 3.3872 1.53 1.101
5 11.4318 1.53 1.42
6 0 1.53 1.53
7 3.3872 1.53 1.101
8 11.4318 1.53 1.42
9 12.0676 1.501 1.417
10 -2.1113 1.457 1.457
11 0 1.457 1.412
12 -6.4168 1.457 1.006
13 -7.1131 1.42 1.42
14 0 1.42 1.3768
15 3.3872 1.53 1.101
16 4.6217 1.53 1.457
17 11.4318 1.53 1.42
18 -9.6879 1.42 0.965
19 3.3872 1.53 1.101
20 11.4318 1.53 1.42
21 11.4318 1.53 1.42
22 0 1.501 1.501
23 2.9168 1.501 1.101
24 68.2856 1.417 1.417
25 1.0795 1.417 1.0982
26 0 1.417 1.412
27 48.4754 1.417 1.3768
28 0 1.412 1.006
29 5.3316 1.101 1.101
30 12.426 1.101 1.457
31 23.1979 1.101 1.42
32 23.1979 1.101 1.42
33 23.1979 1.101 1.42
34 23.1979 1.101 1.42
35 -1.8749 1.006 1.006

BondAngle Coeffs

1 0 0 1.53 1.501
2 20.754 11.421 1.53 1.101
3 8.016 8.016 1.53 1.53
4 20.754 11.421 1.53 1.101
5 2.6868 20.4033 1.53 1.42
6 8.016 8.016 1.53 1.53
7 20.754 11.421 1.53 1.101
8 2.6868 20.4033 1.53 1.42
9 47.0579 31.0771 1.501 1.417
10 -7.2229 -7.2229 1.457 1.457
11 0 0 1.457 1.412
12 31.8096 20.5799 1.457 1.006
13 -2.8112 -2.8112 1.42 1.42
14 0 0 1.42 1.3768
15 20.754 11.421 1.53 1.101
16 6.0876 16.5702 1.53 1.457
17 2.6868 20.4033 1.53 1.42
18 28.58 18.9277 1.42 0.965
19 20.754 11.421 1.53 1.101
20 2.6868 20.4033 1.53 1.42
21 2.6868 20.4033 1.53 1.42
22 0 0 1.501 1.501
23 26.4608 11.7717 1.501 1.101
24 28.8708 28.8708 1.417 1.417
25 20.0033 24.2183 1.417 1.0982
26 0 0 1.417 1.412
27 58.479 107.681 1.417 1.3768
28 0 0 1.412 1.006
29 18.103 18.103 1.101 1.101
30 13.4582 42.4332 1.101 1.457
31 4.6189 55.327 1.101 1.42
32 4.6189 55.327 1.101 1.42
33 4.6189 55.327 1.101 1.42
34 4.6189 55.327 1.101 1.42
35 28.0322 28.0322 1.006 1.006

Dihedral Coeffs # class2

1 -0.2802 0 -0.0678 0 -0.0122 0
2 0 0 0.0316 0 -0.1681 0
3 0.1764 0 0.1766 0 -0.5206 0
4 0.7137 0 0.266 0 -0.2545 0
5 -0.6732 0 -0.4778 0 -0.167 0
6 0 0 0.0316 0 -0.1681 0
7 0.7137 0 0.266 0 -0.2545 0
8 0.7137 0 0.266 0 -0.2545 0
9 -0.5203 0 -0.3028 0 -0.345 0
10 0 0 4.4072 0 0 0
11 0 0 1.559 0 0 0
12 0 0 3 0 0 0
13 -0.1406 0 0.4168 0 0.015 0
14 0.1904 0 -0.1342 0 -0.246 0
15 0 0 2.25 0 0 0
16 0.5302 0 0 0 -0.3966 0
17 0 0 1.5 0 0 0
18 0 0 0 0 0.05 180
19 -1.1506 0 -0.6344 0 -0.1845 0
20 0 0 0 0 0.13 180
21 0 0 0 0 0.13 180
22 0.5302 0 0 0 -0.3966 0
23 -0.0228 0 0.028 0 -0.1863 0
24 -0.2802 0 -0.0678 0 -0.0122 0
25 -0.2801 0 -0.0678 0 -0.0122 0
26 8.3667 0 1.1932 0 0 0
27 0 0 3.9661 0 0 0
28 0 0 3 0 0 0
29 0 0 4.8498 0 0 0
30 0 0 2.25 0 0 0
31 0 0 0 0 0.05 180
32 0.9513 0 0.1155 0 0.072 0
33 -0.1432 0 0.0617 0 -0.1083 0
34 -0.1432 0 0.0617 0 -0.1083 0
35 -0.1435 0 0.253 0 -0.0905 0
36 -0.1432 0 0.0617 0 -0.1083 0
37 -0.1435 0 0.253 0 -0.0905 0
38 -0.5187 0 -0.4837 0 -0.1692 0
39 -0.2428 0 0.4065 0 -0.3079 0
40 -0.1435 0 0.253 0 -0.0905 0
41 0.1863 0 -0.4338 0 -0.2121 0
42 -0.1435 0 0.253 0 -0.0905 0
43 -0.1435 0 0.253 0 -0.0905 0
44 0 0 1.8769 0 0 0
45 0 0 1.7234 0 0 0
46 0 0 0 0 0.158 180
47 -0.182 0 -0.1084 0 -0.7047 0
48 -0.182 0 -0.1084 0 -0.7047 0

AngleAngleTorsion Coeffs

1 0 108.4 120.05
2 -16.164 112.67 110.77
3 -27.3953 112.67 111.91
4 -29.042 112.67 111.27
5 -12.1038 111.27 105.8
6 -16.164 112.67 110.77
7 -29.042 112.67 111.27
8 -29.042 112.67 111.27
9 -19.0059 111.27 104.5
10 -14.4097 120.05 118.9
11 4.4444 120.05 117.94
12 0 120.05 120
13 -24.3818 112.444 111.91
14 -12.5567 112.444 110.62
15 0 109 120
16 -16.4438 104.5 108.728
17 0 102.969 123.42
18 0 111.91 109
19 -7.5499 111.91 110.954
20 0 111.27 102.969
21 0 111.27 102.969
22 -16.4438 104.5 108.728
23 0 108.4 110.77
24 0 111 120.05
25 -5.8888 120.05 111
26 0 118.9 118.9
27 -4.8141 118.9 117.94
28 0 118.9 120
29 -21.0247 118.9 123.42
30 0 120 110
31 0 109 110.62
32 0 102.969 108.728
33 -12.564 110.77 110.77
34 -12.564 110.77 110.77
35 -20.2006 110.77 111.27
36 -12.564 110.77 110.77
37 -20.2006 110.77 111.27
38 -10.4258 110.62 110.954
39 -15.7572 110.77 111.91
40 -20.2006 110.77 111.27
41 -10.5093 108.728 105.8
42 -20.2006 110.77 111.27
43 -20.2006 110.77 111.27
44 0.3598 117.94 117.94
45 4.2296 117.94 123.42
46 0 111.91 111.27
47 -14.0484 111.27 111.27
48 -14.0484 111.27 111.27

EndBondTorsion Coeffs

1 0 0 0 0 0 0 1.53 1.417
2 0.2486 0.2422 -0.0925 0.0814 0.0591 0.2219 1.53 1.101
3 0.1032 0.5896 -0.4836 0.0579 -0.0043 -0.1906 1.53 1.457
4 -0.319 0.4411 -0.7174 1.1538 0.8409 -0.9138 1.53 1.42
5 -0.58 0.9004 0 0 0.5343 0.9025 1.53 0.965
6 0.2486 0.2422 -0.0925 0.0814 0.0591 0.2219 1.53 1.101
7 -0.319 0.4411 -0.7174 1.1538 0.8409 -0.9138 1.53 1.42
8 -0.319 0.4411 -0.7174 1.1538 0.8409 -0.9138 1.53 1.42
9 -0.2456 1.0517 -0.7795 0.4741 1.2635 0.5576 1.53 1.42
10 0 0.2421 0 0 -0.6918 0 1.501 1.417
11 0 -1.797 0 0 -0.4879 0 1.501 1.0982
12 0 0 0 0 0 0 1.501 1.412
13 -0.0128 -0.0495 -0.1079 0.0997 -0.0046 -0.2657 1.457 1.53
14 0.0628 0.0873 -0.0882 -0.5892 0.714 0.3505 1.457 1.101
15 0 0 0 0 0 0 1.457 1.417
16 -0.162 0.1564 -1.1408 -0.6054 1.3339 0.9648 1.42 1.101
17 0 0 0 0 0 0 1.42 1.417
18 0 0 0 0 0 0 1.53 1.412
19 -0.9466 0.9356 -0.5542 0.057 0.0625 0.4112 1.53 1.006
20 0 0 0 0 0 0 1.53 1.3768
21 0 0 0 0 0 0 1.53 1.3768
22 -0.162 0.1564 -1.1408 -0.6054 1.3339 0.9648 1.42 1.101
23 0 0 0 0 0 0 1.501 1.101
24 0 0 0 0 0 0 1.501 1.417
25 -0.5835 1.122 0.3978 1.3997 0.7756 0 1.417 1.101
26 -0.1185 6.3204 0 -0.1185 6.3204 0 1.417 1.417
27 0 -6.8958 0 0 -0.4669 0 1.417 1.0982
28 0 0 0 0 0 0 1.417 1.412
29 0 0.2655 0 0 4.8905 0 1.417 1.3768
30 0 0 0 0 0 0 1.417 1.006
31 0 0 0 0 0 0 1.412 1.101
32 0 0 0 0 0 0 1.3768 1.101
33 0.213 0.312 0.0777 0.213 0.312 0.0777 1.101 1.101
34 0.213 0.312 0.0777 0.213 0.312 0.0777 1.101 1.101
35 0.9681 0.9551 0.0436 0.5903 0.6669 0.8584 1.101 1.42
36 0.213 0.312 0.0777 0.213 0.312 0.0777 1.101 1.101
37 0.9681 0.9551 0.0436 0.5903 0.6669 0.8584 1.101 1.42
38 -1.1685 0.9266 -0.0993 0.085 0.3061 0.2104 1.101 1.006
39 0.196 0.7056 0.112 0.1022 0.209 0.6433 1.101 1.457
40 0.9681 0.9551 0.0436 0.5903 0.6669 0.8584 1.101 1.42
41 -1.7554 1.3145 0.2263 0.2493 0.6803 0 1.101 0.965
42 0.9681 0.9551 0.0436 0.5903 0.6669 0.8584 1.101 1.42
43 0.9681 0.9551 0.0436 0.5903 0.6669 0.8584 1.101 1.42
44 0 -0.689 0 0 -0.689 0 1.0982 1.0982
45 0 -1.5867 0 0 4.2641 0 1.0982 1.3768
46 0 0 0 0 0 0 1.457 1.42
47 1.0165 0.7553 -0.4609 1.0165 0.7553 -0.4609 1.42 1.42
48 1.0165 0.7553 -0.4609 1.0165 0.7553 -0.4609 1.42 1.42

MiddleBondTorsion Coeffs

1 0 0 0 1.501
2 -14.879 -3.6581 -0.3138 1.53
3 -15.4174 -7.3055 -1.0749 1.53
4 -21.8842 -7.6764 -0.6868 1.53
5 1.2472 0 0.7485 1.42
6 -14.879 -3.6581 -0.3138 1.53
7 -21.8842 -7.6764 -0.6868 1.53
8 -21.8842 -7.6764 -0.6868 1.53
9 -5.9288 -2.7007 -0.3175 1.42
10 0 9.1792 0 1.417
11 0 3.9421 0 1.417
12 0 0 0 1.417
13 -8.0036 -7.7321 -3.064 1.457
14 -6.4529 -6.8122 -1.1632 1.457
15 0 0 0 1.412
16 -6.8007 -4.6546 -1.4101 1.42
17 0 0 0 1.3768
18 0 0 0 1.457
19 -2.2208 0.5479 -0.3527 1.457
20 0 0 0 1.42
21 0 0 0 1.42
22 -6.8007 -4.6546 -1.4101 1.42
23 0 0 0 1.53
24 0 0 0 1.501
25 -5.5679 1.4083 0.301 1.501
26 27.5989 -2.312 0 1.417
27 0 -1.1521 0 1.417
28 0 0 0 1.417
29 0 4.8255 0 1.417
30 0 0 0 1.412
31 0 0 0 1.457
32 0 0 0 1.42
33 -14.261 -0.5322 -0.4864 1.53
34 -14.261 -0.5322 -0.4864 1.53
35 -16.7975 -1.2296 -0.275 1.53
36 -14.261 -0.5322 -0.4864 1.53
37 -16.7975 -1.2296 -0.275 1.53
38 -3.4611 1.6996 -0.6007 1.457
39 -10.4959 -0.7647 -0.0545 1.53
40 -16.7975 -1.2296 -0.275 1.53
41 0 0.9241 -0.5889 1.42
42 -16.7975 -1.2296 -0.275 1.53
43 -16.7975 -1.2296 -0.275 1.53
44 0 4.8228 0 1.417
45 0 5.5432 0 1.417
46 0 0 0 1.53
47 -17.2585 -3.6157 -0.8364 1.53
48 -17.2585 -3.6157 -0.8364 1.53

BondBond13 Coeffs

1 0 1.53 1.417
2 0 1.53 1.101
3 0 1.53 1.457
4 0 1.53 1.42
5 0 1.53 0.965
6 0 1.53 1.101
7 0 1.53 1.42
8 0 1.53 1.42
9 0 1.53 1.42
10 2.5085 1.501 1.417
11 0.8743 1.501 1.0982
12 0 1.501 1.412
13 0 1.457 1.53
14 0 1.457 1.101
15 0 1.457 1.417
16 0 1.42 1.101
17 0 1.42 1.417
18 0 1.53 1.412
19 0 1.53 1.006
20 0 1.53 1.3768
21 0 1.53 1.3768
22 0 1.42 1.101
23 0 1.501 1.101
24 0 1.501 1.417
25 -3.4826 1.417 1.101
26 53 1.417 1.417
27 -6.2741 1.417 1.0982
28 0 1.417 1.412
29 -2.2436 1.417 1.3768
30 0 1.417 1.006
31 0 1.412 1.101
32 0 1.3768 1.101
33 0 1.101 1.101
34 0 1.101 1.101
35 0 1.101 1.42
36 0 1.101 1.101
37 0 1.101 1.42
38 0 1.101 1.006
39 0 1.101 1.457
40 0 1.101 1.42
41 0 1.101 0.965
42 0 1.101 1.42
43 0 1.101 1.42
44 -1.7077 1.0982 1.0982
45 2.0517 1.0982 1.3768
46 0 1.457 1.42
47 0 1.42 1.42
48 0 1.42 1.42

AngleTorsion Coeffs

1 0 0 0 0 0 0 108.4 120.05
2 -0.2454 0 -0.1136 0.3113 0.4516 -0.1988 112.67 110.77
3 -1.9225 -1.345 0.221 2.0125 0.944 -2.7612 112.67 111.91
4 0.5623 -0.3041 -0.4015 0.9672 -0.7566 -1.2331 112.67 111.27
5 -3.5903 2.5225 0.4888 0.8726 -0.3577 0.3888 111.27 105.8
6 -0.2454 0 -0.1136 0.3113 0.4516 -0.1988 112.67 110.77
7 0.5623 -0.3041 -0.4015 0.9672 -0.7566 -1.2331 112.67 111.27
8 0.5623 -0.3041 -0.4015 0.9672 -0.7566 -1.2331 112.67 111.27
9 -2.7466 1.4877 -0.8955 0.5676 0.945 0.0703 111.27 104.5
10 0 -4.4683 0 0 3.8987 0 120.05 118.9
11 0 -0.1242 0 0 3.4601 0 120.05 117.94
12 0 0 0 0 0 0 120.05 120
13 1.2031 1.3645 -0.7071 -2.7883 1.5193 1.4796 112.444 111.91
14 -1.3582 0.1465 -0.5729 -2.6321 0.9353 -0.8398 112.444 110.62
15 0 0 0 0 0 0 109 120
16 -0.7777 0.434 -0.6653 -1.8234 1.6393 0.5144 104.5 108.728
17 0 0 0 0 0 0 102.969 123.42
18 0 0 0 0 0 0 111.91 109
19 -3.343 4.4558 -0.0346 0.2873 -0.8072 -0.096 111.91 110.954
20 0 0 0 0 0 0 111.27 102.969
21 0 0 0 0 0 0 111.27 102.969
22 -0.7777 0.434 -0.6653 -1.8234 1.6393 0.5144 104.5 108.728
23 0 0 0 0 0 0 108.4 110.77
24 0 0 0 0 0 0 111 120.05
25 0.2251 0.6548 0.1237 4.6266 0.1632 0.0461 120.05 111
26 1.9767 1.0239 0 1.9767 1.0239 0 118.9 118.9
27 0 2.5014 0 0 2.7147 0 118.9 117.94
28 0 0 0 0 0 0 118.9 120
29 0 10.0155 0 0 1.7404 0 118.9 123.42
30 0 0 0 0 0 0 120 110
31 0 0 0 0 0 0 109 110.62
32 0 0 0 0 0 0 102.969 108.728
33 -0.8085 0.5569 -0.2466 -0.8085 0.5569 -0.2466 110.77 110.77
34 -0.8085 0.5569 -0.2466 -0.8085 0.5569 -0.2466 110.77 110.77
35 2.3668 2.492 -1.0122 -0.1892 0.4918 0.7273 110.77 111.27
36 -0.8085 0.5569 -0.2466 -0.8085 0.5569 -0.2466 110.77 110.77
37 2.3668 2.492 -1.0122 -0.1892 0.4918 0.7273 110.77 111.27
38 -3.9582 2.0063 0.3213 -0.4294 -0.4442 -0.6141 110.62 110.954
39 0.5111 1.6328 -1.0155 -1.1075 0.282 0.8318 110.77 111.91
40 2.3668 2.492 -1.0122 -0.1892 0.4918 0.7273 110.77 111.27
41 -3.406 1.6396 0.0737 0 -0.281 -0.5944 108.728 105.8
42 2.3668 2.492 -1.0122 -0.1892 0.4918 0.7273 110.77 111.27
43 2.3668 2.492 -1.0122 -0.1892 0.4918 0.7273 110.77 111.27
44 0 2.4501 0 0 2.4501 0 117.94 117.94
45 0 1.8729 0 0 2.5706 0 117.94 123.42
46 0 0 0 0 0 0 111.91 111.27
47 0.5511 0.9737 -0.6673 0.5511 0.9737 -0.6673 111.27 111.27
48 0.5511 0.9737 -0.6673 0.5511 0.9737 -0.6673 111.27 111.27

Improper Coeffs # class2

1 0 0
2 0 0
3 0 0
4 0 0
5 0 0
6 0 0
7 0 0
8 0 0
9 0 0
10 0 0
11 0 0
12 0 0
13 0 0
14 0 0
15 0 0
16 0 0
17 0 0
18 0 0
19 0 0
20 0 0
21 0 0
22 0 0
23 0 0
24 7.8153 0
25 4.8912 0
26 0 0
27 13.0421 0
28 0 0
29 0 0
30 0 0

AngleAngle Coeffs

1 2.0403 -1.8202 1.0827 108.4 110.77 111
2 1.0827 -1.8202 2.0403 110.77 108.4 111
3 0.2738 -0.4825 0.2738 110.77 110.77 107.66
4 0.2738 -0.4825 0.2738 110.77 110.77 107.66
5 2.4286 0.5381 -2.5301 110.77 111.91 110.62
6 0.1689 2.5926 3.9177 111.27 110.77 108.728
7 0.2738 -0.4825 0.2738 110.77 110.77 107.66
8 3.9177 2.5926 0.1689 110.77 111.27 108.728
9 3.9177 2.5926 0.1689 110.77 111.27 108.728
10 0.1689 2.5926 3.9177 111.27 110.77 108.728
11 0.1689 2.5926 3.9177 111.27 110.77 108.728
12 0 0 0 111 111 111
13 2.3794 3.0118 2.3794 111 111 107.66
14 -0.3157 -0.3157 -0.3157 107.66 107.66 107.66
15 2.4321 2.4321 -3.5496 107.66 110.62 110.62
16 2.4259 2.4259 2.1283 107.66 108.728 108.728
17 2.4259 2.4259 2.1283 107.66 108.728 108.728
18 -1.3199 -1.3199 0.1184 112.67 110.77 110.77
19 -0.833 -0.833 -3.5744 112.67 111.27 111.27
20 0.1689 2.5926 3.9177 111.27 110.77 108.728
21 -1.3199 -1.3199 0.1184 112.67 110.77 110.77
22 -0.833 -0.833 -3.5744 112.67 111.27 111.27
23 0.1689 2.5926 3.9177 111.27 110.77 108.728
24 0 0 0 120.05 120.05 118.9
25 0 0 0 118.9 117.94 117.94
26 0 0 0 118.9 120 120
27 0 0 0 118.9 123.42 123.42
28 0 0 0 112.444 109 109
29 0 0 0 110.954 109 110
30 0 0 0 110 110 107.067

Atoms # full

447 1 1 -0.159 4.398727969064906 6.148379060490479 2.6585254305143415 0 0 0
351 1 4 0 8.035758719702056 6.970292511913108 7.668642546133112 0 1 0
344 1 4 -0.1268 7.5473394671519225 9.006512345420468 6.578119422498082 0 1 0
347 1 4 0 7.226684226561976 7.770286829689274 6.828394288892917 0 1 0
341 1 5 0.1268 6.884903040854188 9.54653285749605 5.8479597223089685 0 1 0
165 1 1 -0.106 6.031919796007793 7.1595412500909825 6.00460210252553 0 1 0
162 1 1 -0.159 4.765111698228614 7.632911351264052 6.681095002973494 0 1 0
166 1 5 0.053 6.021820310371331 6.087886562140675 6.072521918077106 0 1 0
164 1 5 0.053 6.146421891673275 7.393060506491985 4.962202825719743 0 1 0
173 1 8 -0.3314 7.996082872950348 5.512857511384432 7.611376113304391 0 1 0
171 1 6 0.2487 8.887809087535313 5.175312003254305 7.922319719050208 0 1 0
244 1 1 -0.0233 6.94550509964918 4.964999937484153 8.492535057764016 0 1 0
281 1 4 0 3.1467538886782327 6.895231623442506 2.516219729126096 0 0 0
527 1 11 -0.5571 4.342065286111717 3.236523617268536 4.659988947773714 1 0 1
531 1 2 0.08 2.9592812311507295 3.134227430192331 5.080088762351039 1 0 1
227 1 7 0.4241 4.294257597218398 3.3561692912071663 3.6884338641288785 0 0 0
167 1 5 0.053 7.398609334569859 9.799771718170735 2.8398361870307225 0 0 0
278 1 4 0 2.0142615129091492 6.36517289682715 3.194115181832063 0 0 0
349 1 4 0 8.653493281986183 9.670271654603399 7.128773115687223 0 1 0
356 1 4 0 9.089048389806443 7.615509602669767 8.362803425138061 0 1 0
160 1 5 0.053 4.778460676737639 7.496616985247603 7.813612400950236 0 1 0
127 1 5 0.1268 9.000541909613265 4.07726024999233 3.6418146472117714 0 0 0
159 1 5 0.053 3.8469949465074347 7.087582149392 6.402495708558828 0 1 0
161 1 5 0.053 4.608981017016617 8.643383402198022 6.490979215556177 0 1 0
124 1 4 -0.1268 8.988423534469813 5.178105981252189 3.63547505867845 0 0 0
47 1 4 -0.1268 9.204382938435494 7.951324322782308 3.6235571734830576 0 0 0
45 1 5 0.1268 9.301763499627373 9.014196507938687 3.604879614686633 0 0 0
532 1 1 0.027 2.680038871745203 2.516046250381069 6.533903171881973 1 0 1
258 1 5 0.053 2.801646658622867 9.07612655488257 9.169905006940926 1 -1 1
247 1 2 0.08 6.6643089700633045 3.4778305188811083 8.183370974318816 0 1 0
246 1 5 0.053 6.5698386007154586 3.4279440132421533 7.067011529400071 0 1 0
245 1 5 0.053 6.002675648176311 5.575242550337047 8.477164936714523 0 1 0
174 1 4 0.0265 8.307358758456076 7.347578664785545 2.7525995983087093 0 0 0
252 1 1 0.027 7.796092036786716 2.5474940384920766 8.652416614145373 0 1 0
461 1 10 -0.1595 9.013132133165449 2.9109174814768783 8.050866801951361 0 1 0
354 1 4 0 9.349516400266225 8.953496542184787 8.104380009902277 0 1 0
533 1 5 0.053 2.4156580395467873 2.341101964369946 4.420219260137705 1 0 1
508 1 5 0.053 3.054991506566327 3.161687652831281 7.283605210020639 1 0 1
242 1 5 0.053 7.222080295956408 4.969352953907547 9.601196242797492 0 1 0
507 1 5 0.053 2.939071332657274 5.238305312052601 5.437653124941609 1 0 1
243 1 11 -0.5571 5.475514378892401 3.066632129997175 8.868036977547026 0 1 0
361 1 1 -0.159 9.929111711632308 6.848817807020153 9.384488743858778 0 1 0
177 1 4 0 9.753594860327583 5.815956506994139 4.629683171750248 0 0 0
49 1 4 -0.1268 9.836231145650707 7.172965318632878 4.587333486344436 0 0 0
528 1 1 -0.0233 2.228315879296188 4.50624803552903 4.953697288778558 1 0 1
42 1 5 0.053 4.89226130027214 9.934932415299077 2.5659080313400784 0 0 0
175 1 7 0.4241 4.874954713918684 2.5348404147920265 8.283537042574487 0 1 0
116 1 8 -0.1654 1.985010008152591 4.883434975367402 3.5112589508351637 0 0 0
176 1 4 -0.1268 8.219707993308061 5.910639687785618 2.7666239318990753 0 0 0
450 1 5 0.053 4.74375535504108 6.270899138480866 3.6438456500647933 0 0 0
357 1 8 -0.3314 10.54396718090956 9.563821571003782 8.6787965309058 0 1 0
150 2 5 0.053 8.968164109593886 15.76582093041281 1.725182293739658 0 -1 1
360 1 5 0.053 10.130841925852467 7.521408520869928 10.229931108354165 0 1 0
283 1 4 0 3.0716985988255843 8.060927080119452 1.741264796887233 0 0 0
363 1 5 0.053 9.504592745007429 5.915562544200808 9.78778424270971 0 1 0
280 1 4 0 1.926660697331636 8.890569725840844 1.8943324734318563 0 0 0
132 1 5 0.053 9.975616159234525 4.2470213510397805 5.930233751796567 0 0 0
462 1 4 0.0265 10.185107334424774 2.3351920557626737 8.458700584143696 0 1 0
50 1 5 0.1268 10.48222971199471 7.685641509874819 5.35811655613597 0 0 0
467 1 10 -0.1595 3.4035197532821044 2.7252262604090554 1.9574347498804388 1 1 1
56 1 1 -0.106 10.567197315744222 5.078027034086292 5.511418681211893 0 0 0
459 1 5 0.053 7.826738078831378 2.5697189547286223 9.735690135135561 0 1 0
535 1 5 0.1268 2.3958920851164356 2.2059105732445365 9.103965466637469 1 0 1
389 2 5 0.053 7.422256791825206 1.5215286339390321 4.0815694926034585 0 0 1
470 1 4 -0.1268 5.627903261762668 1.951124460514407 1.604033817594741 1 1 1
468 1 5 0.1268 5.58475379509437 1.5826469613167133 2.548273022859444 1 1 1
362 1 5 0.053 10.76696011728103 6.380597413546691 8.905217110348717 0 1 0
381 2 5 0.053 7.6584801486465 2.018498849105349 5.7871718440358055 0 0 1
530 1 5 0.053 3.2695367940549893 1.6071591802102414 6.709631075975868 1 0 1
257 1 1 -0.0233 2.841381484509103 10.178100213000883 9.188697186521612 1 -1 1
427 1 5 0.053 14.072257386094531 18.510017500057167 10.528504843414192 0 0 0
254 1 5 0.053 3.322710474219406 10.271320465871364 10.158803820231809 1 -1 1
169 1 10 -0.1595 7.527085566151649 7.987993908046696 1.790803858793427 0 0 0
279 1 5 0.053 19.52085177922286 11.021724260652862 1.7092909718805132 -1 0 0
140 1 2 0.08 19.574516912175 10.625527257148896 9.220416348250842 0 -1 1
44 1 5 0.053 5.935035579576665 10.632561918556856 9.179019465065362 0 0 0
120 1 5 0.1268 7.682481045280529 5.330730861856102 1.9734796115895608 0 0 0
139 1 11 -0.5571 18.83000605896048 9.710244263949786 8.326037379237565 0 -1 1
57 1 5 0.053 10.642369776521134 5.73667164278836 6.381812576732535 0 0 0
443 1 5 0.053 1.7548933846735366 1.6047180331026671 2.1107090445175256 1 1 1
359 1 6 0.2487 10.785192270647268 8.936098527356052 9.431026085338377 0 1 0
271 1 5 0.053 18.610148170740636 3.398037384766713 3.5000756712686827 0 1 1
133 1 5 0.053 16.104044858487782 8.751085681687213 2.2283687468226065 0 0 0
529 1 5 0.053 19.4339831987609 4.521258334845658 5.506718935735675 0 0 1
157 1 5 0.053 17.731754387210458 7.460737918510888 6.523405620319338 -1 0 0
158 1 5 0.053 19.290465683322488 7.022817978091971 6.099679069936048 -1 0 0
269 1 1 -0.0233 18.979116597049504 4.253473466155896 2.8614696736965444 0 1 1
420 1 5 0.1268 11.283485073609334 4.0372628744392305 7.974149872873491 0 1 0
275 1 5 0.1268 18.126093851410054 9.097036138171443 2.8291201593644377 -1 0 0
131 1 1 0.027 15.004968818082988 9.076017911185883 2.460843874350962 0 0 0
277 1 4 -0.1268 19.054902797574456 8.439609555359462 2.710232012424173 -1 0 0
115 1 5 0.053 18.72140421867045 8.651353047899217 5.795460098375066 -1 0 0
421 1 4 -0.1268 11.373960249008311 3.028755428989064 8.3119637009221 0 1 0
432 1 5 0.053 12.982153818746491 8.107686168173922 9.700670584244945 -1 0 0
276 1 4 0 19.09626324297215 7.23546660576459 3.391014426876171 -1 0 0
137 1 5 0.1268 12.14204944035497 9.147977873020952 2.333333970920806 0 0 0
291 1 9 -0.266 15.061652241239807 5.114382277425573 7.956168150301335 -1 0 0
15 1 4 0 11.966503953126045 4.554729264015019 5.016526654739446 0 0 0
17 1 4 -0.1268 12.284610519436463 3.2406327012433476 5.289080588851564 0 0 0
270 1 5 0.053 18.139860497408065 4.932301304681875 2.5902228213007006 0 1 1
113 1 1 -0.159 18.39772002734309 7.617837042141219 5.73872069167153 -1 0 0
117 1 5 0.053 17.805229533342285 5.975801621105309 4.69824080255961 -1 0 0
274 1 1 -0.106 17.990778672604073 7.014213680548107 4.4000759467982125 -1 0 0
379 1 2 0.08 12.552548664280074 8.490409745403486 7.572810796622513 -1 0 0
273 1 5 0.053 16.98861752432274 7.323844608569041 4.1330035704998815 -1 0 0
12 1 4 0.0265 14.336616526465253 3.4817769154211033 4.130871764784935 0 0 0
14 1 4 -0.1268 13.47027153922758 2.6945083539484664 4.903312909772556 0 0 0
13 1 4 -0.1268 12.851976322724495 5.414315940582992 4.406804949251025 0 0 0
9 1 10 -0.1595 15.513601466023033 2.991319474879347 3.6313887050709273 0 0 0
125 1 11 -0.5571 15.390999013900274 9.66710371886148 4.8619235931200855 0 0 0
11 1 4 -0.1268 14.054939340324934 4.865287693461891 3.99510357966685 0 0 0
53 1 5 0.1268 12.690243234423752 6.505794465172498 4.422341975519428 0 0 0
10 1 5 0.1268 14.852155801794227 5.4098462165803545 3.4883299304669935 0 0 0
123 1 3 0.08 16.097490723992358 4.108487918112074 8.230996917574952 -1 0 0
430 1 1 0.027 13.537816154053658 8.285308378067382 8.73396296878493 -1 0 0
153 1 7 0.4241 14.556461403323906 9.42707165273535 5.288335936684041 0 0 0
193 1 11 -0.5571 13.251679426280601 8.536658319945303 6.308079202775969 -1 0 0
378 1 5 0.053 11.911675369534434 7.604536594882799 7.5456840526220645 -1 0 0
134 1 5 0.053 14.47399195948236 8.1467463805961 2.867070369943823 0 0 0
18 1 5 0.1268 11.541607255695657 2.5768152020203945 5.798383125245775 0 0 0
297 1 5 0.053 16.121840738194365 4.674736814733853 6.107359062641508 -1 0 0
294 1 1 0.027 16.251673569764925 5.014471698692106 7.151562165280821 -1 0 0
249 1 5 0.053 16.93438540145573 5.881732126848201 7.225573516475816 -1 0 0
428 1 5 0.053 14.085291257282316 7.317379505680155 8.656929562065768 -1 0 0
423 1 4 -0.1268 12.553181842896137 2.472752030266325 8.717605497135082 0 1 0
251 1 2 0.08 14.958119286453279 10.158126171752691 3.539225586717766 0 0 0
422 1 5 0.1268 13.459070663198952 3.091674112905494 8.545126362631457 0 1 0
119 1 5 0.053 17.844974550477502 3.8944725838599004 9.422922069550044 -1 0 0
121 1 1 0.027 16.815290078359258 4.231592285740461 9.509483238727919 -1 0 0
292 1 5 0.053 15.781674997021012 3.0949473649842956 8.120497357135877 -1 0 0
380 1 10 -0.1595 14.433818651984037 9.418404838602973 8.972224360658537 -1 0 0
6 1 5 0.053 17.149874696199856 2.33408383421882 4.597902570340667 0 0 0
223 1 1 -0.0233 11.656623670842574 9.728048101092917 7.783429864943231 -1 0 0
122 1 5 0.053 16.910967237002122 5.298126815926799 9.752317708731715 -1 0 0
8 1 1 0.027 16.229952656215143 1.8929486261149897 4.23961175609366 0 0 0
384 1 4 0.0265 15.118155084521838 9.533946025665479 10.179168335091184 -1 0 0
355 1 7 0.4241 13.456040946099982 7.613724790050168 6.127882818560646 0 1 0
534 1 10 -0.1595 19.450852269126187 2.28552465011508 6.762346659002231 0 0 1
219 1 1 -0.106 13.980749193326185 18.650508339996726 9.449314677425967 0 0 0
267 1 4 0 13.236789041408866 13.66682401542688 3.3887945765287917 0 0 0
224 1 5 0.053 11.294346435855049 9.91261201978466 6.745996929234796 -1 0 0
248 1 5 0.053 13.882398358174058 10.416090033059772 3.6033956697478646 0 0 0
222 1 5 0.053 12.269018575980454 10.630838537684804 8.086095648856354 -1 0 0
32 1 4 -0.1268 1.508758076485032 1.5690851627587585 9.035929008745093 1 0 1
73 1 7 0.4241 18.165429720713306 10.163095022282624 7.813672560042236 -1 0 0
26 1 4 0.0265 19.040820620948878 19.64207854363271 7.789359323030741 0 -1 1
387 1 5 0.1268 16.33587226998463 7.7564197451946715 10.043177849925566 -1 0 0
16 1 5 0.1268 13.632843267383214 1.6846298794533552 5.160912533630414 0 0 0
7 1 5 0.053 15.615977157602837 19.579351570579647 5.052199297887146 0 -1 0
544 1 1 -0.0233 6.893655392888623 14.949817674745512 10.413285077827029 0 -1 0
316 2 5 0.053 3.218191725878235 17.984330972234233 2.2320956258556257 0 -1 1
253 1 5 0.053 7.524036598832924 1.4951716638159251 8.383900629184598 0 1 0
548 1 5 0.053 7.5852904996431105 14.159021798077035 10.316048234612973 0 -1 0
74 1 6 0.2487 3.126436035100827 10.643445076537315 7.214662975196512 0 0 0
448 1 5 0.053 5.176079528644471 6.466096189296761 1.997661043335457 0 0 0
539 1 5 0.053 2.7954799537092336 16.533504204036504 10.011229120855905 0 0 0
546 1 5 0.053 4.64748855500094 18.186903170607685 8.861237667867556 0 0 0
3 1 1 -0.0233 15.241788585969292 18.229612662274675 2.9736109042176664 0 -1 0
383 2 1 -0.159 7.556776116309574 19.289886228111648 5.129544278869975 0 -1 1
512 2 5 0.053 8.634528476040586 18.862769916528244 5.217631989887268 0 -1 1
399 1 5 0.053 9.576883363619348 12.188283131881493 4.822006858942256 0 1 0
151 2 5 0.053 8.688709494731935 14.467769589613155 2.898375000670855 0 -1 1
72 1 8 -0.3314 3.634393451718456 10.800616524321816 8.087730613180552 0 0 0
401 1 5 0.053 10.151817382714354 10.456521079164498 4.80346699623917 0 1 0
332 2 5 0.053 5.5725685040921045 18.959950020766428 5.8129239513008155 0 -1 1
319 2 1 -0.106 3.4089472413763344 16.936069389120114 2.217397518352243 0 -1 1
407 1 5 0.053 8.459691518756426 10.800900243767732 4.6484054009725515 0 1 0
576 1 5 0.053 3.4125283990264137 17.431201520076286 7.9659365276026675 0 0 0
345 1 1 -0.106 8.937883213597608 11.046739673645714 6.711569342617937 0 1 0
545 1 1 -0.159 4.263016512884233 17.228166093127847 8.56968336580284 0 0 0
340 1 5 0.053 8.089167293198923 11.733818370413202 6.862098156098229 0 1 0
403 1 1 -0.159 9.32921100316414 11.204442354273942 5.225433195035913 0 1 0
324 2 5 0.1268 4.367230234684243 18.106105024712413 4.176301498109929 0 -1 1
323 2 4 -0.1268 5.12396234897538 17.472143479239243 3.758786847555523 0 -1 1
152 2 1 -0.159 8.232858944983063 15.058273581559833 2.1349407746105458 0 -1 1
68 1 4 0 3.0292296602995803 13.20212043760272 7.7564967439558705 0 0 0
327 2 8 -0.3314 8.546202324693482 16.38985679757275 4.5639010680247765 0 -1 1
322 2 4 0 7.040738659833707 15.884731050717589 2.70350738194629 0 -1 1
320 2 4 0 5.8397879452638115 15.940937367653868 2.0105348220920822 0 -1 1
325 2 4 0 7.327107356020239 16.559799218702025 3.869470820512067 0 -1 1
326 2 4 0 6.315760610982123 17.399484388426274 4.384917232103443 0 -1 1
321 2 4 0 4.835094549410499 16.729292849075648 2.641683891477264 0 -1 1
510 2 1 -0.159 2.342247154977757 16.243763870626175 3.1496441461188436 0 -1 1
451 2 5 0.053 8.356233871908282 14.463927693326221 5.434149555565913 0 0 0
328 2 1 -0.106 6.466241562377269 18.298953042110007 5.618743448540864 0 -1 1
385 2 5 0.053 6.956471829187028 17.800681409133226 6.474207125570756 0 -1 1
569 2 1 -0.0233 8.49397630093512 15.531764188675362 5.68597330660546 0 0 0
156 2 6 0.2487 9.280836847949896 16.025271282483462 3.9617000636144937 0 -1 1
100 1 5 0.1268 2.5681954475550506 15.200575835249168 7.761250837239032 0 0 0
66 1 4 -0.1268 3.098969484437752 14.436678304637603 8.293659027320924 0 0 0
567 2 5 0.053 7.692639865326734 15.831070957404599 6.349140257433584 0 0 0
70 1 4 0 3.8045266332232464 12.205037765563278 8.390580241749351 0 0 0
71 1 1 -0.106 2.100733682165793 13.040834767023316 6.620141630297967 0 0 0
566 2 5 0.053 8.88553726353456 14.43948390980763 8.327305962128758 0 0 0
571 2 1 0.027 9.749772223595334 14.458052425769955 7.664243979399654 0 0 0
64 1 4 0 3.9135022330288405 14.810105403305837 9.29810040239942 0 0 0
204 1 1 -0.159 2.844519525089403 12.719028746261525 5.361605846078203 0 0 0
203 1 5 0.053 2.1641970552743555 12.583361683951638 4.513347950323949 0 0 0
67 1 4 0 4.755082642500515 12.586398906824305 9.413817062063753 0 0 0
568 2 2 0.08 9.67001309632292 15.600900444169838 6.621366740807654 0 0 0
202 1 5 0.053 3.414685623548517 11.715753990267403 5.533945013993022 0 0 0
572 1 5 0.053 4.973748304075494 16.724246778104256 7.926570676599471 0 0 0
205 1 5 0.053 3.52301199349134 13.571585410087112 5.170490018066943 0 0 0
346 1 5 0.053 9.759466570009273 11.443083659393992 7.339151013369389 0 1 0
583 2 5 0.053 2.3689229325748586 16.71644811067746 4.132854804334738 0 -1 1
256 1 5 0.1268 9.356788010973098 18.657721018343523 8.99724221792276 0 0 0
75 1 5 0.053 19.526151485204593 12.230715610866737 6.862908290079906 -1 0 0
101 1 5 0.053 19.66465972038703 13.952321194732997 6.382079274075777 -1 0 0
570 2 5 0.053 9.706971083068101 13.484165947896601 7.234587984349692 0 0 0
138 1 5 0.053 19.482866043509702 11.645239504447721 8.717237406486138 0 -1 1
565 2 5 0.053 9.62100623575768 16.60767984992831 7.12698756979738 0 0 0
509 2 5 0.053 2.331614033312274 15.137754041529988 3.0830080192630263 0 -1 1
69 1 1 -0.159 5.731590562631847 11.463048758498855 9.920852531658904 0 0 0
255 1 4 -0.1268 10.302506389419111 19.22200989820289 8.972871582355516 0 0 0
63 1 1 -0.106 3.837861390815133 16.271002723083697 9.76092489914413 0 0 0
65 1 4 0 4.702275641240259 13.903593653767638 10.027553905221348 0 0 0
541 1 5 0.053 6.690897763165629 15.333658150980513 9.440631167019434 0 -1 0
48 1 5 0.053 6.662028512463751 11.891176482594688 10.193488694720685 0 0 0
452 2 5 0.1268 9.160206764661108 12.543387406595695 9.247419024760019 0 0 0
453 2 4 -0.1268 9.922848269805803 12.847590658734259 9.942067453174863 0 0 0
168 1 1 0.027 7.454265627831535 9.39799545580781 1.8390402950872202 0 0 0
20 1 5 0.1268 17.517491918434246 18.59251862779331 6.648052129995894 0 -1 1
37 1 7 0.4241 16.244525565245638 10.349893809243794 6.195300868343902 0 0 0
87 1 5 0.053 11.018015283077624 18.635186398721352 2.258470484521201 0 0 0
1 1 11 -0.5571 17.384638768192254 17.94971587770138 4.18976894367082 0 -1 0
188 1 4 -0.1268 13.83897425672465 15.976003191878219 6.696879704291401 0 0 0
564 2 11 -0.5571 10.893910795842864 15.444551106594844 5.849722825685803 0 0 0
426 1 5 0.1268 14.404657144184965 16.1528232463427 10.463082542113279 0 0 0
93 1 5 0.053 17.307160742213988 15.468402183951062 2.16240647671656 0 0 0
99 1 5 0.053 14.725255219306078 18.976164947460646 2.4152031356330212 0 -1 0
371 1 4 0.0265 13.976367999815192 14.775987509405647 7.364470686972837 0 0 0
375 1 5 0.053 16.302988948421795 13.998919373589471 5.285811398903331 0 0 0
109 1 4 0 14.654605550479445 13.696094468991136 3.44319728545933 0 0 0
89 1 1 -0.106 12.29499568005482 16.90394445332836 1.6920316762102492 0 0 0
24 1 4 -0.1268 17.85522512081166 14.769730919364285 10.224376412864324 0 -1 1
97 1 7 0.4241 17.305853284947116 17.14003491422644 3.7023246921260506 0 0 0
573 2 10 -0.1595 10.918528479455084 14.508024512176641 8.449966590018029 0 0 0
575 2 4 0.0265 10.899172442834228 13.857451913274279 9.662658890497127 0 0 0
511 2 5 0.053 19.58690750036051 16.424825959875022 2.6985080377203 -1 -1 1
83 1 5 0.053 11.541721968568664 17.758661724851393 3.6516811876355524 0 0 0
374 1 4 -0.1268 14.313179630677038 14.912883939814552 8.725860817788059 0 0 0
95 1 8 -0.1654 15.395516008311809 17.083402750448904 2.0722605298625636 0 0 0
373 1 5 0.053 17.359680330942837 12.856505094328327 4.846924497109152 0 0 0
4 1 2 0.08 16.580868715963575 18.876720207095417 3.3979064209323213 0 -1 0
2 1 5 0.053 14.544446863506245 18.05260689956218 3.837760705053338 0 -1 0
28 1 5 0.1268 17.126074143464542 15.128922076182832 9.44316681469893 0 -1 1
220 1 5 0.1268 11.424226698748717 17.663799649673763 9.602901545964212 0 0 0
148 1 4 -0.1268 18.104586612447598 13.416896008525503 10.406293115877633 0 -1 1
329 2 7 0.4241 11.623176543464133 15.435094023188014 6.466138947842638 0 -1 1
264 1 5 0.053 12.282558954207172 11.575409062074929 1.8431050899749186 0 0 0
268 1 4 -0.1268 12.601943437484936 14.784233596112697 2.8852824040837515 0 0 0
91 1 4 0 14.632351801691154 15.911464453650037 2.481731528155956 0 0 0
215 1 5 0.1268 13.451965432543378 18.030028320588848 6.796564283173087 0 0 0
372 1 1 -0.0233 16.297899796393956 12.954859481396442 5.123285894244816 0 0 0
85 1 1 -0.159 11.905633870637976 18.04375946180459 2.66137614796286 0 0 0
111 1 4 0 13.256228898101403 15.891186375120322 2.3323422170244097 0 0 0
366 1 5 0.053 16.76181700874666 12.890818564298018 7.1929120510010405 0 0 0
92 1 1 -0.159 16.831172862828414 14.813899634259185 2.9577190366507145 0 0 0
94 1 5 0.053 17.19463060869623 13.817930863855933 2.5487145512702085 0 0 0
221 1 5 0.053 14.866498871624259 19.321936718184695 9.270178163636213 0 0 0
5 1 5 0.053 17.133385553564988 19.166142528976465 2.525677858521718 0 -1 0
265 1 5 0.053 10.852452657680933 12.362942622479203 2.3141186590261342 0 0 0
30 1 4 0 18.21853284726039 17.993584829385902 9.870338195872375 0 -1 1
218 1 4 0 14.07238848573701 17.319815264547145 8.659837399484983 0 0 0
259 1 5 0.053 11.190174417951924 10.831457494789817 3.0627929042931106 0 0 0
217 1 4 -0.1268 11.486943367568834 18.66466792369784 9.280858381294445 0 0 0
260 1 5 0.053 12.722163273752965 11.838266489847861 4.579546189413222 0 0 0
368 1 2 0.08 16.091726247747687 12.343005592123314 6.528043458512431 0 0 0
145 1 5 0.1268 17.80325329971331 12.841793846048988 9.569803295961735 0 -1 1
376 1 5 0.1268 14.401643924846637 14.063337094859888 9.39255667363799 0 0 0
33 1 4 -0.1268 19.24601231719089 18.91676736046835 10.120206221176655 0 -1 1
184 1 5 0.1268 13.639635671898406 15.985891567556305 5.59171035243732 0 0 0
155 1 8 -0.1654 15.318085776644855 12.583034152559955 4.076631964196264 0 0 0
266 1 5 0.1268 11.484547962348937 14.76237008404797 2.8698933281039904 0 0 0
102 1 5 0.053 15.164549855357166 11.689002033165046 2.176631600800493 0 0 0
425 1 4 -0.1268 14.341219154336647 16.140953226159702 9.377105448171715 0 0 0
424 1 4 0 12.661405187665986 19.36839543723402 9.205836532980094 0 0 0
367 1 1 0.027 14.644886306107761 12.377768029121757 7.166372390818877 0 0 0
22 1 4 -0.1268 18.03434159726868 18.748944390818146 7.6040376273566554 0 -1 1
364 1 5 0.053 14.759603251775907 12.321535433149363 8.294388929075355 0 0 0
38 1 5 0.053 17.319590242166026 15.081523205950896 3.900455698149383 0 0 0
263 1 1 -0.159 11.685002652289572 11.801948926946341 2.726065074676921 0 0 0
369 1 10 -0.1595 13.906233687464777 13.5492450907193 6.74219061500644 0 0 0
21 1 5 0.1268 16.84362200739207 17.153671095290967 8.48126662237891 0 -1 1
23 1 4 -0.1268 17.628989049919667 17.888108047999168 8.620689339594318 0 -1 1
261 1 5 0.053 11.517185016896446 13.078086789095456 4.427443380240452 0 0 0
112 1 4 0 15.347097238500197 14.819520940001366 2.9513216214966684 0 0 0
365 1 5 0.053 13.987003355203228 11.540065644307116 6.860654382223015 0 0 0
262 1 1 -0.106 12.341765066467703 12.611888481453855 3.8920143741715223 0 0 0
250 1 1 -0.0233 15.57730369283713 11.496053158006523 3.1355899065645705 0 0 0
103 1 5 0.053 16.66642811394508 11.390774800203717 2.9112048201943734 0 0 0
370 1 11 -0.5571 16.74967783670871 11.065652839233413 6.760008713929733 0 0 0
216 1 4 -0.1268 13.89239403612658 17.18542263174168 7.335592835442623 0 0 0
110 1 5 0.053 12.713580713748767 18.8273699351099 2.7799680547664956 0 0 0
314 1 5 0.053 5.7596455072368595 7.258930808343396 10.187926239269766 0 0 0
446 1 5 0.053 4.334295890737254 5.068101242746902 2.5124019678110225 0 0 0
547 1 7 0.4241 9.197021009839162 15.772471250564156 10.283242030600478 0 0 0
141 1 5 0.053 17.780046055923115 10.939502316427678 10.445194892801426 0 -1 1
574 2 5 0.1268 12.465163116881591 15.02713205248435 10.498169218706003 0 0 0
172 1 5 0.053 8.493539044242912 9.712830107821116 1.605363914163469 0 0 0
237 1 5 0.1268 4.113358727456852 2.9268967244869746 13.513496797212017 0 0 0
521 1 2 0.08 4.510799914746239 6.791152748275712 17.307317475102693 0 0 0
523 1 1 -0.0233 4.092752195825419 8.245401935631175 17.75413445777434 0 0 0
186 1 4 0 9.02025012048869 9.048833136895773 16.20298986301067 0 0 -1
312 1 3 0.08 6.805356763112947 6.311192750341238 12.005813710161307 0 0 0
310 1 1 0.027 7.179177216719613 4.944531747685815 12.517115811579892 0 0 0
377 1 5 0.053 7.258042766402056 4.751740472207015 13.550488980359294 0 0 0
306 1 10 -0.1595 8.561993881280522 4.716592681085702 12.034056108786835 0 0 0
309 1 5 0.053 6.558639841565898 4.13739356151252 12.112421992816424 0 0 0
304 1 4 0.0265 9.197415178595378 3.489810972588605 12.31363658578583 0 0 0
476 1 5 0.1268 8.423896077388598 4.336499986795367 18.398019559636055 1 1 0
182 1 4 -0.1268 7.865231406006498 8.670431304945984 15.454677315427618 0 0 -1
178 1 5 0.1268 7.744998802046762 7.660640120144047 15.146961180436477 0 0 -1
181 1 4 -0.1268 6.971799540175177 9.629414523940026 14.960572034376732 0 0 -1
301 1 4 -0.1268 8.594464603989078 2.5409691201037825 13.11230135067661 0 0 0
526 1 5 0.053 3.054017584899585 8.27655094536626 17.424891062811074 0 0 0
525 1 5 0.053 3.8175736653337102 6.093969223077475 17.82751864393851 0 0 0
300 1 5 0.1268 7.587554565264759 2.6323477024109723 13.531771205717622 0 0 0
51 1 5 0.1268 5.933343084112292 9.310737747767417 14.514165818747363 0 0 -1
315 1 5 0.053 7.630967477318748 7.11729330329882 12.001781320363262 0 0 0
313 1 9 -0.266 5.533090096331406 6.907139823973066 12.36195904977196 0 0 0
419 2 5 0.1268 9.43051814964706 9.327347951063372 12.867076419967166 0 0 0
519 1 11 -0.5571 5.879951335918398 6.443790752752693 17.4311028465172 0 0 0
475 1 4 0 9.139666158956327 2.528950598688982 17.480262216796284 1 1 0
520 1 1 0.027 4.127099130128307 6.440252950942598 15.861086505463472 0 0 0
358 1 10 -0.1595 2.741419435656997 6.148883288394657 15.535543940668278 0 0 0
518 1 5 0.053 4.6869600921058705 5.548889400314772 15.699639182192351 0 0 0
524 1 5 0.053 4.448044596390771 7.225591572180875 15.099427299661176 0 0 0
517 1 5 0.1268 3.393845485991146 8.784903464006067 14.656064942575991 0 0 0
226 1 5 0.053 2.3129766365995827 3.379800742420775 15.067013088926887 0 0 0
170 1 5 0.053 6.435774796279246 9.612216738515347 18.012934912414543 0 0 -1
189 1 5 0.053 9.176370422983037 7.482174724843783 17.462302647169075 0 0 -1
187 1 1 -0.106 9.855597421915746 7.872961367841071 16.66852499042203 0 0 -1
471 1 5 0.053 2.1513207956759395 2.1999200493285933 18.5370691395509 1 1 0
286 1 7 0.4241 6.068154103085044 6.69432912638411 18.343285086672616 0 0 -1
522 1 5 0.053 4.661906842527408 8.927882073851478 17.13161186436493 0 0 0
469 1 4 0.0265 4.43576726448153 2.4872856648346744 19.245656211386823 1 1 0
183 1 5 0.053 10.068008082811483 7.153196221059765 15.904570637993944 0 0 -1
478 1 4 -0.1268 9.264730745165936 3.7005870401912357 18.20820740386072 1 1 0
43 1 2 0.08 6.379615103324187 10.109012710939243 19.135558209837747 0 0 -1
331 1 4 -0.1268 4.431052111217305 3.0877004681182765 17.920744897124955 1 1 0
418 2 4 -0.1268 10.53531444835872 9.240709334383348 12.889654684518618 0 0 0
190 1 4 -0.1268 9.22177051963353 10.453915009926478 16.384852089179233 0 0 -1
330 1 5 0.1268 3.491224000466591 3.4262187737796364 17.444482456613322 1 1 0
416 2 5 0.1268 10.541654159578 6.999038271285603 12.598880138842386 0 0 0
41 1 1 -0.0233 4.887790248697212 9.789150184236709 19.656151723630828 0 0 -1
311 1 1 0.027 5.773735840106749 6.5108217765677345 10.969036471516112 0 0 0
516 1 4 0 6.739071281193366 2.3124882289839555 17.711317992733427 1 1 0
201 1 4 -0.1268 3.99938392733845 1.8614945958884137 13.567083232130043 0 0 0
333 1 4 -0.1268 5.546229505465112 2.8208335666452884 17.154091125466152 1 1 0
230 1 5 0.1268 1.6471489003179949 4.7448678775928235 13.295193136603244 0 0 0
382 1 5 0.1268 13.935328969421077 11.310822815404235 10.712156833925944 -1 0 0
513 1 5 0.053 7.95571604862716 2.757276712485078 15.877514990027151 1 1 0
272 1 5 0.1268 5.461745333335754 2.985955767221535 16.0306648598131 1 1 0
515 1 1 -0.106 7.926197035838161 2.1454206790921035 16.735122021277874 1 1 0
154 2 5 0.053 7.833196310562529 14.352787973745796 19.553857186611957 0 -1 0
298 1 4 -0.1268 9.177375515038843 19.44624190299045 13.28343847299322 0 -1 0
285 1 8 -0.1654 4.223381898261953 8.511987925323623 19.234929092281696 0 0 -1
350 1 4 -0.1268 2.300267846176252 8.44918704188138 14.720614246248706 0 0 0
192 1 5 0.1268 10.12983241286804 10.813319160193911 16.792035081613484 0 0 -1
483 1 5 0.053 2.453292051665061 10.515927297519957 18.692340029827378 0 0 -1
353 1 4 0.0265 1.9471568706762508 7.162351028602369 15.191447309092474 0 0 0
282 1 1 -0.106 1.6498235263036332 10.1453634949087 19.25015705722494 0 0 -1
585 1 4 -0.1268 6.6917860087017464 1.7335734696284404 18.946178970400872 1 1 0
339 1 5 0.1268 1.7900807246824266 10.358737351503882 14.215859078641111 0 0 0
305 1 4 -0.1268 10.550486494036083 3.3407260123702844 11.96367597781857 0 0 0
474 1 5 0.053 19.470782189422664 4.367457595631636 18.878115201973692 0 1 0
229 1 1 -0.106 1.8667382199195697 2.4642136012923515 14.734107045860993 0 0 0
436 2 4 0 12.873284405041774 13.574184286738951 16.8233899862787 -1 0 0
225 1 5 0.053 12.684188592460085 17.368071858275336 18.987741797323757 0 0 -1
554 2 4 -0.1268 17.497667323031877 13.568985725781907 17.850794126048896 -1 0 0
415 2 4 -0.1268 11.060155632517406 7.952878822027622 12.712942773418417 0 0 0
343 1 4 -0.1268 19.540876714221923 9.365687016377297 14.427836786418847 -1 0 0
144 1 5 0.053 18.95531099421069 9.770475314363408 11.165444352337087 0 -1 1
307 1 5 0.1268 11.134889907880362 4.033816937388996 11.307629371506815 0 0 0
234 1 4 -0.1268 18.219282836749855 4.20654961522083 11.975581661208755 -1 0 0
388 1 4 -0.1268 16.15568125002106 8.67015477342363 10.623610861902542 -1 0 0
289 1 5 0.053 18.70022871637964 9.431913639599156 17.421850702351946 -1 0 -1
302 1 4 -0.1268 11.181016341553429 2.1425929714781957 12.280960287895416 0 0 0
232 1 4 -0.1268 19.131761542862705 3.9626263265889423 12.9723183869068 -1 0 0
228 1 5 0.053 19.453520367604725 2.0452781897657593 15.573083450954332 -1 0 0
481 1 5 0.1268 10.538126607859791 5.062419992057888 19.324075738964602 1 1 0
480 1 4 -0.1268 10.40123206633851 4.07141476363509 18.903179502367763 1 1 0
233 1 4 0 19.075814582525474 2.719430817312547 13.615314615230275 -1 0 0
185 1 4 0 11.196175423570155 8.331826153876012 17.34684805910705 0 0 -1
136 1 4 -0.1268 11.178975269972304 8.446174164148603 18.70743807245656 0 0 -1
486 1 9 -0.266 15.747909437861114 5.119706854780408 19.401274101410635 1 1 0
303 1 5 0.1268 12.236076044718985 2.0764316006008654 11.940856707597002 0 0 0
352 1 4 -0.1268 18.719837809918467 6.893014661021601 15.151581874598511 -1 0 0
290 1 5 0.1268 18.392781995744485 5.873034869655567 15.5081488912645 -1 0 0
492 1 1 0.027 15.751785179253211 5.722492716413284 18.06578245135926 1 1 0
179 1 5 0.1268 12.37664203123926 8.393453235203012 15.563650320037254 0 0 -1
180 1 4 -0.1268 12.36292207481391 8.586130140441886 16.673353486055305 0 0 -1
128 1 4 -0.1268 13.519573598164085 8.83330140608357 17.365361613346998 0 0 -1
130 1 4 0.0265 13.5015139205716 9.081882331955633 18.77741470527539 0 0 -1
214 2 5 0.053 12.923809974741161 3.7506382820288464 15.262419329332422 0 0 0
213 2 9 -0.266 14.722334210261208 4.920258887346902 15.168111040793997 0 0 0
210 2 1 0.027 14.736102514487502 4.270548451397047 13.942624592165503 0 0 0
211 2 3 0.08 13.419997106208228 4.527721470279273 14.70038519792985 0 0 0
208 2 1 0.027 12.435082970403297 5.684471125235705 14.179773064399125 0 0 0
414 2 4 0.0265 12.394539161680822 7.7093787242378875 13.043738087878777 0 0 0
413 2 10 -0.1595 12.888325621082618 6.390261719196113 13.03756502094123 0 0 0
206 2 5 0.053 12.369531814992275 6.4251793847713525 15.031791136651053 0 0 0
209 2 5 0.053 11.36618493898494 5.379260013147594 14.022602189377917 0 0 0
412 2 4 -0.1268 13.258861710782696 8.803397140541158 13.379603367915347 0 0 0
392 1 4 -0.1268 16.734043962928407 8.863261582684865 11.843364963722518 -1 0 0
335 1 5 0.1268 17.45030284115539 8.09554196142393 12.185661684348819 -1 0 0
348 1 4 -0.1268 17.788782237314464 7.769953145865396 14.552076989019817 -1 0 0
284 1 5 0.1268 16.767007956058663 7.444232382863708 14.686827135313534 -1 0 0
490 1 3 0.08 14.984554081278493 4.546509223645076 18.38955412253044 1 1 0
482 1 4 0.0265 11.55985073333403 3.3173706869531094 18.75185953466932 1 1 0
487 1 1 0.027 13.464016549051433 4.671864215482768 18.369158671742568 1 1 0
212 2 5 0.053 15.14404176686871 3.2677030098010436 13.883880936650971 0 0 0
411 2 5 0.1268 14.31788749429528 8.755456708964573 13.566812186124594 0 0 0
342 1 4 0 18.141098528140404 9.138265298722965 14.326579641032726 -1 0 0
494 1 5 0.053 16.678953407788242 5.577171711423439 17.487728383357783 1 1 0
493 1 5 0.053 15.338041989174933 6.7433754228730685 18.055942535161122 1 1 0
126 1 5 0.1268 14.519107572438982 8.979553554250082 16.863049020537723 0 0 -1
488 1 5 0.053 15.292250132387947 3.593793636552924 17.8883197118208 1 1 0
485 1 5 0.053 13.089232472609496 4.556515067605249 17.356697966879203 1 1 0
484 1 10 -0.1595 12.842366913999829 3.6952174477673188 19.238903343601642 1 1 0
466 1 11 -0.5571 17.930655458095963 3.0432096615824618 19.015769440797925 0 1 0
114 1 7 0.4241 17.17721267698679 3.6609575923967013 19.171929849819428 -1 0 -1
479 1 4 -0.1268 11.455156883055025 2.109698932749052 18.08235807988703 1 1 0
207 2 5 0.053 14.948999542754176 4.7838136649784975 13.055462002084369 0 0 0
239 1 4 -0.1268 17.156010926275954 2.065207363863621 12.25617073145618 -1 0 0
235 1 4 -0.1268 18.129817698609763 1.761846167142429 13.194980264629526 -1 0 0
472 1 2 0.08 19.201565549667507 3.5933725426249574 19.623104491629675 0 1 0
129 1 10 -0.1595 14.619115480255081 9.506574525243545 19.309470030882103 0 0 -1
334 1 4 0 16.496491877998626 10.013797311712125 12.628668514528957 -1 0 0
455 2 4 -0.1268 12.764510925346368 10.061911335599033 13.448039242861592 0 0 0
288 1 5 0.053 17.71233411584629 9.649509422093038 18.9010030434913 -1 0 -1
287 1 1 -0.159 18.567233322902545 10.075588669367253 18.275704302318694 -1 0 -1
337 1 1 -0.106 17.137561894357873 10.228181748672212 14.007770832607957 -1 0 0
338 1 5 0.053 16.407698559459003 10.171671612437923 14.76947204593181 -1 0 0
238 1 4 0.0265 17.152361728818157 3.3035273440040682 11.64819159317156 -1 0 0
118 1 5 0.1268 18.20803416653851 5.237181113384835 11.545308434290456 -1 0 0
417 2 4 0 11.401487665395178 10.333456910717716 13.234226815716001 0 0 0
135 1 4 -0.1268 12.277025878313886 9.002282942211767 19.418037225061767 0 0 -1
231 1 4 0 2.875314307244161 19.615456594216447 14.22128771120982 0 -1 0
477 1 4 -0.1268 10.287121215553354 1.6895222007356148 17.455032845739204 1 1 0
40 1 5 0.053 4.266958485504192 10.628501522169874 19.419499199760395 0 0 -1
191 1 5 0.1268 10.282240635736912 8.12363257515507 19.197360234664394 0 0 -1
409 1 5 0.1268 5.871560416574775 19.62644515237909 12.61280629467921 0 -1 0
54 1 5 0.053 5.630556628542397 10.987305746401121 13.179691787202044 0 0 -1
491 1 5 0.053 13.189230214007038 5.704717982389458 18.762700798285017 1 1 0
543 1 11 -0.5571 8.777479654922523 16.55042422732976 10.645146789333557 0 -1 0
296 1 5 0.1268 8.620952134075722 18.734534169578225 13.913353283187549 0 -1 0
552 2 5 0.053 4.73316499938122 13.405229211644878 18.879704208261785 0 0 0
58 1 4 0.0265 7.140575019177618 11.000231959044614 15.204273739672452 0 0 -1
52 1 5 0.053 4.324330789058921 11.212512325390055 14.361416990225642 0 0 -1
60 1 4 -0.1268 8.288326222107566 11.354379137554567 15.898808319952703 0 0 -1
317 2 8 -0.1654 5.656557149012508 15.3690604918516 18.872128851441644 0 -1 0
514 1 5 0.053 7.970091840851839 19.32105533913392 16.437728143263676 1 0 0
404 1 4 -0.1268 4.971787190734384 19.22436624828385 13.026984896201576 0 -1 0
55 1 1 0.027 5.215292432021646 11.692215076112781 13.869647618100093 0 0 -1
59 1 10 -0.1595 6.300954340121478 12.01422363334296 14.78884385355858 0 0 -1
61 1 5 0.1268 8.604226812689646 12.445471032549257 16.103435945023126 0 0 -1
199 2 11 -0.5571 6.3722670958627745 14.97612295952299 15.609109539818165 -1 0 0
445 1 4 -0.1268 2.6517641460700707 18.220325952085602 14.309291094398572 0 -1 0
408 1 5 0.053 7.2997801034213206 18.129665727694977 12.185094323422252 0 -1 0
400 1 4 0.0265 4.827438335657272 17.854698650445876 13.207615079966379 0 -1 0
402 1 10 -0.1595 5.764909575968794 16.900287071576 12.876010611781405 0 -1 0
397 1 4 -0.1268 3.6033312209286077 17.347093072246466 13.724340367988676 0 -1 0
396 1 5 0.1268 3.4759744318160113 16.246700346392807 13.748106222658594 0 -1 0
559 2 11 -0.5571 4.094416492704599 13.414593795536163 16.731372693021733 0 0 0
540 1 7 0.4241 4.568406322035101 14.873825879134953 13.363966520570946 0 0 0
410 1 5 0.053 6.0934468367649925 17.605976294608006 10.850707087091834 0 -1 0
86 2 2 0.08 3.595737977054629 14.489969554049807 17.50287281742763 0 0 0
538 1 5 0.053 7.852526328142244 15.595796523945035 12.249118131267384 0 -1 0
405 1 2 0.08 7.552268250642353 16.084638848165074 11.283624067775742 0 -1 0
406 1 1 0.027 6.64807425277722 17.2976546806486 11.763431300565436 0 -1 0
88 2 5 0.053 3.5588476877836186 15.40743998981886 16.900596557921467 0 0 0
79 1 2 0.08 4.83910383547623 12.955795057687062 13.023017894411156 0 0 -1
77 1 11 -0.5571 4.326912755856572 14.025286947481325 13.863770796548105 0 0 -1
76 1 5 0.053 6.603059016281812 14.048490855199773 12.914192181943694 0 0 -1
81 1 5 0.053 4.023376865473612 12.649960957490364 12.289836932088528 0 0 -1
78 1 1 -0.0233 5.97606915664309 13.448270100723578 12.168387939228507 0 0 -1
80 1 5 0.053 6.664970392758119 12.64138365223191 11.896327286568331 0 0 -1
542 1 8 -0.1654 5.666298455623597 14.37806220358242 11.041224223043084 0 0 0
197 2 2 0.08 7.170642242170031 15.171560083325557 16.771823082393283 -1 0 0
195 2 1 0.027 8.588369249852857 15.713408432322355 16.30842690059798 -1 0 0
318 2 7 0.4241 3.692948525224608 13.397645221831413 15.884208698703551 0 -1 0
163 2 5 0.053 8.95416589084762 14.95133822559895 15.624593787176721 -1 0 0
196 2 1 -0.0233 6.410382867674223 16.108705200633043 17.804804865852688 -1 0 0
194 2 5 0.053 5.612665992635588 16.74267882587595 17.326642646703597 -1 0 0
464 2 7 0.4241 5.731902052049916 14.279037708449119 15.893222432981329 0 -1 0
398 2 5 0.053 8.644062488440234 16.74018794771778 15.789792006575023 -1 0 0
200 2 5 0.053 7.48285921969636 14.13786377827304 17.14129160353599 -1 0 0
561 2 1 0.027 2.1361621750501114 14.197161586641116 17.85054319925237 0 0 0
198 2 5 0.053 7.020009420386116 16.94306509884458 18.196146568757086 -1 0 0
84 2 1 -0.0233 4.46613712501809 14.450959866531095 18.779794081645214 0 0 0
394 2 10 -0.1595 9.500942643847951 15.934548937523079 17.415694971286083 -1 0 0
549 2 5 0.053 9.952030612846652 11.77147701349917 14.069191286634442 0 0 0
90 2 5 0.053 1.9914807111131807 13.201710089292611 18.385184366829698 0 0 0
449 1 7 0.4241 7.058601717940538 11.74010741453996 18.36638242290961 0 0 -1
437 2 5 0.1268 9.648188903093084 13.3688465464952 18.074934870752116 -1 0 0
551 2 5 0.1268 17.983997487416993 13.601217520502482 18.811307218379696 -1 0 0
147 1 5 0.1268 1.8373313134953098 13.691926640992497 13.252680378022685 1 -1 1
142 1 1 0.027 18.843423616619894 10.746237492248392 10.585976396844117 0 -1 1
562 1 5 0.1268 10.289584437402887 18.867480737325458 16.949387372650378 1 0 0
39 1 11 -0.5571 6.532113384717727 11.513606842026748 19.140162566803824 0 0 -1
465 2 5 0.053 3.2578280726282935 16.61435716909065 19.32620981799142 0 -1 0
143 1 10 -0.1595 19.41608983962331 11.730907092604765 11.533542630783115 0 -1 1
457 2 5 0.1268 9.145491074281612 11.511554748811017 11.436749811831836 0 0 0
581 2 1 -0.106 10.86549832769545 11.755848412688447 13.415797435843661 0 0 0
444 1 5 0.1268 1.7940350369996376 17.821103971483517 14.793983497961232 0 -1 0
442 2 4 0.0265 10.6441429186613 15.17465227005457 17.321946695498777 -1 0 0
456 2 4 -0.1268 9.840236620811709 12.279203307836822 11.16809352532473 0 0 0
537 2 5 0.053 1.6623635988771186 15.049310784772128 18.431713632231236 0 0 0
438 2 4 -0.1268 10.59336834715989 13.842782045672616 17.665541604154207 -1 0 0
98 1 5 0.053 4.297838529446706 16.439824350590055 10.744989418697436 0 0 0
440 2 5 0.1268 15.61890842602086 13.681519186902989 14.356431489567429 -1 0 0
299 1 4 0 10.50303908056269 19.242238988735984 12.892968081907078 0 -1 0
505 1 5 0.1268 14.48389248248275 1.7842333610039063 15.566368538433009 0 0 0
463 1 5 0.1268 12.121277410817957 1.6086636934224194 14.893470742026873 0 0 0
489 1 5 0.053 18.359969228686417 11.129922711022386 17.87017508324024 -1 0 -1
240 1 5 0.1268 16.359656576869288 19.53351430528471 11.99195950385211 -1 -1 0
500 1 4 0.0265 14.95415241143387 17.856284329245348 15.208524875614705 0 -1 0
25 1 4 -0.1268 18.906487206301733 15.305803456175274 12.313386588217288 0 -1 1
434 2 1 -0.106 14.040253417381226 12.690717363043856 16.459049089526502 -1 0 0
36 1 5 0.1268 1.537526130695449 18.883230146423735 11.116252096606846 1 -1 1
149 1 4 -0.1268 19.33026561683792 13.999774440099158 12.431899468772517 0 -1 1
105 1 1 -0.0233 15.411426945451845 17.405167927801813 18.793064345426437 0 -1 0
577 2 4 -0.1268 11.760346251171121 14.203672740344297 10.671355236229429 0 0 0
579 2 5 0.1268 12.29664494189968 14.048888395426223 12.749054476011182 0 0 0
506 1 5 0.053 15.81620438066326 19.318226619501488 17.064518203911412 0 -1 0
563 1 5 0.1268 12.389259205612637 1.6103465289940146 17.97277777589035 1 1 0
582 1 5 0.053 17.60693454489479 19.120924147214353 16.589595911478014 0 -1 0
104 1 5 0.053 15.04202715825692 16.47414660038819 18.30151196313013 0 -1 0
580 2 4 0 10.846218636877078 12.520195983576468 12.12092420978174 0 0 0
27 1 5 0.1268 19.21294874425716 16.006358369201337 13.030396307922693 0 -1 1
386 1 4 -0.1268 14.823678454299309 10.660360757917136 11.005579194881026 -1 0 0
498 1 4 -0.1268 14.553042093702244 16.88963651373013 14.291168809283619 0 -1 0
108 1 2 0.08 16.8417162080616 17.782349507017592 18.185871333094845 0 -1 0
391 1 5 0.1268 15.40137555802022 11.822911030254279 12.68324088557067 -1 0 0
558 2 10 -0.1595 19.575262924161414 14.174996125260948 16.631028900158256 -1 0 0
460 2 5 0.053 11.550268332410102 12.232839449268518 14.233349521179708 0 0 0
499 1 4 0 12.423399809428718 17.88515492101493 13.864715336745475 0 -1 0
504 1 1 0.027 16.624411339385453 18.62837724891559 16.855774714469167 0 -1 0
429 2 5 0.053 13.984444938463705 11.746953645547563 17.03782506440141 -1 0 0
556 2 4 0.0265 18.209290904806664 13.896630152609601 16.650535247535878 -1 0 0
433 2 5 0.1268 11.764029773851396 11.98572497201364 17.698820934208698 -1 0 0
62 1 5 0.053 11.355234024074472 16.399250673541424 19.499189192568984 0 0 -1
496 1 5 0.1268 15.23254125306549 16.037748712903966 14.237790181337205 0 -1 0
393 2 4 -0.1268 11.755689727237096 15.71829152599958 16.740540329238932 -1 0 0
293 1 5 0.053 10.524942695600886 17.185369921249844 13.606839896998789 0 -1 0
390 1 4 -0.1268 15.51373562559909 10.865547513927856 12.181262250837893 -1 0 0
503 1 4 -0.1268 14.100813873177048 18.967130242041144 15.289355550018087 0 -1 0
454 2 5 0.1268 13.54079142529024 10.85380895430804 13.732470010850665 0 0 0
501 1 10 -0.1595 16.221670345192663 17.82339511752876 15.695687973465613 0 -1 0
497 1 4 -0.1268 13.287963923393667 16.87732957565768 13.692623682304804 0 -1 0
19 1 5 0.053 17.383840522567 18.527385041093957 18.844003050374354 0 -1 0
395 2 5 0.1268 11.764837306808836 16.792180147611 16.4929288224979 -1 0 0
336 1 5 0.053 17.599362039912982 11.22735439106814 14.080301494533778 -1 0 0
557 2 4 -0.1268 16.193436424370013 13.67387276347582 15.353855643277916 -1 0 0
106 1 5 0.053 14.659915710050024 18.224661868461006 18.570219716842296 0 -1 0
295 1 1 -0.106 11.146374755670676 17.83962847876505 13.087907477219298 0 -1 0
458 1 5 0.053 11.3401045578854 17.38866509467893 12.077827517257678 0 -1 0
536 2 5 0.1268 18.044481030076533 14.120708153867426 14.520707147991615 -1 0 0
560 2 4 -0.1268 17.537815741307 13.895960067536027 15.443769216791653 -1 0 0
550 2 5 0.1268 15.603030603788326 12.904421520607759 18.633990931784105 -1 0 0
431 2 5 0.053 13.841269586803003 12.50528593645406 15.418327417213987 -1 0 0
578 2 4 -0.1268 11.640610499989728 13.630398242319007 11.929678699127349 0 0 0
495 1 5 0.1268 13.068065765240206 15.97347928669863 13.074435240476422 0 -1 0
439 2 4 -0.1268 12.887705249894058 14.937771242377911 16.5385577748175 -1 0 0
107 1 11 -0.5571 17.704861761600945 16.691944911375707 18.07087582260666 0 -1 0
31 1 1 -0.106 17.75049502350513 17.11827917509966 11.012942742682586 0 -1 1
34 1 5 0.053 17.868345084597017 17.677448796017934 11.94413822960999 0 -1 1
555 2 4 0 15.505356607504945 13.173706196454425 16.499600332962057 -1 0 0
502 1 4 -0.1268 12.862783685524384 18.95960573429135 14.627014947602728 0 -1 0
35 1 5 0.053 16.628402376047767 17.210411797564706 10.989366740251414 0 -1 1
441 2 5 0.1268 13.823134968501256 15.508340341441254 16.301039087884355 -1 0 0
96 1 7 0.4241 17.224563083970082 16.09471288733732 17.468067694919625 0 0 -1
29 1 4 0 18.219421253025864 15.74312616167687 11.213475671876303 0 -1 1
553 2 4 -0.1268 16.17963189177406 13.123806430395707 17.73565843591193 -1 0 0
236 1 5 0.1268 18.200415450933875 18.943180286939835 13.569978004825387 -1 -1 0
146 1 4 0.0265 19.051359276990574 13.063754852826554 11.43063648784193 0 -1 1
435 2 4 -0.1268 11.695120692770784 13.072137727303556 17.437763599581288 -1 0 0
584 1 5 0.1268 7.534856868570152 19.364989503739686 19.245365777933117 1 0 0
241 1 10 -0.1595 16.233555162806518 3.6322865312405157 10.701092016854044 -1 0 0
46 1 5 0.053 5.3204811660936056 10.920480035918153 10.7478144797392 0 0 0
473 1 1 0.027 2.0887803799623303 2.4636239748666227 19.56508487715406 1 1 0
308 1 5 0.053 5.211265129601983 5.610255325104284 10.71977297727773 0 0 0
82 2 5 0.053 3.847372788500797 14.595174146236634 19.653038576647166 0 0 0

Velocities

447 -0.005794886327849607 0.00014866041450942874 -0.0007055210454874745
351 0.0011482363367748963 0.012844167356973687 -0.004012669332734777
344 -0.004009467061614841 0.000798896818437785 -0.0016673370482064025
347 -0.0023699129311255717 0.00545851068475028 0.0008693548155473263
341 -0.0015218079385128712 0.0057426992877454555 0.002859831429745261
165 -0.005623866174804473 -0.001289344514561152 0.0015973682780950757
162 -0.004253320730621819 0.005974360398544783 0.007766046286385517
166 -0.014532492381077426 -0.022553372291138834 -0.009591269451896194
164 0.0018372583611812015 0.020151454103276314 -0.015190672678350703
173 0.007848531180424006 -0.0004959943406268628 0.000505166842265113
171 -0.016191553832133134 0.01255594234783234 -0.014795462949181675
244 -0.00028353071474882766 -0.0018818984345869052 0.00015323377692387714
281 0.0023770408392376693 0.0005113382986971679 0.00955573003067416
527 0.004497436544382376 -0.004083757302886887 -0.0031212153904555044
531 -0.00237078884385684 0.0023361378595472956 -0.004798026051283882
227 0.0015242867137115121 0.0004186437884706668 -0.003043560891470552
167 -0.008669335447234198 -0.015460530494804442 0.022313920597115997
278 0.0005334347688862536 -0.006907877397103832 -0.005731449928906375
349 0.004060459631056636 -0.004438083054036316 -0.007773194533194586
356 0.005308314856489843 -0.00843306784145156 -0.003597370582363491
160 -0.004166485428823633 0.006712993205692514 -0.0003233617967150217
127 0.008179846989942896 0.006008100848926252 0.017445431942303496
159 -0.0015495454917712243 0.005805961637445193 -0.01090188545784922
161 0.0002787261733330445 -0.004720321289845798 0.00404277067118022
124 0.004663024580501114 -0.0011841795846054906 -0.007109480935942434
47 -0.004868820389258741 0.00026201750476233633 -0.00388635348706111
45 0.005279773806436027 0.006213767046009591 0.004257225641193587
532 0.000581875549627206 0.004513028748984282 -0.0021320264288579647
258 -0.003148871481133793 -0.008213187237764085 0.01690784630998365
247 -0.0007547309051862229 -0.00697533991487178 0.002538534235826057
246 0.0028245019376398955 -0.00885859163197865 0.019834061288582536
245 0.00562657244070581 -0.001097027770083359 0.0016457284557981232
174 0.0038301709124687567 0.0007097120618493884 -0.001585055556061742
252 0.00015174300685964916 -0.002879245121414259 -0.0006856395481142942
461 0.0007129693321002328 0.0012080030128310555 0.0036205387193129213
354 -0.0026257755957770947 0.008042484126660275 -0.005890976906595067
533 -0.0147489239250248 -0.0021909662995566303 -0.009463346549442565
508 0.00900246575217889 -0.002940807980191958 0.03277290575463568
242 -0.005148799330277112 0.0031459757108933317 0.0002894299565921842
507 0.018734236468327656 -0.016745964069788004 -0.008249077209373568
243 -0.0023484006200783685 0.0017433586365870216 -0.0028503821803204177
361 -0.001748504732704269 -0.0016684434017856732 0.012307432931738423
177 0.00017346565651903868 -0.002329748691199903 -0.005862661578756101
49 -0.0018636018543127441 -0.007598754286794071 0.0001750049975176404
528 -0.0004770709278508862 0.005956356382110561 0.0025067657570016673
42 0.005774159635265766 -0.0018608302837161842 -0.0015029667986666438
175 -0.002938528410400429 -0.006081717714252782 0.011429054423881755
116 0.007926214715587191 -0.007874593194130303 0.0017848473332236934
176 -0.0005415934914281173 -0.009570584555638856 -0.0005514997197898626
450 -0.0009825747680874445 0.015819870587336624 0.015589743832322258
357 -0.0030076934525091166 0.007698612208492898 -0.0009011039276101047
150 -0.016503709638882057 0.026802109945115175 0.015015698187969587
360 0.009926243748690446 0.023492720530296104 -0.022751298770108862
283 -0.008219014947069447 0.0008926247365662532 0.0005625775119018246
363 0.007868870845536838 -0.013710689385075824 -0.015919615062405256
280 0.0037135679139282955 -0.0005965459326200454 -0.0002465063735421518
132 0.014677066782008691 -0.028071533501199546 0.01355042336313462
462 -0.005420151127424708 -0.006843085549826416 0.01171374019669867
50 -0.011920301505178593 0.009371498447248805 -0.018014935374643423
467 0.0017765906865124892 -0.0002827609589222817 -0.0028075206979993553
56 0.0019286540921246368 0.0038194938187089255 0.005734276671340682
459 -0.007442503262618096 0.004334746295980317 0.012801921831940023
535 -0.004982510977984387 -0.011870515979435486 -0.005398832174427702
389 0.012097899070986058 -0.01874258834633449 -0.027440890508901507
470 0.006799870184795072 -0.0068238959699353455 -0.0027512074457919085
468 0.020928472224113148 -0.018953410159311117 -0.0003616648573335157
362 -0.0015466890284232997 -0.014620950035733635 0.013998175312204611
381 0.0021359921881664596 -0.003387355998511606 0.00038120997785595276
530 -0.012262838310057178 -0.021367768301449923 0.00412354097338399
257 -0.0013720772328166088 0.0011932951104125455 -0.0003342462945373052
427 -0.005045758511623049 0.014493950520880355 -0.0178397188142772
254 -0.04902165497637959 0.010808163901424136 -0.007003694842956393
169 0.003225708300744437 -0.0030054950121843277 -0.00023979274592635642
279 0.0049603146611662 0.016666893244011733 0.0022235193516811588
140 0.0011877565223896137 -0.0023043417613502555 0.0014187432320205316
44 0.009863007850009079 -0.006118164469725944 0.0022484937390670865
120 -0.008591811666964794 0.008113459381802945 -0.014459762105086715
139 0.0002269211048631906 -0.0009180431765437606 0.005681572615967974
57 0.004386907748142798 -0.0006343294796861153 0.01034294279368265
443 -0.031839124999296094 0.014897578034458 0.007272308366243818
359 0.03653527690519694 0.007159437621886674 0.009571250860181681
271 -0.014136973821266255 0.0127620546129206 0.007931263922855081
133 -0.011668924670754905 -0.0017020753006271796 -0.03170618885830351
529 -0.0005610861812737231 0.03615978169546266 -0.014841795324748929
157 -0.009002650776357942 0.007052474053432313 -0.0062439335356658625
158 0.0239821613893773 -0.012600470841278879 -0.00572644399519049
269 -0.0006665460160470446 -0.002135079374191518 -0.0009166106813508118
420 0.012410828765027831 0.0026788717568095805 0.015458129982256246
275 -0.0027241544232881544 0.026408291773785952 -0.033446824192666605
131 -0.004827560143160247 0.0009515736465876347 -0.00415574675376856
277 0.006785550898099847 -0.003171091707247891 -0.004577392981462418
115 -0.003434123320145263 -0.023900760278543 0.017187702857301864
421 -0.0006709343849579416 -0.00033108656430868503 0.0025875460094191465
432 -0.017076789128594293 -0.0013432693886801694 -0.01494676633484092
276 -0.0016375291870283683 0.005485048370562484 0.0013713276378103903
137 -0.02367322103339542 0.004376233235129129 -0.011000850301700631
291 0.001291189455620708 -0.005670196324664062 0.001972064437704582
15 -0.0029246942782741358 0.0015797951736825498 0.005522321917828844
17 -0.0029220057168616483 0.0022274566200836897 -0.004795571688313587
270 -0.03491298722952036 -0.033293958339301565 -0.01725780205941202
113 0.008011294889701998 -0.007501337253169254 -0.0007093731181840969
117 -0.017005697274608402 0.01350840470085778 0.011190177683956122
274 -0.0022225167324347035 0.007546681168171439 -0.0045813571070303805
379 0.004200181959859564 -0.0034398456508212215 -0.0005252882870911851
273 -0.006999091452694283 -0.03042149542827956 -0.0008931566370035097
12 0.0015166359399812247 0.002336467071486097 -0.002473544075749192
14 0.004525226762387041 -0.0006991427321193859 0.005775423004106723
13 0.0037034271498407262 -0.00403310016698397 -0.0029122065207821263
9 -0.0006327285744530568 0.0028002922334393393 0.0024795687202714086
125 -0.0006226065151297196 0.004168062020498392 -0.0002238480992857008
11 0.0037718059729367373 -0.00328112477298154 -0.0061658668973931146
53 0.014899824462497503 -0.015997300883256634 -0.013663905076272055
10 -0.00432379916808858 -0.012609442909538793 -0.006824573385353192
123 0.0030959641104449436 -0.008041903165492104 0.004315853602687507
430 0.002427857703773079 -0.0022081406676543783 0.012492151372153934
153 -0.01217716939058763 0.002875707715195263 0.034810258451279386
193 -0.005208981510587093 0.0031807755287499846 0.00546315477614296
378 0.015128835094947583 0.0015275274800722607 -0.012944341576472552
134 -0.002304976166280109 -0.003383361969596092 -0.00519143083385747
18 0.018730628196003147 0.011861255317256904 -0.005166695166747086
297 -0.014209309959954763 -0.03440464721093751 0.017023893455337738
294 0.005843841974115549 -0.0038124427723061367 -0.004295085220066439
249 -0.02132026253035282 0.004034205866165925 0.01300239112739778
428 0.004890874314726049 -0.02064866514823822 -0.012862692143407769
423 0.002446065169689432 -0.0035762342649193757 -0.005602073620815559
251 -0.00687668036680665 -0.001551307411298997 0.0012949332727589745
422 0.005051752834765187 -0.01698392376971086 0.025283885481297643
119 0.006686737706425697 -0.03235552142372723 -0.003159665116150363
121 0.007459355381562217 0.004524231757155954 0.003637115239627399
292 -0.016910791773097258 -0.01930087256413191 -0.030970464605462874
380 0.004478166674926978 -0.0002553276777919599 0.0010555218417068084
6 0.024780197517226918 0.0023894001684913865 -0.025038303536622376
223 -0.0006155400185662199 -0.004194749161812182 0.002974092860481469
122 0.0018966408216614637 0.006720471656139455 0.025522771260657967
8 0.0022500162975782815 -0.008053620831714042 0.006578314930116533
384 0.00013847572484459517 0.0003310451187281778 -0.0045234996755256955
355 -0.03392363025329471 0.028983705918607886 0.0022405681741282514
534 -0.008420939936626704 -0.005644118721941178 -0.0021268482090544814
219 0.0009636356166228153 0.002400383142906199 -0.008311245422357916
267 -0.0012808133168198252 0.005206594931726095 -0.0021966366895099163
224 0.00980455431341222 0.010550295084061209 0.00800231150484347
248 -0.014142868207893003 -0.009758970058007244 0.02235082190129974
222 0.015171504521030072 -0.006367210559924927 0.011455584385719975
32 0.002812242160122397 -0.0018906937776398559 -0.003126674349949954
73 0.014395287193074667 -0.0014849301656195677 0.03915253636048951
26 0.002671127632851594 0.003199624048108851 -0.0028425581192109066
387 0.012892738143045703 0.0010331142481773772 0.02174332676032162
16 -0.018224853615039074 0.01834714620050134 -0.011455684862544512
7 -0.00879543451884171 -0.018851291591621657 -0.00011810444613084877
544 -0.008396450551180244 0.003972424359106465 -0.007586103479965842
316 -0.016618911798804092 0.012262026576628421 0.01872481210076544
253 0.006867839614281347 -0.002268526583498434 0.00545207346102476
548 -0.01165333097428098 0.013223719360777769 -0.003073608539688889
74 0.006688733650938623 0.021491970751800562 -0.016196272994368432
448 -0.0033794328077638124 0.012534869281736355 0.001739440415141581
539 -0.008108605244024732 0.005935508544590923 0.013769789500916124
546 0.01934723491816804 -0.02211472255647886 -0.021060127612348028
3 -0.0006737894938866472 -0.0002888833461041933 -0.003682811094783036
383 -0.0014291321949961209 -0.003114394792701161 0.004099765175957586
512 -0.021248620378508016 -0.008185548591521959 -0.005497070291407714
399 -0.01872817133897526 0.012788255386086779 -0.009158726795075926
151 -0.005935328967688253 -0.027567736013113058 0.0062685656622738315
72 -0.0023047297270308406 0.007328400879986354 -0.007171309862895201
401 0.011325925270410174 0.007414915388130324 0.024022880481667713
332 0.008680249329810368 0.006751233068295903 -0.0046967086735214955
319 -0.0011662603035095924 0.007983816379910429 0.008222810123284956
407 -0.012025607716486137 -0.01865993844292951 -0.025601699719859143
576 0.011281382254354856 -0.008003253027380355 0.004189872024202093
345 -0.0005060361990657839 0.002508127161785443 0.00030367443438687443
545 -0.000868034248657156 -0.0005310810450359116 0.006405665634545768
340 0.00979401255457455 0.008910807832129948 0.007692682051508204
403 0.0041853516593395364 -0.0056129246187319615 0.0011005163426052273
324 -0.006434026817143239 0.017288402815951776 -0.00499776587836825
323 0.0073130891357606675 -0.0013316923552578895 0.009152308916168882
152 -0.002530459703627665 -0.00342201431598383 4.876517671254215e-05
68 -0.009146801883546656 0.0074821873710612255 0.006183136337293639
327 0.0030927480804287632 0.0030381968662057885 0.006505672604948915
322 0.0024721019369554945 0.004370162643866151 0.007000027666281338
320 -0.001669293442940409 0.002625795794804994 -0.0029488555330164897
325 -0.0031801338832363447 -0.0009584623851585234 -0.0016483010530378263
326 0.00572101529054229 0.0025089211241881523 0.00014129598659344338
321 0.003254932075194838 -0.004097186397341674 -0.0018231062446709984
510 -0.002872557955908585 -0.004755153661518003 -0.0024690298840083524
451 0.0020423207275699056 -0.0028124980541404123 -0.020944351474108364
328 -0.0039313814865394505 -0.0040758954657950505 -0.0027745882680290292
385 0.006711000736618011 0.022942007392293403 -0.0019406824278089495
569 -0.0010748810763263218 0.0004124827414132356 -0.002367242803046158
156 -0.015953897101423288 -0.0002542705032967829 0.04435639263523139
100 0.0047982438237350634 0.019921685210623628 -0.03798313601775212
66 0.01201785723334173 0.0007112315941936983 0.0019349895154627775
567 0.011261207449839748 -0.005352915636958 0.0043542562765998055
70 0.0008185182370128066 0.004280906481754058 -0.0016823780297094068
71 0.0011616944218356348 -0.0020857144825063606 0.0018854327046956825
566 0.02202923348033143 0.02285341257695867 0.020746673832366638
571 -0.00023423437065859512 -0.0012009113279804822 0.002720771661650356
64 0.00284121713507768 -0.0010437112690991092 5.3579239100887794e-05
204 -0.0032907583243301647 0.0008374949698783572 -0.0030576887005655355
203 -0.0012232951316275842 0.0004708159819556256 -0.013730438168174307
67 -0.003729121799783485 -0.00014912633502016484 -0.006610662172662062
568 -0.0037250736159396692 0.004818962829375645 0.0007184371060824572
202 -0.013933072473536137 -0.00990536569265772 -0.013499781468849175
572 0.007703158327655587 0.008514284449205043 0.01497212831606333
205 0.005668222103972209 -0.011213800375969809 0.002271193042545971
346 -0.013331889963191198 0.0076032782264697585 0.0026568144202907705
583 -0.011724585526992515 -0.0009413635963690056 -0.018982897429492992
256 -0.02588360174030522 0.007020496532212467 -0.01779811611949253
75 0.00048134479311903267 0.0028027758527969467 0.0002520662071999694
101 -0.015094862643217544 0.006322159440823845 0.03364106874784467
570 0.009896184298450201 -0.01667891633182394 0.0016241374891123588
138 0.01391771909591641 -0.002115722286784411 -0.0015508649024755584
565 -0.007666397988616593 0.0020189983084219396 0.008897646839320457
509 -0.03504902512688573 0.026359596273735148 -0.007729796580966833
69 -0.0023243741072384275 -0.0041376025546794645 0.001720847437816282
255 0.004698437423523754 -0.0012221013983129937 0.00047446691539765096
63 0.000508130950288814 -0.0029147343547836113 -0.005329185855133644
65 -0.00028866152110856456 0.0015240378861428414 0.0023309578531785654
541 -0.015849696961074675 0.035955707138448555 0.0012531714394226712
48 -0.0010722280986658484 -0.014159284665753634 0.01602203598073927
452 0.0012909735390125986 0.026050169197841123 0.005559886765477416
453 -0.002275776560264264 0.006571843965870849 0.003354350980324469
168 -0.011501200464237962 0.00277575198367722 0.00042630829208479214
20 -0.01565306597553941 0.015920474278772023 0.0044744406772371965
37 0.020413920416800076 0.0027531704781206747 -0.04043125632743368
87 0.01726218246629013 0.0004939158546980692 0.00825429948580867
1 -0.0013578360811552245 0.0032635818483617036 -0.0015146314824563479
188 0.00552728862960416 -0.004094931352029023 0.0053829119932684326
564 0.001183733734447839 0.0026375951654518197 0.000530659994949426
426 0.01792602339277991 0.0039849598164572895 0.0015838954622219245
93 -0.010396198005465313 -0.0073611080998185726 -0.0026302304733631663
99 0.013710896734505491 0.0011380482745172382 0.024366933014854153
371 0.0005477689888866365 0.00011280182843813762 -0.0006168635105541239
375 0.040679925826096884 -0.00738303799946282 0.01158254341328164
109 0.0038801953253560554 -0.0038114785519452613 -0.005254286274380133
89 -0.006686449276935446 -0.002707505126220531 0.007200015448297714
24 0.003192481935584104 -0.0022061606071294 -0.006982417149472281
97 -0.0008004460772964569 -0.008587971165527787 0.015080629034037245
573 0.0027240365027166027 0.0005612922725945442 -0.00508470569923158
575 -0.006530069768918726 -0.00569509263068949 0.005588996668193243
511 0.010563465372981256 0.019661808459540582 0.012060610779756903
83 -0.013223340871140698 -0.0028272420961004893 0.014256229773207583
374 -0.0016630511483063245 0.0007537746302617028 0.003247530055933204
95 0.0004423322245101079 0.004189226219266106 -0.0009597719757817946
373 -0.011641049754273214 -0.0057455800450738415 0.008898742574890936
4 -0.001457227785796198 -0.0031967830309674646 -0.004900802373847985
2 0.006546656817291221 0.012298009946319372 -0.007446408062183708
28 -0.007058262169334799 0.018408480570537643 0.02505774264441663
220 -0.027067862328617326 -0.010031269108206562 0.00486386912065536
148 -0.004552886997358166 -0.0016836074164597867 -0.00313294139382397
329 -0.014504276705672668 -0.0004270315150229206 -0.02235662258498422
264 0.006843518026377941 0.01195758081823495 0.013959136874513386
268 0.008065678167664857 0.012570049807529161 0.00403196738874075
91 0.015027063721537443 0.0015460922646564762 0.0036185602672193957
215 -0.018835425061525423 -0.0130103854001735 -0.002905652481443411
372 0.0005288461076970234 0.003583072023488909 -0.0006022357252006812
85 -0.0028050480740156813 -0.0010722113291948628 0.005304636080046649
111 -0.0024299726822298753 -0.0003239327676995279 -0.0006333209615144514
366 0.0034546905903380565 0.00030598582826926534 -0.02932652022048347
92 -0.0002948630126454002 -0.007632488672190369 -0.005380848221839055
94 -0.00485917827132134 0.001841326483875789 0.004509198694539077
221 0.01773443857175266 0.018096222876610852 0.02253024507490115
5 -0.011739944930974645 -0.01731831989780332 -0.009167391432228753
265 -0.028607318538287636 0.014978480840492322 0.010662506655027161
30 0.002431499327149015 -0.004175849497026325 0.0006685723798249559
218 0.0007707441206630857 -0.0015644916683427166 0.003981084343237434
259 -0.022878444244484986 0.005242538284288638 0.013037247446010777
217 -0.003434858393810771 0.008124079480942648 -0.002414353115490359
260 0.004927014445956456 -0.009629536663819273 0.01939770962737901
368 0.003993381057248992 0.0029814456066307475 -0.00459049873817043
145 0.04568081466778482 0.021470989273056202 -0.023044550561655136
376 0.00034085302401465567 -0.004747772379019063 -0.00764485347443382
33 0.001370463825696974 0.004126369877581642 0.0023222436349481803
184 0.011190763772869396 -0.013290437201447302 0.010085514538255968
155 -0.007532221236804374 -0.0011631097996380522 0.000108649674976566
266 -0.017873818918006015 -0.01787084662109981 0.010826806003767517
102 0.0008942936775346032 0.014839023855037776 0.01734429234267293
425 -0.0008913129604035833 -0.00183465881638159 0.0004553759302369868
424 0.0075609765456422316 0.007396831997481125 -3.792773597896936e-05
367 0.009308766603015849 -0.0064315529698413245 0.002482099807092283
22 0.001696850201613378 0.0008640061391907997 -0.006122881782523376
364 -0.029311009905858897 0.04623105525021535 -0.013876745162364437
38 0.003621549687879573 -0.006106375104393334 -0.0028058351447655164
263 0.0038866535999533434 0.002169786706102759 0.006587288444547017
369 -0.004058148750559089 0.0037969854192767463 0.0004580851492744213
21 0.003947976584686317 -0.013159091349488257 -0.011000130500113805
23 -0.0009740857329063042 -0.0054885688511482 0.0006476770989371244
261 -0.020811464951841028 -0.005978499350333709 -0.007398099858404256
112 -0.003543733053289212 0.00733360100941895 0.0008136207653963319
365 -0.019459239335958202 -0.04276195170722493 0.014318908740617198
262 0.0014837862085959968 0.002561951273998208 0.0008932071006590514
250 -0.0021486218746172552 0.00047340865143906706 0.0030475601025438184
103 0.011699232900369436 0.003219657090460499 0.014329525482151531
370 0.0028055099123697738 0.001517056775384425 0.0053139435103897225
216 -0.008620997254364418 -0.00045103058943439896 0.006272350815564652
110 -0.02273529863427492 -0.027660499281261377 0.010968639750526808
314 -0.02133022229239963 -0.016589458384057888 -0.004211748736138683
446 0.009016740448757016 -0.017479772262628913 0.013255803142049473
547 0.007795089595777884 0.012100623601335356 0.03208641067065151
141 0.0013760321031819351 0.01377444823575142 -7.537849539543524e-05
574 0.0256517241144974 -0.002397927858309655 0.008076292890598873
172 0.03309568533282795 -0.012254443098995262 0.01893589162042216
237 0.0003696672295440281 -0.012093512424939019 0.0011651094279473359
521 -0.0017254684727341337 -0.007219770450230297 -8.188989646766664e-05
523 0.0010625459266174453 -0.0035592268347926902 -0.0016494415830135476
186 -0.008882547055484837 -0.01134597900686772 0.001076155922157111
312 -0.004990105634379473 0.004480486053963906 -0.0016768663828507675
310 -0.003694322664602997 0.001198258603066337 0.0031842786676191726
377 0.020497560835230487 0.004435790568454195 -0.01928845107185686
306 -0.0036594363948365834 0.0022117879995357864 -0.0010550199323391763
309 -0.001050245918439089 -0.008503573590270833 0.00866294465950762
304 0.0011458742213379235 -0.006725612088199821 -0.00386730223245735
476 0.0018383301671340455 0.009093349089250205 -0.014298013942050826
182 -0.0005565385555481217 0.009007616282999386 -0.0033340785131035352
178 0.006002016985259965 0.012523423282325856 -0.006773020995610695
181 -0.003495127110489391 0.007977168798057517 0.0007730246154409134
301 0.0005628231466502377 0.0008615599543166453 0.0045698015776126635
526 -0.02331559405447142 -0.025996843913776945 0.00024197745476103928
525 -0.030822085797138087 0.004273933311051914 0.0015163585650381688
300 0.012190732079241906 -0.015082502531932466 -0.022688521512678236
51 0.01725063690578192 0.008310012980649569 -0.011931000828230068
315 0.008940240273062153 0.0008255464662202844 -0.011086417166617662
313 -0.006471198656481427 -0.0004362331164893 0.0005161913099472502
419 0.009180889681520421 -0.020007713135982805 -0.015440682201875363
519 0.0025337753077767514 0.004532095393599443 0.0011218381282278528
475 0.004005592333747389 0.0022115292981222502 -0.007680824539442048
520 -0.0009413521175158333 0.0006460432693529302 -0.006118070432738621
358 -0.002894375644733046 -0.007247522477807497 0.0011001227619190379
518 0.005228809700014632 -0.007074570231988574 -0.0024730771298825623
524 -0.008570921259443696 0.0037219405493699336 0.01715735693961782
517 -0.02865730729403334 -0.023598413729861493 -0.00019462229400204852
226 -0.00010753784830546774 -0.014490925711890607 0.018884884946912088
170 0.01781062126009079 0.005988027110158608 0.029147492897535363
189 0.012849711295472752 -0.014489253046096806 -0.009899550839039496
187 -0.00895923276850185 0.0007582905682033187 0.0018923246956511208
471 -0.005605888394062751 0.016705209493049145 -0.006259976596499508
286 -0.026588179023351435 0.0021980317851835072 -0.013248998687761165
522 0.013155479055567597 0.007899156829172775 0.002467230834622532
469 0.0024211627089729235 0.0008673411169839437 -0.0042056078811081345
183 -0.026342172760014635 -0.00015259634389901467 -0.01012300163880005
478 0.0037213595348313437 -0.002606710537796955 0.0053305463839275445
43 0.0005945687103592665 0.001890097148203326 -0.0001796101679849203
331 -0.0034975171166699882 0.001416821080622126 -0.00650078231827728
418 -0.002167890993348369 -0.002252864156226836 -0.00018929995076223124
190 0.004234777557733632 -0.0027307368636757465 -0.0077047289542910595
330 0.00995139563508266 -0.006973459555322281 -0.020490391672288298
416 -0.008738196510213814 -0.013361397502074112 0.014549050695870943
41 0.006161880660749382 -0.008042279252699321 0.0084184196343884
311 -0.0016814773012716166 0.00802454626123881 -0.0012969867870437175
516 0.0011060240375805452 0.0007399086570985795 0.001504076764452299
201 0.0006150623538435242 -0.0028266013790716224 0.001151236809204322
333 0.00710253962171553 0.011449051408053646 -0.009601871572918108
230 -0.004405086099876218 -0.00806999360347065 0.009468718813726672
382 -0.014563857076284064 0.004491040014686646 -0.00024091864724822595
513 -0.0034779626955139397 0.00813355575940964 -0.004868396672150661
272 -0.008041615064733023 0.014407867879728954 0.0029951921277011095
515 -0.010778063877366281 0.005240774500731305 -0.0046066425660829255
154 -0.03061224109540276 0.011940840845289478 0.014007169437350656
298 -0.001009558250308767 0.002160135338934335 0.0038288404205315653
285 0.001623418308371139 -0.00011143898823900803 0.0019266053914428277
350 -0.0040192417860194785 0.005062685423408065 0.0010078576596839989
192 0.008311667817070897 0.007655414865918917 0.0038691865086275157
483 -0.0029144341539226954 -0.006975897710047738 -0.013673561248612033
353 -0.0009924793985022812 0.002641605388734191 0.004916321215136736
282 -0.007895921148016896 0.0028196978446502225 -0.0021024930180702627
585 0.0020141935097649963 -0.003321470758556881 0.0023263427800680214
339 -0.01611257539786835 -0.023639071635307363 -0.01872704483999832
305 -0.006193735456991705 0.003029364919272259 0.0064120000254441955
474 0.030515308075933736 0.014789463518421052 -0.010298160251945234
229 0.010774430284811719 0.0036493599235458856 0.006216505480051749
436 0.011387960815236802 0.007681223054443869 0.0023477011541002406
225 0.016913907697561063 0.0012039892339544079 -0.002170166793770871
554 0.0014050715605386393 -0.005643344678543736 0.0018388285979062475
415 0.0007763832705372695 -0.00935343002803719 -0.0011640496343181144
343 0.0029217116827908616 0.0034580234937502175 0.0067886151735380915
144 0.0162936494207058 -0.008180727260718853 0.0015333724453782493
307 -0.02096328059535069 -0.021114680529353808 -0.01161915053173963
234 0.002547953394426467 -0.0010684006908942114 0.0028611614005366673
388 -0.0001319626799172179 0.006297727003121981 -0.0016955722015014657
289 0.00368159686303476 0.026023062384127413 -0.020708150694428325
302 0.004986406852560948 0.00010871270605308567 0.0003800160566535207
232 -0.005292320024327567 -0.0013012477874113039 -0.0007913471773139553
228 0.0014297329644331485 0.016558245181933048 -0.014163656831322617
481 -0.03526026044566557 -0.006540577934517528 -0.004569495346261823
480 -0.0013704668479600558 -0.0013658146293277105 -0.00444712298030194
233 -0.005390166374898548 -0.00571801632238169 0.0022416339058430176
185 -0.00012604635166675831 0.0008598950215417611 0.004209033800261466
136 0.003990183384953787 -0.0024228716296898394 0.00077061137127964
486 -0.004321002816794248 -0.0006185470395865525 -0.001998540915262591
303 -0.00895543535999016 0.023954967990974463 0.008114618402126067
352 -0.006305382953375251 0.0038357539589586155 -0.001430074354361217
290 0.014471313487788542 0.004554332773711178 0.002338521024881762
492 -0.0020606770184507985 -0.0019517930058284261 0.0014423414547271958
179 0.0064090250042500505 0.006401101289053977 0.0022790038814185583
180 -0.00480946293987457 -0.0031846135818647337 -0.00313963586924995
128 -0.0014331417555718748 0.0018536654835885223 -0.005101056525261956
130 0.0037819236817865603 0.0005078622042326789 0.002947741861820656
214 0.013057568853768504 0.004335696761468211 -0.011955664597041418
213 0.00370455572111232 -0.000978067300479253 0.0012378151310185079
210 0.003023369037332137 -0.0016973655882509225 -0.0014345598639991571
211 -0.009022236768520842 -0.011219637140549271 -0.006165320284372784
208 -0.0030691168632279095 0.00938719631681887 -0.0013120125141543278
414 0.0013700016207985578 -0.006246773198321877 -0.0015881269474650808
413 -0.0008417171701275869 -0.0026453276486834675 0.00469395093729564
206 -0.005055393858993096 0.010701971053974843 -0.012285305643761379
209 0.025697685425361997 -0.009532765737193506 -0.014673908668894451
412 -0.0017891743818919 -0.002253975738179132 0.004097990280019177
392 0.0044337323032822154 -0.00018424456422824385 -0.00012782955375260428
335 0.0022077608452491185 0.02004772667746991 0.03529342943115889
348 0.008940791603138385 -0.0004287888674461799 -0.0035447016437961287
284 -0.002330988571971382 0.007564625682378596 0.005914984971714701
490 -0.0012810377793008238 0.0015524275417819029 -0.004729183712759589
482 -0.003737225137029397 0.0021999966751465446 0.004478611187857944
487 0.0072615605142777855 -0.003051505092142754 -0.0007628270289680384
212 0.004485840560897959 0.003672889510389587 0.015122391061963166
411 0.0028734991726226985 0.03607830240866853 -0.02706921149223128
342 0.004512985617631299 -0.0019474119199343741 0.002290666331112439
494 0.01912351393314916 0.013219978722663625 0.01669802234645791
493 -0.017967905798220205 0.010316684909536182 0.01288416833147264
126 0.012441358073792602 -0.019749341312230485 0.005050428916317265
488 0.01851526947220118 0.016877721328845595 0.027627042428166552
485 0.0012141516858483173 -0.016412513881209786 0.009956984710105485
484 -0.006607276068615576 0.0021538022851798457 -0.0013946127733980521
466 0.0004331594303879445 -0.002776714883105814 -0.0026033097634014023
114 -0.025312151422394076 -0.013536447381617755 0.003324803128396052
479 -0.003978237133598944 0.0029031067171101112 0.001157378928792097
207 -0.023540996243812132 -0.012414870593456737 -0.002038568390230829
239 0.008518088273151215 0.009011782128635001 -0.007393196928489822
235 0.0036883083514435366 0.0015302217907338632 -0.0038854384255900677
472 0.010563527883748187 0.0014608201591906436 0.003137802042988847
129 0.003972774149614426 -0.0004950490071894924 0.0064007440075747515
334 0.005496284087100015 -0.0022051079281441965 -0.0013908871516055685
455 -0.00018392622760106435 -0.011210436593637817 0.0002673234108735032
288 0.005678567217499797 0.028521567998262443 0.000936250235614235
287 0.00866298269153521 -0.005697773917213754 0.005327885403285709
337 -0.0015032689926841568 0.002652217932766136 -0.0014490202140062327
338 0.011817830421908019 0.0006274195205551248 0.010539002476939254
238 0.006435490376846712 0.002839359024064874 -0.00642891658434124
118 -0.014176987501165568 0.008647749787094884 -0.002408114483316301
417 -0.001640866951339289 -0.0015662172064588903 -0.0009874690676302173
135 -0.009987376454757458 -0.0017426367737048008 -0.004015731224068659
231 -0.0009419683703939486 0.002332724689874716 0.0009561787542841878
477 -0.0024820261269422124 0.0025403589966120662 0.005669547357808596
40 0.0073618510746749 0.02709897691897082 -0.0038632475175215276
191 -0.001278321572488862 -0.009783580080079823 -0.007669114226116062
409 -0.0011214082890565558 0.008148900312293523 0.009031033027904346
54 -0.002388761138592209 -0.0009021620596093274 0.008346704070175572
491 0.01250739272992016 0.005828692006832979 0.013156333595409976
543 0.0011449047480707377 0.004946565954235301 -0.009600150132071572
296 -0.008354765675958881 -0.005411792704909233 -0.042964179211273455
552 0.006946820016461069 0.007093021827619295 0.0014307874133797631
58 0.007167356294361175 -0.0022588574385884984 0.003151589798707656
52 0.02590278831101451 -0.006583371242616489 -0.01862018417137639
60 -0.0007101705285412724 -0.0004548633673184595 -0.003965274502511401
317 0.0021309062865867497 -0.007188002864334512 0.005646621192735746
514 -0.013418852345457798 -0.020512783788041708 0.019827700732396508
404 0.006428522909141426 -0.0019943949630963037 0.00113079135892399
55 -0.0045021990847301996 0.003481598373254314 0.008061584570526664
59 -0.004556787716705254 0.0023416468671499436 -0.0007624388866282279
61 0.020163712514486096 -0.003177812823773676 0.005542138298085897
199 -0.0013319506826651893 0.0033515103136094646 0.002993738019085362
445 0.006996599329652366 0.0036349071624365253 0.0045842876523761395
408 0.00410652516843433 -0.009068273435031159 0.033034926572652695
400 0.006205414198585214 0.0011257567648439212 0.005230385685417512
402 -0.006250145811320399 0.0014817352112721186 -0.0059286801994579055
397 -0.0008274301847655139 0.00012612409964786047 -0.0036629978173716698
396 0.005722944234900508 0.017030582091138217 -0.014275721211118217
559 -0.0025324571345417372 -0.006371926881862742 -0.005825982446858256
540 0.0027398957293781577 0.015866928895518526 0.023906559009047822
410 -0.0008742119907234818 0.0009660905665451171 0.004269242090792436
86 0.0024446736643011827 0.004085243577692726 -0.004886836792714978
538 0.0069766149629785805 -0.023348912578195196 0.03253039594018829
405 -0.0012432248787342588 0.0028431914059117427 0.0024578802584722895
406 -0.0014121848450240953 -0.001235365048629644 0.0015977934735064297
88 0.005439276223614029 0.05928810008993596 -0.008338582360421449
79 -2.052992418336779e-05 -0.009964068922184951 -0.005598145952877311
77 -0.006649735333549115 -0.013280117897125627 0.0020475700189222083
76 0.0021073400457330537 0.024177174029583238 -0.017459071201559956
81 -0.02624011126805085 0.0030209228538253226 -0.003409859701316039
78 -0.005393080961385342 -0.005713524936783717 -0.004278606651821143
80 -0.01415404011852382 0.013936934640933749 0.005033827100622628
542 0.005225412823290837 -6.966096589076939e-05 -0.0029769238426346654
197 -0.00032391991448522223 -0.005731212683087922 0.00838777031815777
195 -0.0020961666606117745 0.000510853416468468 -0.011088258482404275
318 -0.028685060469949713 0.006288213871882276 0.015440196436646498
163 -0.006658495940287597 0.0035301764934350948 -0.002653975368779404
196 0.0009025860128827537 0.007363657686610878 0.00682857912319141
194 -0.01278945929511656 -0.014602270226144012 0.03254224249297935
464 -0.015018215577592513 -0.01673831650711202 -0.0024157043199202737
398 0.0032361776228315383 -0.001399991466927743 0.006171234077964024
200 -0.005552469530377142 0.01931239343375495 0.011283646807895491
561 0.0008780178329267953 -0.003528061901474363 0.0005719451788191544
198 -0.0013192538067696973 0.003892933498410263 0.006324550994574881
84 -0.0010025567083593882 0.004200649065664934 -0.0015912450395477655
394 0.003290692216299868 0.0007321140496819456 -0.005048644140380452
549 0.019184364250401136 0.013161500955403695 0.012455741818641453
90 -0.0019933166511973436 -0.010601365119334337 -0.013003080033490697
449 0.0029140758901454182 -0.013931236438559227 -0.014933045633784111
437 0.03576621967164149 0.013167625770579804 -0.013051538877211414
551 -0.008481857384353223 -0.001652785347896013 0.017286975409730055
147 -0.010175766777029326 -0.003525465191098122 0.037855553710031666
142 -0.010145151270740269 0.0058112049332632925 0.006853553713848858
562 -0.014336735394521242 -0.0009112666879022266 0.0016629843816107497
39 -0.0008451406687211587 -0.004799324096724408 0.004203517250177565
465 0.020704944006767534 -0.00021665673913732136 0.005525568352947603
143 -0.01121492231489483 -0.004225122686633586 -0.0024741844664247694
457 0.017832605783934072 0.008372514949289332 -0.011550018747872298
581 0.00636041436049659 0.0014321029273205675 -0.00496149704066605
444 -0.009295487638527613 0.027808938152849506 0.03032868705363065
442 0.0008767409190059505 -0.0029182184120288457 -0.008483388248205156
456 -0.003169569594962856 0.006034935709891975 -0.004611031099702138
537 0.008499682139234023 0.0010427227350032953 0.020706455743265254
438 -0.0071498957111785335 -0.003224445963768563 0.0031052274902949525
98 0.02130264860727368 -0.018804017328678497 -0.04717079405507714
440 0.0026550262191291827 0.013632408885205763 0.015094621909815384
299 0.007471639877624608 0.0014767203188086795 -0.0006103437890839376
505 0.003259832761505293 0.00784064843051797 -0.015703647820313704
463 -0.0207801596185189 0.01432808025939062 -0.014578418841041493
489 -0.01294296617448849 -0.037587184259782365 -0.0107386699497101
240 0.007923959072414902 -0.02957720489145819 -0.012810864438860332
500 -0.003856250787948993 0.00628100744799639 -0.0008904501615997715
25 -0.003542651332105284 -0.001463522667158921 0.0005165279209624858
434 0.0018240094224533585 -0.003988722306966277 -0.0027237984508270753
36 -0.032032248477952545 0.01699428764960564 0.018036177651779953
149 9.960344420501233e-05 -0.003745598251174221 -0.0045550437298420236
105 -0.005406692579893622 -0.0028688787673661425 0.003950717331964056
577 0.0040225483791027465 -0.0002700321172119239 -0.003071900752022578
579 -0.0015731907577420526 -0.025659950895259506 -0.0016725542573950965
506 0.006109752292999794 -0.0013459811125040694 -0.005691603321802296
563 0.009021472031544252 0.02204774644943957 0.007732028175529364
582 -0.00825346684083384 -0.010144292759721587 0.017921015959150417
104 -0.021627275394045034 0.010743014766306099 -0.002773010744060023
580 -0.0033729154805851027 -0.0011558324555741033 -0.00029679627007420713
27 0.024924486736458525 -0.011438763916475954 -0.02319530309688413
386 -0.0017929265374929198 0.0006685151761044285 -0.0027395154578682885
498 0.005421587310693586 -0.0022625940388623935 0.0025453301236805933
108 0.0010705304679113593 0.007419187911620306 0.00868279200406674
391 -0.028670061950644508 0.012685648302377651 0.024694778360002615
558 0.004029947105416857 -0.005670261067354572 -0.0024038187894585067
460 -0.018333127894310023 -0.0022759345080066258 0.02301879861215019
499 -0.0009053264126572512 0.0019657939489110955 0.001995292868953279
504 -0.0035100581073356308 0.005054029290072474 0.006889647232712314
429 -0.00547143933688147 -0.0045356803978093985 0.006742977392860326
556 0.007148237866075647 0.00482543295907723 -0.008291538846102639
433 -0.01123957972179923 0.026641238203011636 0.001874375686308876
62 -0.0032793070427374286 0.0147937379981725 -0.004463736316158261
496 0.003516446506680489 -0.05071716548440904 -0.03270558619117215
393 -0.004524484264758382 0.0040576062572625134 0.0011301867915980905
293 0.019574073355081302 0.004697840057455541 -0.022733209823985173
390 0.0012323251877926172 0.0004915526138990126 0.0017129311067944797
503 -0.01249930171545087 -0.00035704979120003866 -0.004950637784855991
454 -0.01400409608221481 -0.010784550953649151 0.0040970940304704785
501 -6.782968968185171e-05 -0.003964722206685665 -0.0065539776089239285
497 -0.0036276379809668767 0.01072409452615675 0.008033131771410811
19 0.026727462185649354 -0.014268245821767198 0.0011973759810704893
395 0.008816051412681193 -0.02879841887173755 -0.010687371915149839
336 0.008840837060199573 0.001054018967480115 -0.018916152384050342
557 -0.0017891298055546646 0.003243127264561157 -0.003720867585799532
106 0.00800275726434519 0.004881989668409602 -0.0011659849672146787
295 -0.0051278373455446915 1.4841204238505864e-05 0.005209156746034273
458 0.022871654057735065 -0.02270892548168547 -0.011970697708711646
536 0.015580535196213607 0.020685622028029857 0.003137676995971235
560 0.0018968489775754549 -0.002109851954273737 -0.008751094369008018
550 0.004421361390393588 -0.0028203287399434845 -0.021479640373893317
431 0.007606457120816486 -0.03722139833360332 -0.0023132884948816853
578 -0.001331504737637548 0.002307121679974184 -0.0005941587871270896
495 -0.0060514328569665765 0.016504185173034973 0.013401535443026127
439 0.005376789817673162 0.003932944880027739 0.004226996526579109
107 0.005873867130867367 0.005558091754803701 -0.0022668433639064585
31 0.0004349318196882681 -0.0008418981208534702 -9.005961639221945e-05
34 -0.005797899682736389 -0.024603578431993636 -0.014631493955129297
555 0.005219113314412166 -0.003434857009035115 0.0005084609111308781
502 0.006697776015617928 -0.003859170644221368 -0.0005070921117916277
35 0.0037598361838594068 0.027108953699078075 0.012873478855999577
441 0.017119367076706724 -0.020808492350186242 -0.018620635413182252
96 0.01980371835317194 0.011201077753877577 -0.003489161513525939
29 -0.006960250833038171 0.0010617265387994788 0.0031108101010951785
553 -0.00047252024174766565 0.0032480931512178478 0.006871095876419265
236 -0.009123878556666892 -0.02604098016311979 0.016865568401614208
146 0.009049448217849684 -0.0007366519655295873 -0.0036416733880889575
435 0.0020392844438641864 0.005605565115212191 -0.004086945033689147
584 -0.012941322199878631 0.017275387021018312 0.00894863615291386
241 0.0007648449525670957 -0.0014666191955220388 -0.005641821443232882
46 0.009439660659944272 -0.002334737222800977 0.0011310711267139496
473 0.006044805204763879 -0.003254661704594863 -0.005511381822196999
308 -0.013842508896876224 0.011511591834492572 0.01626211020960563
82 0.01626863097402688 -0.014428224251956714 -0.0073703799842938615

Bonds

1 4 447 281
2 5 447 446
3 5 447 450
4 5 447 448
5 15 351 173
6 13 344 349
7 14 344 341
8 13 347 344
9 13 347 351
10 4 165 347
11 5 165 164
12 5 165 166
13 1 162 165
14 5 162 160
15 5 162 161
16 5 162 159
17 17 171 173
18 6 244 173
19 2 244 247
20 5 244 245
21 5 244 242
22 13 281 278
23 10 531 527
24 9 531 533
25 18 227 527
26 15 278 116
27 13 349 354
28 13 356 351
29 14 124 127
30 13 47 174
31 14 47 45
32 8 532 534
33 2 532 531
34 5 532 530
35 5 532 508
36 10 247 243
37 9 247 246
38 16 174 169
39 13 174 176
40 8 252 461
41 2 252 247
42 5 252 459
43 5 252 253
44 13 354 356
45 15 354 357
46 4 361 356
47 5 361 363
48 5 361 360
49 5 361 362
50 13 177 49
51 13 177 124
52 13 49 47
53 14 49 50
54 2 528 531
55 6 528 116
56 5 528 507
57 5 528 529
58 18 175 243
59 13 176 124
60 14 176 120
61 13 283 281
62 15 283 285
63 13 280 283
64 16 462 461
65 13 462 255
66 13 462 421
67 4 56 15
68 4 56 177
69 5 56 132
70 5 56 57
71 13 470 585
72 14 470 468
73 6 257 72
74 2 257 140
75 5 257 254
76 5 257 258
77 10 140 139
78 9 140 138
79 17 359 357
80 6 269 116
81 2 269 472
82 5 269 270
83 5 269 271
84 8 131 129
85 2 131 251
86 5 131 134
87 5 131 133
88 13 277 280
89 14 277 275
90 14 421 420
91 13 276 277
92 13 276 278
93 13 15 13
94 13 17 15
95 14 17 18
96 1 113 274
97 5 113 115
98 5 113 158
99 5 113 157
100 4 274 276
101 5 274 117
102 5 274 273
103 10 379 193
104 9 379 378
105 16 12 9
106 13 12 14
107 13 12 11
108 13 14 17
109 14 14 16
110 13 13 11
111 14 13 53
112 14 11 10
113 12 123 291
114 11 123 292
115 8 430 380
116 2 430 379
117 5 430 428
118 5 430 432
119 18 153 125
120 7 294 291
121 3 294 123
122 5 294 297
123 5 294 249
124 13 423 421
125 14 423 422
126 10 251 125
127 9 251 248
128 3 121 123
129 8 121 241
130 5 121 119
131 5 121 122
132 6 223 357
133 2 223 379
134 5 223 224
135 5 223 222
136 8 8 9
137 2 8 4
138 5 8 7
139 5 8 6
140 16 384 380
141 13 384 388
142 18 355 193
143 4 219 424
144 4 219 218
145 5 219 221
146 5 219 427
147 13 267 109
148 14 32 535
149 18 73 139
150 16 26 534
151 13 26 22
152 13 26 32
153 6 544 542
154 2 544 405
155 5 544 541
156 5 544 548
157 17 74 72
158 2 3 4
159 6 3 95
160 5 3 99
161 5 3 2
162 1 383 328
163 5 383 512
164 5 383 381
165 5 383 389
166 4 319 321
167 1 319 510
168 5 319 316
169 5 319 465
170 4 345 349
171 1 345 403
172 5 345 346
173 5 345 340
174 5 545 576
175 5 545 572
176 5 545 546
177 5 403 401
178 5 403 407
179 5 403 399
180 13 323 321
181 14 323 324
182 4 152 322
183 5 152 154
184 5 152 151
185 5 152 150
186 13 68 66
187 13 68 70
188 13 322 325
189 13 320 322
190 15 320 317
191 15 325 327
192 13 326 323
193 13 326 325
194 13 321 320
195 5 510 583
196 5 510 509
197 5 510 511
198 4 328 326
199 5 328 385
200 5 328 332
201 6 569 327
202 2 569 568
203 5 569 567
204 5 569 451
205 17 156 327
206 13 66 64
207 14 66 100
208 15 70 72
209 4 71 68
210 5 71 75
211 5 71 101
212 8 571 573
213 2 571 568
214 5 571 570
215 5 571 566
216 13 64 65
217 1 204 71
218 5 204 203
219 5 204 202
220 5 204 205
221 13 67 70
222 10 568 564
223 9 568 565
224 4 69 67
225 5 69 46
226 5 69 44
227 5 69 48
228 13 255 217
229 14 255 256
230 4 63 64
231 1 63 545
232 5 63 98
233 5 63 539
234 13 65 67
235 15 65 542
236 13 453 575
237 14 453 452
238 8 168 169
239 2 168 43
240 5 168 172
241 5 168 167
242 18 37 370
243 13 188 216
244 14 188 184
245 16 371 369
246 13 371 188
247 13 109 112
248 15 109 155
249 4 89 111
250 5 89 225
251 5 89 62
252 13 24 148
253 14 24 28
254 18 97 1
255 16 575 573
256 13 575 577
257 13 374 371
258 14 374 376
259 10 4 1
260 9 4 5
261 13 148 146
262 14 148 145
263 18 329 564
264 13 268 267
265 14 268 266
266 15 91 95
267 2 372 368
268 6 372 155
269 5 372 375
270 5 372 373
271 1 85 89
272 5 85 110
273 5 85 83
274 5 85 87
275 13 111 268
276 13 111 91
277 4 92 112
278 5 92 93
279 5 92 94
280 5 92 38
281 13 30 33
282 13 218 425
283 13 218 216
284 13 217 424
285 14 217 220
286 10 368 370
287 9 368 366
288 13 33 32
289 14 33 36
290 13 425 374
291 14 425 426
292 13 424 423
293 8 367 369
294 2 367 368
295 5 367 365
296 5 367 364
297 13 22 23
298 14 22 20
299 5 263 264
300 5 263 259
301 5 263 265
302 13 23 30
303 14 23 21
304 13 112 91
305 4 262 267
306 1 262 263
307 5 262 261
308 5 262 260
309 6 250 155
310 2 250 251
311 5 250 102
312 5 250 103
313 14 216 215
314 18 547 543
315 10 521 519
316 9 521 525
317 6 523 285
318 2 523 521
319 5 523 526
320 5 523 522
321 13 186 182
322 12 312 313
323 11 312 315
324 3 310 312
325 8 310 306
326 5 310 309
327 5 310 377
328 16 304 306
329 13 304 301
330 13 304 305
331 13 182 181
332 14 182 178
333 14 181 51
334 13 301 298
335 14 301 300
336 13 475 477
337 13 475 478
338 8 520 358
339 2 520 521
340 5 520 518
341 5 520 524
342 4 187 186
343 4 187 185
344 5 187 189
345 5 187 183
346 18 286 519
347 16 469 467
348 13 469 470
349 13 469 331
350 14 478 476
351 10 43 39
352 9 43 170
353 14 331 330
354 13 418 417
355 14 418 419
356 13 190 186
357 14 190 192
358 2 41 43
359 6 41 285
360 5 41 42
361 5 41 40
362 7 311 313
363 3 311 312
364 5 311 308
365 5 311 314
366 13 516 333
367 13 201 404
368 14 201 237
369 13 333 331
370 14 333 272
371 4 515 516
372 4 515 475
373 5 515 513
374 5 515 514
375 13 298 299
376 14 298 296
377 13 350 343
378 14 350 517
379 16 353 358
380 13 353 350
381 13 353 352
382 4 282 280
383 1 282 287
384 5 282 279
385 5 282 483
386 13 585 516
387 14 585 584
388 14 305 307
389 4 229 233
390 4 229 231
391 5 229 228
392 5 229 226
393 13 436 439
394 13 554 556
395 14 554 551
396 13 415 418
397 14 415 416
398 13 343 342
399 14 343 339
400 13 234 232
401 14 234 118
402 13 388 392
403 14 388 387
404 13 302 305
405 14 302 303
406 13 232 233
407 14 232 230
408 13 480 478
409 14 480 481
410 13 233 235
411 13 185 136
412 13 185 180
413 13 136 135
414 14 136 191
415 14 352 290
416 3 492 490
417 7 492 486
418 5 492 493
419 5 492 494
420 14 180 179
421 13 128 180
422 14 128 126
423 16 130 129
424 13 130 128
425 7 210 213
426 3 210 211
427 5 210 207
428 5 210 212
429 12 211 213
430 11 211 214
431 3 208 211
432 8 208 413
433 5 208 206
434 5 208 209
435 16 414 413
436 13 414 415
437 13 414 412
438 14 412 411
439 14 392 335
440 13 348 352
441 14 348 284
442 12 490 486
443 11 490 488
444 16 482 484
445 13 482 480
446 8 487 484
447 3 487 490
448 5 487 485
449 5 487 491
450 13 342 348
451 18 114 466
452 13 479 482
453 14 479 563
454 14 239 240
455 13 235 239
456 14 235 236
457 10 472 466
458 9 472 474
459 13 334 390
460 13 334 392
461 13 455 412
462 14 455 454
463 5 287 289
464 5 287 288
465 5 287 489
466 4 337 342
467 4 337 334
468 5 337 338
469 5 337 336
470 16 238 241
471 13 238 234
472 13 238 239
473 13 417 455
474 13 135 130
475 14 135 137
476 13 231 201
477 13 231 445
478 13 477 479
479 14 477 562
480 16 58 59
481 13 58 60
482 13 58 181
483 13 60 190
484 14 60 61
485 13 404 400
486 14 404 409
487 8 55 59
488 2 55 79
489 5 55 52
490 5 55 54
491 14 445 444
492 16 400 402
493 13 400 397
494 13 397 445
495 14 397 396
496 18 540 77
497 10 86 559
498 9 86 88
499 10 405 543
500 9 405 538
501 8 406 402
502 2 406 405
503 5 406 410
504 5 406 408
505 10 79 77
506 9 79 81
507 2 78 79
508 6 78 542
509 5 78 80
510 5 78 76
511 10 197 199
512 9 197 200
513 8 195 394
514 2 195 197
515 5 195 163
516 5 195 398
517 18 318 559
518 6 196 317
519 2 196 197
520 5 196 194
521 5 196 198
522 18 464 199
523 8 561 558
524 2 561 86
525 5 561 90
526 5 561 537
527 2 84 86
528 6 84 317
529 5 84 552
530 5 84 82
531 18 449 39
532 8 142 143
533 2 142 140
534 5 142 144
535 5 142 141
536 4 581 417
537 4 581 580
538 5 581 460
539 5 581 549
540 16 442 394
541 13 442 438
542 13 442 393
543 13 456 453
544 14 456 457
545 13 438 435
546 14 438 437
547 13 299 302
548 16 500 501
549 13 500 498
550 14 25 27
551 4 434 436
552 4 434 555
553 5 434 431
554 5 434 429
555 13 149 25
556 14 149 147
557 6 105 95
558 2 105 108
559 5 105 106
560 5 105 104
561 13 577 578
562 14 577 574
563 13 580 456
564 13 580 578
565 13 386 384
566 14 386 382
567 13 498 497
568 14 498 496
569 10 108 107
570 9 108 19
571 13 499 502
572 13 499 497
573 8 504 501
574 2 504 108
575 5 504 506
576 5 504 582
577 16 556 558
578 13 556 560
579 14 393 395
580 13 390 386
581 14 390 391
582 13 503 500
583 14 503 505
584 14 497 495
585 14 557 440
586 4 295 299
587 4 295 499
588 5 295 293
589 5 295 458
590 13 560 557
591 14 560 536
592 14 578 579
593 13 439 393
594 14 439 441
595 4 31 30
596 4 31 29
597 5 31 35
598 5 31 34
599 13 555 553
600 13 555 557
601 13 502 503
602 14 502 463
603 18 96 107
604 13 29 24
605 13 29 25
606 13 553 554
607 14 553 550
608 16 146 143
609 13 146 149
610 13 435 436
611 14 435 433
612 8 473 467
613 2 473 472
614 5 473 471
615 5 473 443

Angles

1 23 281 447 446
2 23 281 447 450
3 23 281 447 448
4 29 446 447 450
5 29 446 447 448
6 29 450 447 448
7 24 347 351 356
8 26 356 351 173
9 26 347 351 173
10 24 347 344 349
11 25 347 344 341
12 25 349 344 341
13 9 165 347 344
14 9 165 347 351
15 24 344 347 351
16 1 162 165 347
17 2 162 165 164
18 2 162 165 166
19 23 347 165 164
20 29 164 165 166
21 23 347 165 166
22 2 165 162 160
23 29 160 162 161
24 29 160 162 159
25 2 165 162 161
26 29 161 162 159
27 2 165 162 159
28 11 244 173 351
29 28 351 173 171
30 12 244 173 171
31 16 247 244 173
32 30 245 244 173
33 30 242 244 173
34 15 247 244 245
35 29 245 244 242
36 15 247 244 242
37 9 447 281 283
38 24 283 281 278
39 9 447 281 278
40 18 531 527 227
41 3 528 531 532
42 5 528 531 527
43 4 528 531 533
44 4 532 531 533
45 33 533 531 527
46 5 532 531 527
47 24 276 278 281
48 26 276 278 116
49 26 281 278 116
50 9 345 349 344
51 24 344 349 354
52 9 345 349 354
53 9 361 356 354
54 24 354 356 351
55 9 361 356 351
56 24 177 124 176
57 25 177 124 127
58 25 176 124 127
59 24 49 47 174
60 25 49 47 45
61 25 174 47 45
62 17 531 532 534
63 15 531 532 530
64 15 531 532 508
65 32 530 532 534
66 29 530 532 508
67 32 508 532 534
68 3 244 247 252
69 5 244 247 243
70 4 244 247 246
71 4 252 247 246
72 33 246 247 243
73 5 252 247 243
74 27 47 174 169
75 24 47 174 176
76 27 176 174 169
77 17 247 252 461
78 15 247 252 459
79 15 247 252 253
80 32 459 252 461
81 29 459 252 253
82 32 253 252 461
83 14 252 461 462
84 24 349 354 356
85 26 356 354 357
86 26 349 354 357
87 18 247 243 175
88 23 356 361 363
89 23 356 361 360
90 23 356 361 362
91 29 363 361 360
92 29 363 361 362
93 29 360 361 362
94 9 56 177 49
95 9 56 177 124
96 24 49 177 124
97 24 177 49 47
98 25 177 49 50
99 25 47 49 50
100 16 531 528 116
101 30 507 528 116
102 30 529 528 116
103 15 531 528 507
104 29 507 528 529
105 15 531 528 529
106 11 528 116 278
107 11 269 116 278
108 10 528 116 269
109 24 174 176 124
110 25 174 176 120
111 25 124 176 120
112 11 223 357 354
113 28 354 357 359
114 12 223 357 359
115 24 280 283 281
116 26 280 283 285
117 26 281 283 285
118 9 282 280 277
119 24 277 280 283
120 9 282 280 283
121 27 255 462 461
122 27 421 462 461
123 24 255 462 421
124 14 473 467 469
125 22 15 56 177
126 23 15 56 132
127 23 15 56 57
128 23 177 56 132
129 29 132 56 57
130 23 177 56 57
131 24 469 470 585
132 25 469 470 468
133 25 585 470 468
134 16 140 257 72
135 30 254 257 72
136 30 258 257 72
137 15 140 257 254
138 29 254 257 258
139 15 140 257 258
140 14 168 169 174
141 3 257 140 142
142 5 257 140 139
143 4 257 140 138
144 4 142 140 138
145 33 138 140 139
146 5 142 140 139
147 18 140 139 73
148 16 472 269 116
149 30 270 269 116
150 30 271 269 116
151 15 472 269 270
152 29 270 269 271
153 15 472 269 271
154 17 251 131 129
155 15 251 131 134
156 15 251 131 133
157 32 134 131 129
158 29 134 131 133
159 32 133 131 129
160 24 276 277 280
161 25 276 277 275
162 25 280 277 275
163 24 462 421 423
164 25 462 421 420
165 25 423 421 420
166 9 274 276 277
167 9 274 276 278
168 24 277 276 278
169 13 294 291 123
170 9 56 15 17
171 24 17 15 13
172 9 56 15 13
173 24 14 17 15
174 25 14 17 18
175 25 15 17 18
176 2 274 113 115
177 29 115 113 158
178 29 115 113 157
179 2 274 113 158
180 29 158 113 157
181 2 274 113 157
182 1 113 274 276
183 2 113 274 117
184 2 113 274 273
185 23 276 274 117
186 29 117 274 273
187 23 276 274 273
188 3 223 379 430
189 5 223 379 193
190 4 223 379 378
191 4 430 379 378
192 33 378 379 193
193 5 430 379 193
194 27 14 12 9
195 27 11 12 9
196 24 14 12 11
197 24 12 14 17
198 25 12 14 16
199 25 17 14 16
200 24 15 13 11
201 25 15 13 53
202 25 11 13 53
203 14 8 9 12
204 18 251 125 153
205 24 12 11 13
206 25 12 11 10
207 25 13 11 10
208 6 294 123 121
209 8 294 123 291
210 7 294 123 292
211 7 121 123 292
212 34 292 123 291
213 8 121 123 291
214 17 379 430 380
215 15 379 430 428
216 15 379 430 432
217 32 428 430 380
218 29 428 430 432
219 32 432 430 380
220 18 379 193 355
221 31 297 294 291
222 19 123 294 297
223 29 297 294 249
224 31 249 294 291
225 19 123 294 249
226 20 123 294 291
227 24 424 423 421
228 25 424 423 422
229 25 421 423 422
230 3 250 251 131
231 5 250 251 125
232 4 250 251 248
233 4 131 251 248
234 33 248 251 125
235 5 131 251 125
236 21 123 121 241
237 19 123 121 119
238 19 123 121 122
239 32 119 121 241
240 29 119 121 122
241 32 122 121 241
242 14 430 380 384
243 16 379 223 357
244 30 224 223 357
245 30 222 223 357
246 15 379 223 224
247 29 224 223 222
248 15 379 223 222
249 17 4 8 9
250 15 4 8 7
251 15 4 8 6
252 32 7 8 9
253 29 7 8 6
254 32 6 8 9
255 27 386 384 380
256 24 386 384 388
257 27 388 384 380
258 14 532 534 26
259 22 424 219 218
260 23 424 219 221
261 23 424 219 427
262 23 218 219 221
263 29 221 219 427
264 23 218 219 427
265 9 262 267 268
266 24 268 267 109
267 9 262 267 109
268 24 26 32 33
269 25 26 32 535
270 25 33 32 535
271 27 22 26 534
272 27 32 26 534
273 24 22 26 32
274 16 405 544 542
275 30 541 544 542
276 30 548 544 542
277 15 405 544 541
278 29 541 544 548
279 15 405 544 548
280 16 4 3 95
281 30 99 3 95
282 30 2 3 95
283 15 4 3 99
284 29 99 3 2
285 15 4 3 2
286 2 328 383 512
287 29 512 383 381
288 29 512 383 389
289 2 328 383 381
290 29 381 383 389
291 2 328 383 389
292 11 257 72 70
293 28 70 72 74
294 12 257 72 74
295 1 510 319 321
296 23 321 319 316
297 23 321 319 465
298 2 510 319 316
299 29 316 319 465
300 2 510 319 465
301 1 403 345 349
302 23 349 345 346
303 23 349 345 340
304 2 403 345 346
305 29 346 345 340
306 2 403 345 340
307 2 63 545 576
308 2 63 545 572
309 2 63 545 546
310 29 576 545 572
311 29 576 545 546
312 29 572 545 546
313 2 345 403 401
314 2 345 403 407
315 2 345 403 399
316 29 401 403 407
317 29 401 403 399
318 29 407 403 399
319 24 326 323 321
320 25 326 323 324
321 25 321 323 324
322 23 322 152 154
323 23 322 152 151
324 23 322 152 150
325 29 154 152 151
326 29 154 152 150
327 29 151 152 150
328 9 71 68 66
329 9 71 68 70
330 24 66 68 70
331 11 569 327 325
332 28 325 327 156
333 12 569 327 156
334 9 152 322 320
335 24 320 322 325
336 9 152 322 325
337 24 321 320 322
338 26 321 320 317
339 26 322 320 317
340 24 326 325 322
341 26 326 325 327
342 26 322 325 327
343 9 328 326 323
344 9 328 326 325
345 24 323 326 325
346 9 319 321 323
347 24 323 321 320
348 9 319 321 320
349 2 319 510 583
350 2 319 510 509
351 2 319 510 511
352 29 583 510 509
353 29 583 510 511
354 29 509 510 511
355 1 383 328 326
356 2 383 328 385
357 2 383 328 332
358 23 326 328 385
359 29 385 328 332
360 23 326 328 332
361 16 568 569 327
362 30 567 569 327
363 30 451 569 327
364 15 568 569 567
365 29 567 569 451
366 15 568 569 451
367 24 68 66 64
368 25 68 66 100
369 25 64 66 100
370 24 68 70 67
371 26 68 70 72
372 26 67 70 72
373 1 204 71 68
374 2 204 71 75
375 2 204 71 101
376 23 68 71 75
377 29 75 71 101
378 23 68 71 101
379 17 568 571 573
380 15 568 571 570
381 15 568 571 566
382 32 570 571 573
383 29 570 571 566
384 32 566 571 573
385 9 63 64 66
386 24 66 64 65
387 9 63 64 65
388 2 71 204 203
389 29 203 204 202
390 29 203 204 205
391 2 71 204 202
392 29 202 204 205
393 2 71 204 205
394 9 69 67 65
395 24 65 67 70
396 9 69 67 70
397 3 569 568 571
398 5 569 568 564
399 4 569 568 565
400 4 571 568 565
401 33 565 568 564
402 5 571 568 564
403 23 67 69 46
404 23 67 69 44
405 23 67 69 48
406 29 46 69 44
407 29 46 69 48
408 29 44 69 48
409 24 462 255 217
410 25 462 255 256
411 25 217 255 256
412 1 545 63 64
413 23 64 63 98
414 23 64 63 539
415 2 545 63 98
416 29 98 63 539
417 2 545 63 539
418 24 64 65 67
419 26 64 65 542
420 26 67 65 542
421 24 456 453 575
422 25 456 453 452
423 25 575 453 452
424 17 43 168 169
425 15 43 168 172
426 15 43 168 167
427 32 172 168 169
428 29 172 168 167
429 32 167 168 169
430 18 4 1 97
431 24 371 188 216
432 25 371 188 184
433 25 216 188 184
434 18 568 564 329
435 27 374 371 369
436 24 374 371 188
437 27 188 371 369
438 24 267 109 112
439 26 112 109 155
440 26 267 109 155
441 1 85 89 111
442 2 85 89 225
443 2 85 89 62
444 23 111 89 225
445 29 225 89 62
446 23 111 89 62
447 24 29 24 148
448 25 29 24 28
449 25 148 24 28
450 14 571 573 575
451 27 453 575 573
452 24 453 575 577
453 27 577 575 573
454 24 425 374 371
455 25 425 374 376
456 25 371 374 376
457 11 3 95 91
458 11 105 95 91
459 10 3 95 105
460 3 3 4 8
461 5 3 4 1
462 4 3 4 5
463 4 8 4 5
464 33 5 4 1
465 5 8 4 1
466 24 24 148 146
467 25 24 148 145
468 25 146 148 145
469 24 111 268 267
470 25 111 268 266
471 25 267 268 266
472 24 111 91 112
473 26 111 91 95
474 26 112 91 95
475 16 368 372 155
476 30 375 372 155
477 30 373 372 155
478 15 368 372 375
479 29 375 372 373
480 15 368 372 373
481 2 89 85 110
482 29 110 85 83
483 29 110 85 87
484 2 89 85 83
485 29 83 85 87
486 2 89 85 87
487 9 89 111 268
488 9 89 111 91
489 24 268 111 91
490 23 112 92 93
491 23 112 92 94
492 23 112 92 38
493 29 93 92 94
494 29 93 92 38
495 29 94 92 38
496 9 31 30 23
497 24 23 30 33
498 9 31 30 33
499 9 219 218 425
500 9 219 218 216
501 24 425 218 216
502 24 255 217 424
503 25 255 217 220
504 25 424 217 220
505 3 372 368 367
506 5 372 368 370
507 4 372 368 366
508 4 367 368 366
509 33 366 368 370
510 5 367 368 370
511 24 30 33 32
512 25 30 33 36
513 25 32 33 36
514 11 372 155 109
515 11 250 155 109
516 10 372 155 250
517 24 218 425 374
518 25 218 425 426
519 25 374 425 426
520 9 219 424 217
521 24 217 424 423
522 9 219 424 423
523 17 368 367 369
524 15 368 367 365
525 15 368 367 364
526 32 365 367 369
527 29 365 367 364
528 32 364 367 369
529 24 26 22 23
530 25 26 22 20
531 25 23 22 20
532 2 262 263 264
533 2 262 263 259
534 2 262 263 265
535 29 264 263 259
536 29 264 263 265
537 29 259 263 265
538 14 367 369 371
539 24 22 23 30
540 25 22 23 21
541 25 30 23 21
542 9 92 112 109
543 24 109 112 91
544 9 92 112 91
545 1 263 262 267
546 23 267 262 261
547 23 267 262 260
548 2 263 262 261
549 29 261 262 260
550 2 263 262 260
551 16 251 250 155
552 30 102 250 155
553 30 103 250 155
554 15 251 250 102
555 29 102 250 103
556 15 251 250 103
557 18 368 370 37
558 24 218 216 188
559 25 218 216 215
560 25 188 216 215
561 3 523 521 520
562 5 523 521 519
563 4 523 521 525
564 4 520 521 525
565 33 525 521 519
566 5 520 521 519
567 16 521 523 285
568 30 526 523 285
569 30 522 523 285
570 15 521 523 526
571 29 526 523 522
572 15 521 523 522
573 9 187 186 190
574 24 190 186 182
575 9 187 186 182
576 6 311 312 310
577 8 311 312 313
578 7 311 312 315
579 7 310 312 315
580 34 315 312 313
581 8 310 312 313
582 21 312 310 306
583 19 312 310 309
584 19 312 310 377
585 32 309 310 306
586 29 309 310 377
587 32 377 310 306
588 14 310 306 304
589 27 301 304 306
590 27 305 304 306
591 24 301 304 305
592 24 186 182 181
593 25 186 182 178
594 25 181 182 178
595 24 58 181 182
596 25 58 181 51
597 25 182 181 51
598 24 304 301 298
599 25 304 301 300
600 25 298 301 300
601 13 311 313 312
602 18 521 519 286
603 9 515 475 477
604 9 515 475 478
605 24 477 475 478
606 17 521 520 358
607 15 521 520 518
608 15 521 520 524
609 32 518 520 358
610 29 518 520 524
611 32 524 520 358
612 14 520 358 353
613 22 186 187 185
614 23 186 187 189
615 23 186 187 183
616 23 185 187 189
617 29 189 187 183
618 23 185 187 183
619 27 470 469 467
620 27 331 469 467
621 24 470 469 331
622 24 475 478 480
623 25 475 478 476
624 25 480 478 476
625 3 41 43 168
626 5 41 43 39
627 4 41 43 170
628 4 168 43 170
629 33 170 43 39
630 5 168 43 39
631 24 469 331 333
632 25 469 331 330
633 25 333 331 330
634 24 415 418 417
635 25 415 418 419
636 25 417 418 419
637 24 60 190 186
638 25 60 190 192
639 25 186 190 192
640 16 43 41 285
641 30 42 41 285
642 30 40 41 285
643 15 43 41 42
644 29 42 41 40
645 15 43 41 40
646 31 308 311 313
647 19 312 311 308
648 29 308 311 314
649 31 314 311 313
650 19 312 311 314
651 20 312 311 313
652 9 515 516 585
653 24 585 516 333
654 9 515 516 333
655 24 231 201 404
656 25 231 201 237
657 25 404 201 237
658 24 516 333 331
659 25 516 333 272
660 25 331 333 272
661 22 516 515 475
662 23 516 515 513
663 23 516 515 514
664 23 475 515 513
665 29 513 515 514
666 23 475 515 514
667 24 301 298 299
668 25 301 298 296
669 25 299 298 296
670 11 41 285 283
671 11 523 285 283
672 10 41 285 523
673 24 353 350 343
674 25 353 350 517
675 25 343 350 517
676 27 350 353 358
677 27 352 353 358
678 24 350 353 352
679 1 287 282 280
680 23 280 282 279
681 23 280 282 483
682 2 287 282 279
683 29 279 282 483
684 2 287 282 483
685 24 470 585 516
686 25 470 585 584
687 25 516 585 584
688 24 304 305 302
689 25 304 305 307
690 25 302 305 307
691 22 233 229 231
692 23 233 229 228
693 23 233 229 226
694 23 231 229 228
695 29 228 229 226
696 23 231 229 226
697 9 434 436 435
698 24 435 436 439
699 9 434 436 439
700 24 553 554 556
701 25 553 554 551
702 25 556 554 551
703 24 414 415 418
704 25 414 415 416
705 25 418 415 416
706 24 350 343 342
707 25 350 343 339
708 25 342 343 339
709 24 238 234 232
710 25 238 234 118
711 25 232 234 118
712 24 384 388 392
713 25 384 388 387
714 25 392 388 387
715 24 299 302 305
716 25 299 302 303
717 25 305 302 303
718 24 234 232 233
719 25 234 232 230
720 25 233 232 230
721 24 482 480 478
722 25 482 480 481
723 25 478 480 481
724 9 229 233 232
725 24 232 233 235
726 9 229 233 235
727 9 187 185 136
728 9 187 185 180
729 24 136 185 180
730 24 185 136 135
731 25 185 136 191
732 25 135 136 191
733 13 492 486 490
734 24 353 352 348
735 25 353 352 290
736 25 348 352 290
737 20 490 492 486
738 19 490 492 493
739 19 490 492 494
740 31 493 492 486
741 29 493 492 494
742 31 494 492 486
743 24 185 180 128
744 25 185 180 179
745 25 128 180 179
746 24 130 128 180
747 25 130 128 126
748 25 180 128 126
749 27 135 130 129
750 24 135 130 128
751 27 128 130 129
752 13 210 213 211
753 31 207 210 213
754 19 211 210 207
755 29 207 210 212
756 31 212 210 213
757 19 211 210 212
758 20 211 210 213
759 6 210 211 208
760 8 210 211 213
761 7 210 211 214
762 7 208 211 214
763 34 214 211 213
764 8 208 211 213
765 21 211 208 413
766 19 211 208 206
767 19 211 208 209
768 32 206 208 413
769 29 206 208 209
770 32 209 208 413
771 27 415 414 413
772 27 412 414 413
773 24 415 414 412
774 14 208 413 414
775 24 414 412 455
776 25 414 412 411
777 25 455 412 411
778 24 334 392 388
779 25 334 392 335
780 25 388 392 335
781 24 342 348 352
782 25 342 348 284
783 25 352 348 284
784 6 487 490 492
785 8 487 490 486
786 7 487 490 488
787 7 492 490 488
788 34 488 490 486
789 8 492 490 486
790 27 479 482 484
791 24 479 482 480
792 27 480 482 484
793 21 490 487 484
794 32 485 487 484
795 32 491 487 484
796 19 490 487 485
797 29 485 487 491
798 19 490 487 491
799 9 337 342 343
800 24 343 342 348
801 9 337 342 348
802 14 487 484 482
803 18 472 466 114
804 24 477 479 482
805 25 477 479 563
806 25 482 479 563
807 24 238 239 235
808 25 238 239 240
809 25 235 239 240
810 24 233 235 239
811 25 233 235 236
812 25 239 235 236
813 3 269 472 473
814 5 269 472 466
815 4 269 472 474
816 4 473 472 474
817 33 474 472 466
818 5 473 472 466
819 14 131 129 130
820 9 337 334 390
821 9 337 334 392
822 24 390 334 392
823 24 417 455 412
824 25 417 455 454
825 25 412 455 454
826 2 282 287 289
827 2 282 287 288
828 2 282 287 489
829 29 289 287 288
830 29 289 287 489
831 29 288 287 489
832 22 342 337 334
833 23 342 337 338
834 23 342 337 336
835 23 334 337 338
836 29 338 337 336
837 23 334 337 336
838 27 234 238 241
839 27 239 238 241
840 24 234 238 239
841 9 581 417 418
842 24 418 417 455
843 9 581 417 455
844 24 136 135 130
845 25 136 135 137
846 25 130 135 137
847 9 229 231 201
848 9 229 231 445
849 24 201 231 445
850 24 475 477 479
851 25 475 477 562
852 25 479 477 562
853 18 405 543 547
854 27 60 58 59
855 27 181 58 59
856 24 60 58 181
857 24 58 60 190
858 25 58 60 61
859 25 190 60 61
860 11 84 317 320
861 11 196 317 320
862 10 84 317 196
863 24 201 404 400
864 25 201 404 409
865 25 400 404 409
866 17 79 55 59
867 15 79 55 52
868 15 79 55 54
869 32 52 55 59
870 29 52 55 54
871 32 54 55 59
872 14 55 59 58
873 18 197 199 464
874 24 231 445 397
875 25 231 445 444
876 25 397 445 444
877 27 404 400 402
878 24 404 400 397
879 27 397 400 402
880 14 406 402 400
881 24 400 397 445
882 25 400 397 396
883 25 445 397 396
884 18 86 559 318
885 3 84 86 561
886 5 84 86 559
887 4 84 86 88
888 4 561 86 88
889 33 88 86 559
890 5 561 86 559
891 3 544 405 406
892 5 544 405 543
893 4 544 405 538
894 4 406 405 538
895 33 538 405 543
896 5 406 405 543
897 17 405 406 402
898 15 405 406 410
899 15 405 406 408
900 32 410 406 402
901 29 410 406 408
902 32 408 406 402
903 3 78 79 55
904 5 78 79 77
905 4 78 79 81
906 4 55 79 81
907 33 81 79 77
908 5 55 79 77
909 18 79 77 540
910 16 79 78 542
911 30 80 78 542
912 30 76 78 542
913 15 79 78 80
914 29 80 78 76
915 15 79 78 76
916 11 78 542 65
917 11 544 542 65
918 10 78 542 544
919 3 196 197 195
920 5 196 197 199
921 4 196 197 200
922 4 195 197 200
923 33 200 197 199
924 5 195 197 199
925 17 197 195 394
926 15 197 195 163
927 15 197 195 398
928 32 163 195 394
929 29 163 195 398
930 32 398 195 394
931 16 197 196 317
932 30 194 196 317
933 30 198 196 317
934 15 197 196 194
935 29 194 196 198
936 15 197 196 198
937 17 86 561 558
938 15 86 561 90
939 15 86 561 537
940 32 90 561 558
941 29 90 561 537
942 32 537 561 558
943 16 86 84 317
944 30 552 84 317
945 30 82 84 317
946 15 86 84 552
947 29 552 84 82
948 15 86 84 82
949 14 195 394 442
950 17 140 142 143
951 15 140 142 144
952 15 140 142 141
953 32 144 142 143
954 29 144 142 141
955 32 141 142 143
956 18 43 39 449
957 14 142 143 146
958 22 417 581 580
959 23 417 581 460
960 23 417 581 549
961 23 580 581 460
962 29 460 581 549
963 23 580 581 549
964 27 438 442 394
965 27 393 442 394
966 24 438 442 393
967 24 580 456 453
968 25 580 456 457
969 25 453 456 457
970 24 442 438 435
971 25 442 438 437
972 25 435 438 437
973 9 295 299 298
974 24 298 299 302
975 9 295 299 302
976 27 503 500 501
977 24 503 500 498
978 27 498 500 501
979 24 29 25 149
980 25 29 25 27
981 25 149 25 27
982 22 436 434 555
983 23 436 434 431
984 23 436 434 429
985 23 555 434 431
986 29 431 434 429
987 23 555 434 429
988 24 146 149 25
989 25 146 149 147
990 25 25 149 147
991 16 108 105 95
992 30 106 105 95
993 30 104 105 95
994 15 108 105 106
995 29 106 105 104
996 15 108 105 104
997 24 575 577 578
998 25 575 577 574
999 25 578 577 574
1000 9 581 580 456
1001 9 581 580 578
1002 24 456 580 578
1003 24 390 386 384
1004 25 390 386 382
1005 25 384 386 382
1006 24 500 498 497
1007 25 500 498 496
1008 25 497 498 496
1009 3 105 108 504
1010 5 105 108 107
1011 4 105 108 19
1012 4 504 108 19
1013 33 19 108 107
1014 5 504 108 107
1015 14 561 558 556
1016 9 295 499 502
1017 9 295 499 497
1018 24 502 499 497
1019 17 108 504 501
1020 15 108 504 506
1021 15 108 504 582
1022 32 506 504 501
1023 29 506 504 582
1024 32 582 504 501
1025 27 554 556 558
1026 24 554 556 560
1027 27 560 556 558
1028 24 442 393 439
1029 25 442 393 395
1030 25 439 393 395
1031 24 334 390 386
1032 25 334 390 391
1033 25 386 390 391
1034 24 502 503 500
1035 25 502 503 505
1036 25 500 503 505
1037 14 504 501 500
1038 24 499 497 498
1039 25 499 497 495
1040 25 498 497 495
1041 24 555 557 560
1042 25 555 557 440
1043 25 560 557 440
1044 22 299 295 499
1045 23 299 295 293
1046 23 299 295 458
1047 23 499 295 293
1048 29 293 295 458
1049 23 499 295 458
1050 24 556 560 557
1051 25 556 560 536
1052 25 557 560 536
1053 24 580 578 577
1054 25 580 578 579
1055 25 577 578 579
1056 24 436 439 393
1057 25 436 439 441
1058 25 393 439 441
1059 18 108 107 96
1060 22 30 31 29
1061 23 30 31 35
1062 23 30 31 34
1063 23 29 31 35
1064 29 35 31 34
1065 23 29 31 34
1066 9 434 555 553
1067 9 434 555 557
1068 24 553 555 557
1069 24 499 502 503
1070 25 499 502 463
1071 25 503 502 463
1072 9 31 29 24
1073 9 31 29 25
1074 24 24 29 25
1075 24 555 553 554
1076 25 555 553 550
1077 25 554 553 550
1078 27 148 146 143
1079 24 148 146 149
1080 27 149 146 143
1081 24 438 435 436
1082 25 438 435 433
1083 25 436 435 433
1084 14 121 241 238
1085 17 472 473 467
1086 15 472 473 471
1087 15 472 473 443
1088 32 471 473 467
1089 29 471 473 443
1090 32 443 473 467

Dihedrals

1 26 347 351 356 354
2 30 356 351 173 171
3 30 347 351 173 171
4 26 347 344 349 354
5 26 349 344 347 351
6 10 165 347 344 349
7 11 165 347 344 341
8 10 165 347 351 356
9 25 344 347 165 164
10 25 351 347 165 164
11 25 344 347 165 166
12 25 351 347 165 166
13 26 344 347 351 356
14 27 351 347 344 341
15 12 165 347 351 173
16 28 344 347 351 173
17 1 162 165 347 344
18 1 162 165 347 351
19 23 347 165 162 160
20 23 347 165 162 161
21 23 347 165 162 159
22 33 160 162 165 164
23 33 160 162 165 166
24 33 161 162 165 164
25 33 161 162 165 166
26 33 159 162 165 164
27 33 159 162 165 166
28 15 244 173 351 356
29 31 351 173 244 245
30 31 351 173 244 242
31 15 244 173 351 347
32 18 247 244 173 351
33 46 173 244 247 243
34 19 247 244 173 171
35 38 245 244 173 171
36 38 242 244 173 171
37 35 245 244 247 243
38 34 245 244 247 246
39 35 242 244 247 243
40 34 242 244 247 246
41 10 447 281 278 276
42 10 447 281 283 280
43 25 283 281 447 446
44 25 283 281 447 450
45 25 283 281 447 448
46 25 278 281 447 446
47 25 278 281 447 450
48 25 278 281 447 448
49 12 447 281 278 116
50 28 283 281 278 116
51 12 447 281 283 285
52 28 278 281 283 285
53 4 528 531 532 534
54 2 528 531 532 530
55 2 528 531 532 508
56 40 533 531 532 534
57 3 532 531 528 116
58 39 533 531 528 116
59 5 532 531 527 227
60 41 533 531 527 227
61 2 532 531 528 529
62 5 528 531 527 227
63 2 532 531 528 507
64 26 276 278 281 283
65 10 345 349 344 347
66 25 344 349 345 346
67 25 344 349 345 340
68 26 344 349 354 356
69 11 345 349 344 341
70 27 354 349 344 341
71 25 354 349 345 346
72 25 354 349 345 340
73 10 345 349 354 356
74 12 345 349 354 357
75 28 344 349 354 357
76 10 361 356 351 347
77 10 361 356 354 349
78 25 354 356 361 363
79 25 354 356 361 360
80 25 354 356 361 362
81 25 351 356 361 363
82 25 351 356 361 360
83 25 351 356 361 362
84 12 361 356 351 173
85 28 354 356 351 173
86 12 361 356 354 357
87 28 351 356 354 357
88 26 177 124 176 174
89 27 177 124 176 120
90 29 49 47 174 169
91 26 49 47 174 176
92 27 174 47 49 50
93 45 45 47 174 169
94 20 531 532 534 26
95 34 530 532 531 533
96 34 508 532 531 533
97 48 534 532 531 527
98 35 530 532 531 527
99 35 508 532 531 527
100 3 252 247 244 173
101 39 246 247 244 173
102 4 244 247 252 461
103 2 244 247 252 459
104 2 244 247 252 253
105 5 244 247 243 175
106 2 252 247 244 245
107 2 252 247 244 242
108 40 246 247 252 461
109 41 246 247 243 175
110 5 252 247 243 175
111 26 47 174 176 124
112 27 47 174 176 120
113 27 176 174 47 45
114 20 247 252 461 462
115 34 459 252 247 246
116 34 253 252 247 246
117 48 461 252 247 243
118 35 459 252 247 243
119 35 253 252 247 243
120 17 252 461 462 255
121 17 252 461 462 421
122 32 462 461 252 253
123 32 462 461 252 459
124 26 349 354 356 351
125 30 356 354 357 359
126 30 349 354 357 359
127 10 56 177 49 47
128 11 56 177 49 50
129 10 56 177 124 176
130 11 56 177 124 127
131 25 49 177 56 132
132 25 124 177 56 132
133 25 49 177 56 57
134 25 124 177 56 57
135 26 49 177 124 176
136 27 49 177 124 127
137 27 124 177 49 50
138 26 177 49 47 174
139 27 177 49 47 45
140 44 50 49 47 45
141 26 47 49 177 124
142 18 531 528 116 278
143 46 116 528 531 527
144 35 507 528 531 527
145 34 507 528 531 533
146 35 529 528 531 527
147 34 529 528 531 533
148 15 528 116 278 276
149 15 269 116 278 276
150 15 528 116 278 281
151 15 269 116 278 281
152 31 278 116 528 507
153 31 278 116 528 529
154 31 278 116 269 270
155 31 278 116 269 271
156 13 528 116 269 472
157 14 528 116 269 270
158 14 528 116 269 271
159 14 269 116 528 507
160 14 269 116 528 529
161 13 269 116 528 531
162 27 174 176 124 127
163 45 120 176 174 169
164 44 120 176 124 127
165 29 124 176 174 169
166 15 223 357 354 356
167 31 354 357 223 224
168 31 354 357 223 222
169 15 223 357 354 349
170 26 280 283 281 278
171 10 282 280 277 276
172 25 277 280 282 279
173 25 277 280 282 483
174 26 277 280 283 281
175 11 282 280 277 275
176 27 283 280 277 275
177 25 283 280 282 279
178 25 283 280 282 483
179 10 282 280 283 281
180 28 277 280 283 285
181 12 282 280 283 285
182 26 255 462 421 423
183 27 255 462 421 420
184 27 421 462 255 256
185 17 473 467 469 470
186 17 473 467 469 331
187 32 469 467 473 443
188 32 469 467 473 471
189 24 177 56 15 17
190 24 15 56 177 49
191 24 15 56 177 124
192 24 177 56 15 13
193 29 585 470 469 467
194 45 468 470 469 467
195 26 469 470 585 516
196 27 469 470 585 584
197 44 468 470 585 584
198 26 585 470 469 331
199 18 140 257 72 70
200 46 72 257 140 139
201 19 140 257 72 74
202 38 254 257 72 74
203 38 258 257 72 74
204 35 254 257 140 139
205 34 254 257 140 138
206 35 258 257 140 139
207 34 258 257 140 138
208 17 168 169 174 47
209 17 168 169 174 176
210 32 174 169 168 167
211 32 174 169 168 172
212 3 142 140 257 72
213 39 138 140 257 72
214 4 257 140 142 143
215 2 257 140 142 144
216 2 257 140 142 141
217 5 257 140 139 73
218 2 142 140 257 254
219 2 142 140 257 258
220 40 138 140 142 143
221 41 138 140 139 73
222 5 142 140 139 73
223 18 472 269 116 278
224 46 116 269 472 466
225 35 270 269 472 466
226 34 270 269 472 474
227 35 271 269 472 466
228 34 271 269 472 474
229 20 251 131 129 130
230 34 134 131 251 248
231 34 133 131 251 248
232 48 129 131 251 125
233 35 134 131 251 125
234 35 133 131 251 125
235 26 276 277 280 283
236 26 280 277 276 278
237 29 423 421 462 461
238 45 420 421 462 461
239 26 462 421 423 424
240 27 462 421 423 422
241 10 274 276 277 280
242 11 274 276 277 275
243 10 274 276 278 281
244 25 277 276 274 117
245 25 278 276 274 117
246 25 277 276 274 273
247 25 278 276 274 273
248 26 277 276 278 281
249 27 278 276 277 275
250 28 277 276 278 116
251 12 274 276 278 116
252 16 294 291 123 292
253 22 123 291 294 297
254 22 123 291 294 249
255 10 56 15 17 14
256 25 17 15 56 132
257 25 17 15 56 57
258 26 17 15 13 11
259 27 17 15 13 53
260 11 56 15 17 18
261 27 13 15 17 18
262 25 13 15 56 132
263 25 13 15 56 57
264 11 56 15 13 53
265 10 56 15 13 11
266 26 14 17 15 13
267 27 15 17 14 16
268 33 115 113 274 117
269 33 115 113 274 273
270 33 158 113 274 117
271 33 158 113 274 273
272 33 157 113 274 117
273 33 157 113 274 273
274 1 113 274 276 277
275 1 113 274 276 278
276 23 276 274 113 115
277 23 276 274 113 158
278 23 276 274 113 157
279 3 430 379 223 357
280 39 378 379 223 357
281 4 223 379 430 380
282 2 223 379 430 428
283 2 223 379 430 432
284 5 223 379 193 355
285 2 430 379 223 224
286 2 430 379 223 222
287 40 378 379 430 380
288 41 378 379 193 355
289 5 430 379 193 355
290 26 14 12 11 13
291 27 14 12 11 10
292 27 11 12 14 16
293 29 17 14 12 9
294 45 16 14 12 9
295 26 12 14 17 15
296 27 12 14 17 18
297 44 16 14 17 18
298 26 17 14 12 11
299 27 15 13 11 10
300 44 53 13 11 10
301 17 8 9 12 14
302 17 8 9 12 11
303 32 12 9 8 6
304 32 12 9 8 7
305 29 13 11 12 9
306 45 10 11 12 9
307 26 12 11 13 15
308 27 12 11 13 53
309 9 121 123 291 294
310 8 294 123 121 241
311 6 294 123 121 119
312 6 294 123 121 122
313 6 121 123 294 297
314 6 121 123 294 249
315 42 292 123 294 291
316 43 292 123 121 241
317 47 291 123 121 241
318 7 121 123 294 291
319 20 379 430 380 384
320 34 428 430 379 378
321 34 432 430 379 378
322 48 380 430 379 193
323 35 428 430 379 193
324 35 432 430 379 193
325 37 297 294 123 291
326 36 297 294 123 292
327 37 249 294 123 291
328 36 249 294 123 292
329 27 424 423 421 420
330 44 422 423 421 420
331 3 131 251 250 155
332 39 248 251 250 155
333 4 250 251 131 129
334 2 250 251 131 134
335 2 250 251 131 133
336 5 250 251 125 153
337 2 131 251 250 102
338 2 131 251 250 103
339 40 248 251 131 129
340 41 248 251 125 153
341 5 131 251 125 153
342 21 123 121 241 238
343 36 119 121 123 292
344 36 122 121 123 292
345 37 119 121 123 291
346 37 122 121 123 291
347 17 430 380 384 386
348 17 430 380 384 388
349 32 384 380 430 432
350 32 384 380 430 428
351 18 379 223 357 354
352 46 357 223 379 193
353 19 379 223 357 359
354 38 224 223 357 359
355 38 222 223 357 359
356 35 224 223 379 193
357 34 224 223 379 378
358 35 222 223 379 193
359 34 222 223 379 378
360 20 4 8 9 12
361 34 7 8 4 5
362 34 6 8 4 5
363 48 9 8 4 1
364 35 7 8 4 1
365 35 6 8 4 1
366 26 386 384 388 392
367 27 386 384 388 387
368 27 388 384 386 382
369 17 532 534 26 22
370 17 532 534 26 32
371 32 26 534 532 508
372 32 26 534 532 530
373 24 218 219 424 217
374 24 424 219 218 425
375 24 424 219 218 216
376 24 218 219 424 423
377 10 262 267 268 111
378 25 268 267 262 261
379 25 268 267 262 260
380 26 268 267 109 112
381 11 262 267 268 266
382 27 109 267 268 266
383 25 109 267 262 261
384 25 109 267 262 260
385 10 262 267 109 112
386 12 262 267 109 155
387 28 268 267 109 155
388 29 33 32 26 534
389 45 535 32 26 534
390 26 26 32 33 30
391 27 26 32 33 36
392 26 22 26 32 33
393 27 22 26 32 535
394 27 32 26 22 20
395 18 405 544 542 65
396 46 542 544 405 543
397 35 541 544 405 543
398 34 541 544 405 538
399 35 548 544 405 543
400 34 548 544 405 538
401 18 4 3 95 91
402 46 95 3 4 1
403 35 99 3 4 1
404 34 99 3 4 5
405 35 2 3 4 1
406 34 2 3 4 5
407 33 512 383 328 385
408 33 512 383 328 332
409 33 381 383 328 385
410 33 381 383 328 332
411 33 389 383 328 385
412 33 389 383 328 332
413 15 257 72 70 68
414 31 70 72 257 254
415 31 70 72 257 258
416 15 257 72 70 67
417 1 510 319 321 323
418 23 321 319 510 583
419 23 321 319 510 509
420 23 321 319 510 511
421 1 510 319 321 320
422 33 316 319 510 583
423 33 316 319 510 509
424 33 316 319 510 511
425 33 465 319 510 583
426 33 465 319 510 509
427 33 465 319 510 511
428 1 403 345 349 344
429 23 349 345 403 401
430 23 349 345 403 407
431 23 349 345 403 399
432 1 403 345 349 354
433 33 346 345 403 401
434 33 346 345 403 407
435 33 346 345 403 399
436 33 340 345 403 401
437 33 340 345 403 407
438 33 340 345 403 399
439 26 326 323 321 320
440 26 321 323 326 325
441 10 71 68 66 64
442 11 71 68 66 100
443 10 71 68 70 67
444 25 66 68 71 75
445 25 70 68 71 75
446 25 66 68 71 101
447 25 70 68 71 101
448 26 66 68 70 67
449 27 70 68 66 100
450 12 71 68 70 72
451 28 66 68 70 72
452 15 569 327 325 326
453 31 325 327 569 567
454 31 325 327 569 451
455 15 569 327 325 322
456 10 152 322 325 326
457 10 152 322 320 321
458 25 320 322 152 154
459 25 320 322 152 151
460 25 320 322 152 150
461 25 325 322 152 154
462 25 325 322 152 151
463 25 325 322 152 150
464 12 152 322 325 327
465 28 320 322 325 327
466 12 152 322 320 317
467 28 325 322 320 317
468 26 321 320 322 325
469 26 326 325 322 320
470 30 326 325 327 156
471 30 322 325 327 156
472 10 328 326 323 321
473 11 328 326 323 324
474 10 328 326 325 322
475 25 323 326 328 385
476 25 325 326 328 385
477 25 323 326 328 332
478 25 325 326 328 332
479 26 323 326 325 322
480 27 325 326 323 324
481 12 328 326 325 327
482 28 323 326 325 327
483 10 319 321 323 326
484 25 323 321 319 316
485 25 323 321 319 465
486 26 323 321 320 322
487 11 319 321 323 324
488 27 320 321 323 324
489 25 320 321 319 316
490 25 320 321 319 465
491 10 319 321 320 322
492 28 323 321 320 317
493 12 319 321 320 317
494 1 383 328 326 323
495 1 383 328 326 325
496 23 326 328 383 512
497 23 326 328 383 381
498 23 326 328 383 389
499 18 568 569 327 325
500 46 327 569 568 564
501 19 568 569 327 156
502 38 567 569 327 156
503 38 451 569 327 156
504 35 567 569 568 564
505 34 567 569 568 565
506 35 451 569 568 564
507 34 451 569 568 565
508 26 68 66 64 65
509 26 64 66 68 70
510 26 68 70 67 65
511 30 68 70 72 74
512 30 67 70 72 74
513 1 204 71 68 66
514 1 204 71 68 70
515 23 68 71 204 203
516 23 68 71 204 202
517 23 68 71 204 205
518 20 568 571 573 575
519 34 570 571 568 565
520 34 566 571 568 565
521 48 573 571 568 564
522 35 570 571 568 564
523 35 566 571 568 564
524 10 63 64 66 68
525 25 66 64 63 98
526 25 66 64 63 539
527 26 66 64 65 67
528 11 63 64 66 100
529 27 65 64 66 100
530 25 65 64 63 98
531 25 65 64 63 539
532 10 63 64 65 67
533 28 66 64 65 542
534 12 63 64 65 542
535 33 203 204 71 75
536 33 203 204 71 101
537 33 202 204 71 75
538 33 202 204 71 101
539 33 205 204 71 75
540 33 205 204 71 101
541 10 69 67 70 68
542 10 69 67 65 64
543 25 65 67 69 46
544 25 65 67 69 44
545 25 65 67 69 48
546 25 70 67 69 46
547 25 70 67 69 44
548 25 70 67 69 48
549 12 69 67 70 72
550 28 65 67 70 72
551 12 69 67 65 542
552 28 70 67 65 542
553 3 571 568 569 327
554 39 565 568 569 327
555 4 569 568 571 573
556 2 569 568 571 570
557 2 569 568 571 566
558 5 569 568 564 329
559 2 571 568 569 567
560 2 571 568 569 451
561 40 565 568 571 573
562 41 565 568 564 329
563 5 571 568 564 329
564 29 217 255 462 461
565 45 256 255 462 461
566 26 462 255 217 424
567 27 462 255 217 220
568 44 256 255 217 220
569 26 217 255 462 421
570 1 545 63 64 66
571 23 64 63 545 576
572 23 64 63 545 572
573 23 64 63 545 546
574 1 545 63 64 65
575 33 98 63 545 576
576 33 98 63 545 572
577 33 98 63 545 546
578 33 539 63 545 576
579 33 539 63 545 572
580 33 539 63 545 546
581 26 64 65 67 70
582 29 456 453 575 573
583 26 456 453 575 577
584 27 575 453 456 457
585 45 452 453 575 573
586 20 43 168 169 174
587 34 172 168 43 170
588 34 167 168 43 170
589 48 169 168 43 39
590 35 172 168 43 39
591 35 167 168 43 39
592 27 371 188 216 215
593 45 184 188 371 369
594 44 184 188 216 215
595 29 216 188 371 369
596 26 374 371 188 216
597 27 374 371 188 184
598 27 188 371 374 376
599 26 267 109 112 91
600 1 85 89 111 268
601 1 85 89 111 91
602 23 111 89 85 110
603 23 111 89 85 83
604 23 111 89 85 87
605 26 29 24 148 146
606 27 29 24 148 145
607 44 28 24 148 145
608 26 148 24 29 25
609 17 571 573 575 453
610 17 571 573 575 577
611 32 575 573 571 566
612 32 575 573 571 570
613 26 453 575 577 578
614 27 453 575 577 574
615 27 577 575 453 452
616 29 425 374 371 369
617 26 425 374 371 188
618 27 371 374 425 426
619 45 376 374 371 369
620 15 3 95 91 111
621 15 105 95 91 111
622 15 3 95 91 112
623 15 105 95 91 112
624 31 91 95 3 99
625 31 91 95 3 2
626 31 91 95 105 106
627 31 91 95 105 104
628 13 3 95 105 108
629 14 3 95 105 106
630 14 3 95 105 104
631 14 105 95 3 99
632 14 105 95 3 2
633 13 105 95 3 4
634 4 3 4 8 9
635 2 3 4 8 7
636 2 3 4 8 6
637 40 5 4 8 9
638 3 8 4 3 95
639 39 5 4 3 95
640 5 8 4 1 97
641 41 5 4 1 97
642 2 8 4 3 2
643 5 3 4 1 97
644 2 8 4 3 99
645 29 24 148 146 143
646 26 24 148 146 149
647 27 146 148 24 28
648 45 145 148 146 143
649 26 111 268 267 109
650 26 267 268 111 91
651 26 111 91 112 109
652 18 368 372 155 109
653 46 155 372 368 370
654 35 375 372 368 370
655 34 375 372 368 366
656 35 373 372 368 370
657 34 373 372 368 366
658 33 110 85 89 225
659 33 110 85 89 62
660 33 83 85 89 225
661 33 83 85 89 62
662 33 87 85 89 225
663 33 87 85 89 62
664 10 89 111 268 267
665 11 89 111 268 266
666 10 89 111 91 112
667 25 268 111 89 225
668 25 91 111 89 225
669 25 268 111 89 62
670 25 91 111 89 62
671 26 268 111 91 112
672 27 91 111 268 266
673 28 268 111 91 95
674 12 89 111 91 95
675 10 31 30 23 22
676 25 23 30 31 35
677 25 23 30 31 34
678 26 23 30 33 32
679 27 23 30 33 36
680 11 31 30 23 21
681 27 33 30 23 21
682 25 33 30 31 35
683 25 33 30 31 34
684 11 31 30 33 36
685 10 31 30 33 32
686 10 219 218 425 374
687 11 219 218 425 426
688 10 219 218 216 188
689 11 219 218 216 215
690 25 425 218 219 221
691 25 216 218 219 221
692 25 425 218 219 427
693 25 216 218 219 427
694 26 425 218 216 188
695 27 425 218 216 215
696 27 216 218 425 426
697 26 255 217 424 423
698 27 424 217 255 256
699 4 372 368 367 369
700 2 372 368 367 365
701 2 372 368 367 364
702 40 366 368 367 369
703 3 367 368 372 155
704 39 366 368 372 155
705 5 367 368 370 37
706 41 366 368 370 37
707 2 367 368 372 373
708 5 372 368 370 37
709 2 367 368 372 375
710 27 30 33 32 535
711 44 36 33 32 535
712 15 372 155 109 112
713 15 250 155 109 112
714 15 372 155 109 267
715 15 250 155 109 267
716 31 109 155 372 375
717 31 109 155 372 373
718 31 109 155 250 102
719 31 109 155 250 103
720 13 372 155 250 251
721 14 372 155 250 102
722 14 372 155 250 103
723 14 250 155 372 375
724 14 250 155 372 373
725 13 250 155 372 368
726 26 218 425 374 371
727 27 218 425 374 376
728 44 426 425 374 376
729 26 374 425 218 216
730 10 219 424 217 255
731 25 217 424 219 221
732 25 217 424 219 427
733 26 217 424 423 421
734 27 217 424 423 422
735 11 219 424 217 220
736 27 423 424 217 220
737 25 423 424 219 221
738 25 423 424 219 427
739 11 219 424 423 422
740 10 219 424 423 421
741 20 368 367 369 371
742 34 365 367 368 366
743 34 364 367 368 366
744 48 369 367 368 370
745 35 365 367 368 370
746 35 364 367 368 370
747 29 23 22 26 534
748 45 20 22 26 534
749 26 26 22 23 30
750 27 26 22 23 21
751 44 20 22 23 21
752 26 23 22 26 32
753 17 367 369 371 374
754 17 367 369 371 188
755 32 371 369 367 364
756 32 371 369 367 365
757 26 22 23 30 33
758 27 30 23 22 20
759 10 92 112 91 111
760 10 92 112 109 267
761 25 109 112 92 93
762 25 109 112 92 94
763 25 109 112 92 38
764 25 91 112 92 93
765 25 91 112 92 94
766 25 91 112 92 38
767 12 92 112 91 95
768 28 109 112 91 95
769 28 91 112 109 155
770 12 92 112 109 155
771 1 263 262 267 268
772 23 267 262 263 264
773 23 267 262 263 259
774 23 267 262 263 265
775 1 263 262 267 109
776 33 261 262 263 264
777 33 261 262 263 259
778 33 261 262 263 265
779 33 260 262 263 264
780 33 260 262 263 259
781 33 260 262 263 265
782 18 251 250 155 109
783 46 155 250 251 125
784 35 102 250 251 125
785 34 102 250 251 248
786 35 103 250 251 125
787 34 103 250 251 248
788 26 218 216 188 371
789 27 218 216 188 184
790 3 520 521 523 285
791 39 525 521 523 285
792 4 523 521 520 358
793 2 523 521 520 518
794 2 523 521 520 524
795 5 523 521 519 286
796 2 520 521 523 526
797 2 520 521 523 522
798 40 525 521 520 358
799 41 525 521 519 286
800 5 520 521 519 286
801 18 521 523 285 283
802 46 285 523 521 519
803 35 526 523 521 519
804 34 526 523 521 525
805 35 522 523 521 519
806 34 522 523 521 525
807 10 187 186 190 60
808 25 190 186 187 189
809 25 190 186 187 183
810 26 190 186 182 181
811 27 190 186 182 178
812 11 187 186 190 192
813 27 182 186 190 192
814 25 182 186 187 189
815 25 182 186 187 183
816 11 187 186 182 178
817 10 187 186 182 181
818 9 310 312 313 311
819 8 311 312 310 306
820 6 311 312 310 309
821 6 311 312 310 377
822 6 310 312 311 308
823 6 310 312 311 314
824 42 315 312 311 313
825 43 315 312 310 306
826 47 313 312 310 306
827 7 310 312 311 313
828 21 312 310 306 304
829 36 309 310 312 315
830 36 377 310 312 315
831 37 309 310 312 313
832 37 377 310 312 313
833 17 310 306 304 301
834 17 310 306 304 305
835 32 304 306 310 309
836 32 304 306 310 377
837 26 301 304 305 302
838 27 301 304 305 307
839 27 305 304 301 300
840 27 186 182 181 51
841 44 178 182 181 51
842 29 182 181 58 59
843 45 51 181 58 59
844 26 58 181 182 186
845 27 58 181 182 178
846 29 298 301 304 306
847 45 300 301 304 306
848 26 304 301 298 299
849 27 304 301 298 296
850 44 300 301 298 296
851 26 298 301 304 305
852 16 311 313 312 315
853 22 312 313 311 308
854 22 312 313 311 314
855 10 515 475 477 479
856 11 515 475 477 562
857 10 515 475 478 480
858 11 515 475 478 476
859 25 477 475 515 513
860 25 478 475 515 513
861 25 477 475 515 514
862 25 478 475 515 514
863 26 477 475 478 480
864 27 477 475 478 476
865 27 478 475 477 562
866 20 521 520 358 353
867 34 518 520 521 525
868 34 524 520 521 525
869 48 358 520 521 519
870 35 518 520 521 519
871 35 524 520 521 519
872 17 520 358 353 350
873 17 520 358 353 352
874 32 353 358 520 524
875 32 353 358 520 518
876 24 185 187 186 190
877 24 186 187 185 136
878 24 186 187 185 180
879 24 185 187 186 182
880 26 470 469 331 333
881 27 470 469 331 330
882 27 331 469 470 468
883 26 475 478 480 482
884 27 475 478 480 481
885 4 41 43 168 169
886 2 41 43 168 172
887 2 41 43 168 167
888 40 170 43 168 169
889 3 168 43 41 285
890 39 170 43 41 285
891 5 168 43 39 449
892 41 170 43 39 449
893 2 168 43 41 40
894 5 41 43 39 449
895 2 168 43 41 42
896 29 333 331 469 467
897 45 330 331 469 467
898 26 469 331 333 516
899 27 469 331 333 272
900 26 415 418 417 455
901 27 417 418 415 416
902 26 60 190 186 182
903 27 186 190 60 61
904 18 43 41 285 283
905 46 285 41 43 39
906 35 42 41 43 39
907 34 42 41 43 170
908 35 40 41 43 39
909 34 40 41 43 170
910 37 308 311 312 313
911 36 308 311 312 315
912 37 314 311 312 313
913 36 314 311 312 315
914 10 515 516 585 470
915 25 585 516 515 513
916 25 585 516 515 514
917 26 585 516 333 331
918 27 585 516 333 272
919 11 515 516 585 584
920 27 333 516 585 584
921 25 333 516 515 513
922 25 333 516 515 514
923 11 515 516 333 272
924 10 515 516 333 331
925 26 231 201 404 400
926 27 231 201 404 409
927 44 237 201 404 409
928 26 404 201 231 445
929 27 516 333 331 330
930 44 272 333 331 330
931 24 475 515 516 585
932 24 516 515 475 477
933 24 516 515 475 478
934 24 475 515 516 333
935 26 301 298 299 302
936 27 299 298 301 300
937 15 41 285 283 280
938 15 523 285 283 280
939 15 41 285 283 281
940 15 523 285 283 281
941 31 283 285 41 42
942 31 283 285 41 40
943 31 283 285 523 526
944 31 283 285 523 522
945 13 41 285 523 521
946 14 41 285 523 526
947 14 41 285 523 522
948 14 523 285 41 42
949 14 523 285 41 40
950 13 523 285 41 43
951 29 343 350 353 358
952 45 517 350 353 358
953 26 353 350 343 342
954 27 353 350 343 339
955 44 517 350 343 339
956 26 343 350 353 352
957 26 350 353 352 348
958 27 350 353 352 290
959 27 352 353 350 517
960 1 287 282 280 277
961 23 280 282 287 289
962 23 280 282 287 288
963 23 280 282 287 489
964 1 287 282 280 283
965 33 279 282 287 289
966 33 279 282 287 288
967 33 279 282 287 489
968 33 483 282 287 289
969 33 483 282 287 288
970 33 483 282 287 489
971 26 470 585 516 333
972 27 516 585 470 468
973 29 302 305 304 306
974 45 307 305 304 306
975 26 304 305 302 299
976 27 304 305 302 303
977 24 231 229 233 232
978 24 233 229 231 201
979 24 233 229 231 445
980 24 231 229 233 235
981 10 434 436 435 438
982 25 435 436 434 431
983 25 435 436 434 429
984 26 435 436 439 393
985 27 435 436 439 441
986 11 434 436 435 433
987 27 439 436 435 433
988 25 439 436 434 431
989 25 439 436 434 429
990 11 434 436 439 441
991 10 434 436 439 393
992 29 553 554 556 558
993 26 553 554 556 560
994 27 556 554 553 550
995 45 551 554 556 558
996 29 418 415 414 413
997 45 416 415 414 413
998 26 414 415 418 417
999 27 414 415 418 419
1000 44 416 415 418 419
1001 26 418 415 414 412
1002 26 350 343 342 348
1003 27 342 343 350 517
1004 29 232 234 238 241
1005 45 118 234 238 241
1006 26 238 234 232 233
1007 27 238 234 232 230
1008 44 118 234 232 230
1009 26 232 234 238 239
1010 27 384 388 392 335
1011 45 387 388 384 380
1012 44 387 388 392 335
1013 29 392 388 384 380
1014 27 299 302 305 307
1015 44 303 302 305 307
1016 26 234 232 233 235
1017 27 233 232 234 118
1018 27 482 480 478 476
1019 45 481 480 482 484
1020 44 481 480 478 476
1021 29 478 480 482 484
1022 10 229 233 232 234
1023 25 232 233 229 228
1024 25 232 233 229 226
1025 26 232 233 235 239
1026 27 232 233 235 236
1027 11 229 233 232 230
1028 27 235 233 232 230
1029 25 235 233 229 228
1030 25 235 233 229 226
1031 11 229 233 235 236
1032 10 229 233 235 239
1033 10 187 185 136 135
1034 11 187 185 136 191
1035 10 187 185 180 128
1036 11 187 185 180 179
1037 25 136 185 187 189
1038 25 180 185 187 189
1039 25 136 185 187 183
1040 25 180 185 187 183
1041 26 136 185 180 128
1042 27 136 185 180 179
1043 27 180 185 136 191
1044 26 185 136 135 130
1045 27 185 136 135 137
1046 44 191 136 135 137
1047 26 135 136 185 180
1048 22 490 486 492 493
1049 22 490 486 492 494
1050 16 492 486 490 488
1051 29 348 352 353 358
1052 45 290 352 353 358
1053 26 353 352 348 342
1054 27 353 352 348 284
1055 36 493 492 490 488
1056 36 494 492 490 488
1057 37 493 492 490 486
1058 37 494 492 490 486
1059 26 185 180 128 130
1060 27 185 180 128 126
1061 27 130 128 180 179
1062 45 126 128 130 129
1063 44 126 128 180 179
1064 29 180 128 130 129
1065 26 135 130 128 180
1066 27 135 130 128 126
1067 27 128 130 135 137
1068 16 210 213 211 214
1069 22 211 213 210 207
1070 22 211 213 210 212
1071 37 207 210 211 213
1072 36 207 210 211 214
1073 37 212 210 211 213
1074 36 212 210 211 214
1075 9 208 211 213 210
1076 8 210 211 208 413
1077 6 210 211 208 206
1078 6 210 211 208 209
1079 6 208 211 210 207
1080 6 208 211 210 212
1081 42 214 211 210 213
1082 43 214 211 208 413
1083 47 213 211 208 413
1084 7 208 211 210 213
1085 21 211 208 413 414
1086 36 206 208 211 214
1087 36 209 208 211 214
1088 37 206 208 211 213
1089 37 209 208 211 213
1090 26 415 414 412 455
1091 27 415 414 412 411
1092 27 412 414 415 416
1093 17 208 413 414 415
1094 17 208 413 414 412
1095 32 414 413 208 206
1096 32 414 413 208 209
1097 29 455 412 414 413
1098 45 411 412 414 413
1099 26 414 412 455 417
1100 27 414 412 455 454
1101 26 334 392 388 384
1102 27 334 392 388 387
1103 27 342 348 352 290
1104 44 284 348 352 290
1105 8 492 490 487 484
1106 47 486 490 487 484
1107 43 488 490 487 484
1108 7 487 490 492 486
1109 6 487 490 492 493
1110 6 487 490 492 494
1111 9 487 490 486 492
1112 6 492 490 487 485
1113 6 492 490 487 491
1114 42 488 490 492 486
1115 26 479 482 480 478
1116 27 479 482 480 481
1117 27 480 482 479 563
1118 21 490 487 484 482
1119 37 485 487 490 486
1120 36 485 487 490 488
1121 37 491 487 490 486
1122 36 491 487 490 488
1123 10 337 342 343 350
1124 25 343 342 337 338
1125 25 343 342 337 336
1126 26 343 342 348 352
1127 27 343 342 348 284
1128 11 337 342 343 339
1129 27 348 342 343 339
1130 25 348 342 337 338
1131 25 348 342 337 336
1132 11 337 342 348 284
1133 10 337 342 348 352
1134 17 487 484 482 479
1135 32 482 484 487 485
1136 32 482 484 487 491
1137 17 487 484 482 480
1138 29 477 479 482 484
1139 26 477 479 482 480
1140 27 482 479 477 562
1141 45 563 479 482 484
1142 29 235 239 238 241
1143 45 240 239 238 241
1144 26 238 239 235 233
1145 27 238 239 235 236
1146 27 233 235 239 240
1147 44 236 235 239 240
1148 3 473 472 269 116
1149 39 474 472 269 116
1150 4 269 472 473 467
1151 2 269 472 473 471
1152 2 269 472 473 443
1153 5 269 472 466 114
1154 2 473 472 269 270
1155 2 473 472 269 271
1156 40 474 472 473 467
1157 41 474 472 466 114
1158 5 473 472 466 114
1159 17 131 129 130 135
1160 17 131 129 130 128
1161 32 130 129 131 133
1162 32 130 129 131 134
1163 10 337 334 390 386
1164 11 337 334 390 391
1165 10 337 334 392 388
1166 11 337 334 392 335
1167 25 390 334 337 338
1168 25 392 334 337 338
1169 25 390 334 337 336
1170 25 392 334 337 336
1171 26 390 334 392 388
1172 27 390 334 392 335
1173 27 392 334 390 391
1174 27 417 455 412 411
1175 44 454 455 412 411
1176 24 334 337 342 343
1177 24 342 337 334 390
1178 24 342 337 334 392
1179 24 334 337 342 348
1180 26 234 238 239 235
1181 27 234 238 239 240
1182 27 239 238 234 118
1183 10 581 417 418 415
1184 25 418 417 581 460
1185 25 418 417 581 549
1186 26 418 417 455 412
1187 27 418 417 455 454
1188 11 581 417 418 419
1189 27 455 417 418 419
1190 25 455 417 581 460
1191 25 455 417 581 549
1192 11 581 417 455 454
1193 10 581 417 455 412
1194 29 136 135 130 129
1195 26 136 135 130 128
1196 27 130 135 136 191
1197 45 137 135 130 129
1198 10 229 231 201 404
1199 11 229 231 201 237
1200 10 229 231 445 397
1201 11 229 231 445 444
1202 25 201 231 229 228
1203 25 445 231 229 228
1204 25 201 231 229 226
1205 25 445 231 229 226
1206 26 201 231 445 397
1207 27 201 231 445 444
1208 27 445 231 201 237
1209 26 475 477 479 482
1210 27 475 477 479 563
1211 44 562 477 479 563
1212 26 479 477 475 478
1213 26 60 58 181 182
1214 27 60 58 181 51
1215 27 181 58 60 61
1216 29 190 60 58 59
1217 45 61 60 58 59
1218 26 58 60 190 186
1219 27 58 60 190 192
1220 44 61 60 190 192
1221 26 190 60 58 181
1222 15 84 317 320 321
1223 15 196 317 320 321
1224 15 84 317 320 322
1225 15 196 317 320 322
1226 31 320 317 84 552
1227 31 320 317 84 82
1228 31 320 317 196 194
1229 31 320 317 196 198
1230 13 84 317 196 197
1231 14 84 317 196 194
1232 14 84 317 196 198
1233 14 196 317 84 552
1234 14 196 317 84 82
1235 13 196 317 84 86
1236 29 201 404 400 402
1237 26 201 404 400 397
1238 27 400 404 201 237
1239 45 409 404 400 402
1240 20 79 55 59 58
1241 34 52 55 79 81
1242 34 54 55 79 81
1243 48 59 55 79 77
1244 35 52 55 79 77
1245 35 54 55 79 77
1246 17 55 59 58 60
1247 17 55 59 58 181
1248 32 58 59 55 54
1249 32 58 59 55 52
1250 26 231 445 397 400
1251 27 231 445 397 396
1252 26 404 400 397 445
1253 27 404 400 397 396
1254 27 397 400 404 409
1255 17 406 402 400 404
1256 17 406 402 400 397
1257 32 400 402 406 408
1258 32 400 402 406 410
1259 27 400 397 445 444
1260 45 396 397 400 402
1261 44 396 397 445 444
1262 29 445 397 400 402
1263 4 84 86 561 558
1264 2 84 86 561 90
1265 2 84 86 561 537
1266 40 88 86 561 558
1267 3 561 86 84 317
1268 39 88 86 84 317
1269 5 561 86 559 318
1270 41 88 86 559 318
1271 2 561 86 84 82
1272 5 84 86 559 318
1273 2 561 86 84 552
1274 3 406 405 544 542
1275 39 538 405 544 542
1276 4 544 405 406 402
1277 2 544 405 406 410
1278 2 544 405 406 408
1279 5 544 405 543 547
1280 2 406 405 544 541
1281 2 406 405 544 548
1282 40 538 405 406 402
1283 41 538 405 543 547
1284 5 406 405 543 547
1285 20 405 406 402 400
1286 34 410 406 405 538
1287 34 408 406 405 538
1288 48 402 406 405 543
1289 35 410 406 405 543
1290 35 408 406 405 543
1291 4 78 79 55 59
1292 2 78 79 55 52
1293 2 78 79 55 54
1294 40 81 79 55 59
1295 3 55 79 78 542
1296 39 81 79 78 542
1297 5 55 79 77 540
1298 41 81 79 77 540
1299 2 55 79 78 76
1300 5 78 79 77 540
1301 2 55 79 78 80
1302 18 79 78 542 65
1303 46 542 78 79 77
1304 35 80 78 79 77
1305 34 80 78 79 81
1306 35 76 78 79 77
1307 34 76 78 79 81
1308 15 78 542 65 64
1309 15 544 542 65 64
1310 15 78 542 65 67
1311 15 544 542 65 67
1312 31 65 542 78 80
1313 31 65 542 78 76
1314 31 65 542 544 541
1315 31 65 542 544 548
1316 13 78 542 544 405
1317 14 78 542 544 541
1318 14 78 542 544 548
1319 14 544 542 78 80
1320 14 544 542 78 76
1321 13 544 542 78 79
1322 3 195 197 196 317
1323 39 200 197 196 317
1324 4 196 197 195 394
1325 2 196 197 195 163
1326 2 196 197 195 398
1327 5 196 197 199 464
1328 2 195 197 196 194
1329 2 195 197 196 198
1330 40 200 197 195 394
1331 41 200 197 199 464
1332 5 195 197 199 464
1333 20 197 195 394 442
1334 34 163 195 197 200
1335 34 398 195 197 200
1336 48 394 195 197 199
1337 35 163 195 197 199
1338 35 398 195 197 199
1339 18 197 196 317 320
1340 46 317 196 197 199
1341 35 194 196 197 199
1342 34 194 196 197 200
1343 35 198 196 197 199
1344 34 198 196 197 200
1345 20 86 561 558 556
1346 34 90 561 86 88
1347 34 537 561 86 88
1348 48 558 561 86 559
1349 35 90 561 86 559
1350 35 537 561 86 559
1351 18 86 84 317 320
1352 46 317 84 86 559
1353 35 552 84 86 559
1354 34 552 84 86 88
1355 35 82 84 86 559
1356 34 82 84 86 88
1357 17 195 394 442 438
1358 17 195 394 442 393
1359 32 442 394 195 398
1360 32 442 394 195 163
1361 20 140 142 143 146
1362 34 144 142 140 138
1363 34 141 142 140 138
1364 48 143 142 140 139
1365 35 144 142 140 139
1366 35 141 142 140 139
1367 17 142 143 146 148
1368 17 142 143 146 149
1369 32 146 143 142 141
1370 32 146 143 142 144
1371 24 580 581 417 418
1372 24 417 581 580 456
1373 24 417 581 580 578
1374 24 580 581 417 455
1375 26 438 442 393 439
1376 27 438 442 393 395
1377 27 393 442 438 437
1378 26 580 456 453 575
1379 27 580 456 453 452
1380 44 457 456 453 452
1381 26 453 456 580 578
1382 29 435 438 442 394
1383 45 437 438 442 394
1384 26 442 438 435 436
1385 27 442 438 435 433
1386 44 437 438 435 433
1387 26 435 438 442 393
1388 10 295 299 298 301
1389 25 298 299 295 293
1390 25 298 299 295 458
1391 26 298 299 302 305
1392 27 298 299 302 303
1393 11 295 299 298 296
1394 27 302 299 298 296
1395 25 302 299 295 293
1396 25 302 299 295 458
1397 11 295 299 302 303
1398 10 295 299 302 305
1399 26 503 500 498 497
1400 27 503 500 498 496
1401 27 498 500 503 505
1402 26 29 25 149 146
1403 27 29 25 149 147
1404 24 555 434 436 435
1405 24 436 434 555 553
1406 24 436 434 555 557
1407 24 555 434 436 439
1408 27 146 149 25 27
1409 45 147 149 146 143
1410 44 147 149 25 27
1411 29 25 149 146 143
1412 18 108 105 95 91
1413 46 95 105 108 107
1414 35 106 105 108 107
1415 34 106 105 108 19
1416 35 104 105 108 107
1417 34 104 105 108 19
1418 27 575 577 578 579
1419 45 574 577 575 573
1420 44 574 577 578 579
1421 29 578 577 575 573
1422 10 581 580 456 453
1423 11 581 580 456 457
1424 10 581 580 578 577
1425 11 581 580 578 579
1426 25 456 580 581 460
1427 25 578 580 581 460
1428 25 456 580 581 549
1429 25 578 580 581 549
1430 26 456 580 578 577
1431 27 456 580 578 579
1432 27 578 580 456 457
1433 29 390 386 384 380
1434 26 390 386 384 388
1435 27 384 386 390 391
1436 45 382 386 384 380
1437 27 500 498 497 495
1438 45 496 498 500 501
1439 44 496 498 497 495
1440 29 497 498 500 501
1441 3 504 108 105 95
1442 39 19 108 105 95
1443 4 105 108 504 501
1444 2 105 108 504 506
1445 2 105 108 504 582
1446 5 105 108 107 96
1447 2 504 108 105 106
1448 2 504 108 105 104
1449 40 19 108 504 501
1450 41 19 108 107 96
1451 5 504 108 107 96
1452 17 561 558 556 554
1453 17 561 558 556 560
1454 32 556 558 561 537
1455 32 556 558 561 90
1456 10 295 499 502 503
1457 11 295 499 502 463
1458 10 295 499 497 498
1459 11 295 499 497 495
1460 25 502 499 295 293
1461 25 497 499 295 293
1462 25 502 499 295 458
1463 25 497 499 295 458
1464 26 502 499 497 498
1465 27 502 499 497 495
1466 27 497 499 502 463
1467 20 108 504 501 500
1468 34 506 504 108 19
1469 34 582 504 108 19
1470 48 501 504 108 107
1471 35 506 504 108 107
1472 35 582 504 108 107
1473 26 554 556 560 557
1474 27 554 556 560 536
1475 27 560 556 554 551
1476 29 439 393 442 394
1477 45 395 393 442 394
1478 26 442 393 439 436
1479 27 442 393 439 441
1480 26 334 390 386 384
1481 27 334 390 386 382
1482 44 391 390 386 382
1483 26 386 390 334 392
1484 29 502 503 500 501
1485 26 502 503 500 498
1486 27 500 503 502 463
1487 45 505 503 500 501
1488 17 504 501 500 503
1489 17 504 501 500 498
1490 32 500 501 504 582
1491 32 500 501 504 506
1492 26 499 497 498 500
1493 27 499 497 498 496
1494 26 555 557 560 556
1495 27 555 557 560 536
1496 24 499 295 299 298
1497 24 299 295 499 502
1498 24 299 295 499 497
1499 24 499 295 299 302
1500 27 556 560 557 440
1501 45 536 560 556 558
1502 44 536 560 557 440
1503 29 557 560 556 558
1504 26 580 578 577 575
1505 27 580 578 577 574
1506 27 436 439 393 395
1507 44 441 439 393 395
1508 24 29 31 30 23
1509 24 30 31 29 24
1510 24 30 31 29 25
1511 24 29 31 30 33
1512 10 434 555 553 554
1513 11 434 555 553 550
1514 10 434 555 557 560
1515 11 434 555 557 440
1516 25 553 555 434 431
1517 25 557 555 434 431
1518 25 553 555 434 429
1519 25 557 555 434 429
1520 26 553 555 557 560
1521 27 553 555 557 440
1522 27 557 555 553 550
1523 26 499 502 503 500
1524 27 499 502 503 505
1525 44 463 502 503 505
1526 26 503 502 499 497
1527 10 31 29 24 148
1528 11 31 29 24 28
1529 10 31 29 25 149
1530 11 31 29 25 27
1531 25 24 29 31 35
1532 25 25 29 31 35
1533 25 24 29 31 34
1534 25 25 29 31 34
1535 26 24 29 25 149
1536 27 24 29 25 27
1537 27 25 29 24 28
1538 26 555 553 554 556
1539 27 555 553 554 551
1540 44 550 553 554 551
1541 26 554 553 555 557
1542 26 148 146 149 25
1543 27 148 146 149 147
1544 27 149 146 148 145
1545 26 438 435 436 439
1546 27 436 435 438 437
1547 17 121 241 238 234
1548 17 121 241 238 239
1549 32 238 241 121 119
1550 32 238 241 121 122
1551 20 472 473 467 469
1552 34 471 473 472 474
1553 34 443 473 472 474
1554 48 467 473 472 466
1555 35 471 473 472 466
1556 35 443 473 472 466

Impropers

1 13 281 447 446 450
2 13 281 447 446 448
3 13 281 447 450 448
4 14 446 447 450 448
5 26 347 351 356 173
6 25 347 344 349 341
7 24 165 347 344 351
8 1 162 165 347 164
9 1 162 165 347 166
10 3 162 165 164 166
11 13 347 165 164 166
12 3 165 162 160 161
13 3 165 162 160 159
14 3 165 162 161 159
15 14 160 162 161 159
16 29 244 173 171 351
17 5 247 244 245 173
18 5 247 244 242 173
19 15 245 244 242 173
20 4 247 244 245 242
21 24 447 281 278 283
22 19 528 531 532 527
23 18 528 531 532 533
24 20 528 531 527 533
25 20 532 531 527 533
26 26 276 278 281 116
27 24 345 349 354 344
28 24 361 356 351 354
29 25 176 124 177 127
30 25 49 47 174 45
31 6 531 532 534 530
32 6 531 532 534 508
33 4 531 532 530 508
34 17 530 532 508 534
35 19 244 247 252 243
36 18 244 247 252 246
37 20 244 247 243 246
38 20 252 247 243 246
39 27 176 174 47 169
40 6 247 252 461 459
41 6 247 252 461 253
42 4 247 252 459 253
43 17 459 252 253 461
44 26 349 354 356 357
45 13 356 361 363 360
46 13 356 361 363 362
47 13 356 361 360 362
48 14 363 361 360 362
49 24 56 177 49 124
50 25 177 49 47 50
51 5 531 528 507 116
52 5 531 528 529 116
53 15 507 528 529 116
54 4 531 528 507 529
55 28 528 116 269 278
56 25 174 176 124 120
57 29 223 357 359 354
58 26 280 283 281 285
59 24 282 280 283 277
60 27 255 462 421 461
61 12 15 56 177 132
62 12 15 56 177 57
63 13 15 56 132 57
64 13 177 56 132 57
65 25 469 470 585 468
66 5 140 257 254 72
67 5 140 257 258 72
68 15 254 257 258 72
69 4 140 257 254 258
70 19 257 140 142 139
71 18 257 140 142 138
72 20 257 140 139 138
73 20 142 140 139 138
74 5 472 269 270 116
75 5 472 269 271 116
76 15 270 269 271 116
77 4 472 269 270 271
78 6 251 131 129 134
79 6 251 131 129 133
80 4 251 131 134 133
81 17 134 131 133 129
82 25 276 277 280 275
83 25 423 421 462 420
84 24 274 276 277 278
85 24 56 15 13 17
86 25 14 17 15 18
87 3 274 113 115 158
88 3 274 113 115 157
89 3 274 113 158 157
90 14 115 113 158 157
91 1 113 274 276 117
92 1 113 274 276 273
93 3 113 274 117 273
94 13 276 274 117 273
95 19 223 379 430 193
96 18 223 379 430 378
97 20 223 379 193 378
98 20 430 379 193 378
99 27 14 12 11 9
100 25 12 14 17 16
101 25 15 13 11 53
102 25 13 11 12 10
103 22 294 123 121 291
104 21 294 123 121 292
105 23 294 123 291 292
106 23 121 123 291 292
107 6 379 430 380 428
108 6 379 430 380 432
109 4 379 430 428 432
110 17 428 430 432 380
111 8 123 294 297 291
112 8 123 294 249 291
113 16 297 294 249 291
114 7 123 294 297 249
115 25 424 423 421 422
116 19 250 251 131 125
117 18 250 251 131 248
118 20 250 251 125 248
119 20 131 251 125 248
120 11 123 121 241 119
121 11 123 121 241 122
122 7 123 121 119 122
123 17 119 121 122 241
124 5 379 223 224 357
125 5 379 223 222 357
126 15 224 223 222 357
127 4 379 223 224 222
128 6 4 8 9 7
129 6 4 8 9 6
130 4 4 8 7 6
131 17 7 8 6 9
132 27 388 384 386 380
133 12 424 219 218 221
134 12 424 219 218 427
135 13 424 219 221 427
136 13 218 219 221 427
137 24 262 267 109 268
138 25 33 32 26 535
139 27 22 26 32 534
140 5 405 544 541 542
141 5 405 544 548 542
142 15 541 544 548 542
143 4 405 544 541 548
144 5 4 3 99 95
145 5 4 3 2 95
146 15 99 3 2 95
147 4 4 3 99 2
148 3 328 383 512 381
149 3 328 383 512 389
150 3 328 383 381 389
151 14 512 383 381 389
152 29 257 72 74 70
153 2 510 319 316 321
154 2 510 319 465 321
155 13 321 319 316 465
156 3 510 319 316 465
157 2 403 345 346 349
158 2 403 345 340 349
159 13 349 345 346 340
160 3 403 345 346 340
161 3 63 545 576 572
162 3 63 545 576 546
163 3 63 545 572 546
164 14 576 545 572 546
165 3 345 403 401 407
166 3 345 403 401 399
167 3 345 403 407 399
168 14 401 403 407 399
169 25 326 323 321 324
170 13 322 152 154 151
171 13 322 152 154 150
172 13 322 152 151 150
173 14 154 152 151 150
174 24 71 68 66 70
175 29 569 327 156 325
176 24 152 322 325 320
177 26 321 320 322 317
178 26 322 325 326 327
179 24 328 326 323 325
180 24 319 321 320 323
181 3 319 510 583 509
182 3 319 510 583 511
183 3 319 510 509 511
184 14 583 510 509 511
185 1 383 328 326 385
186 1 383 328 326 332
187 3 383 328 385 332
188 13 326 328 385 332
189 5 568 569 567 327
190 5 568 569 451 327
191 15 567 569 451 327
192 4 568 569 567 451
193 25 68 66 64 100
194 26 67 70 68 72
195 1 204 71 68 75
196 1 204 71 68 101
197 3 204 71 75 101
198 13 68 71 75 101
199 6 568 571 573 570
200 6 568 571 573 566
201 4 568 571 570 566
202 17 570 571 566 573
203 24 63 64 65 66
204 3 71 204 203 202
205 3 71 204 203 205
206 3 71 204 202 205
207 14 203 204 202 205
208 24 69 67 70 65
209 19 569 568 571 564
210 18 569 568 571 565
211 20 569 568 564 565
212 20 571 568 564 565
213 13 67 69 46 44
214 13 67 69 46 48
215 13 67 69 44 48
216 14 46 69 44 48
217 25 462 255 217 256
218 2 545 63 98 64
219 2 545 63 539 64
220 13 64 63 98 539
221 3 545 63 98 539
222 26 64 65 67 542
223 25 456 453 575 452
224 6 43 168 169 172
225 6 43 168 169 167
226 4 43 168 172 167
227 17 172 168 167 169
228 25 371 188 216 184
229 27 188 371 374 369
230 26 112 109 267 155
231 1 85 89 111 225
232 1 85 89 111 62
233 3 85 89 225 62
234 13 111 89 225 62
235 25 29 24 148 28
236 27 577 575 453 573
237 25 425 374 371 376
238 28 3 95 105 91
239 19 3 4 8 1
240 18 3 4 8 5
241 20 3 4 1 5
242 20 8 4 1 5
243 25 24 148 146 145
244 25 111 268 267 266
245 26 111 91 112 95
246 5 368 372 375 155
247 5 368 372 373 155
248 15 375 372 373 155
249 4 368 372 375 373
250 3 89 85 110 83
251 3 89 85 110 87
252 3 89 85 83 87
253 14 110 85 83 87
254 24 89 111 268 91
255 13 112 92 93 94
256 13 112 92 93 38
257 13 112 92 94 38
258 14 93 92 94 38
259 24 31 30 33 23
260 24 219 218 425 216
261 25 255 217 424 220
262 19 372 368 367 370
263 18 372 368 367 366
264 20 372 368 370 366
265 20 367 368 370 366
266 25 30 33 32 36
267 28 372 155 250 109
268 25 218 425 374 426
269 24 219 424 423 217
270 6 368 367 369 365
271 6 368 367 369 364
272 4 368 367 365 364
273 17 365 367 364 369
274 25 26 22 23 20
275 3 262 263 264 259
276 3 262 263 264 265
277 3 262 263 259 265
278 14 264 263 259 265
279 25 22 23 30 21
280 24 92 112 91 109
281 2 263 262 261 267
282 2 263 262 260 267
283 13 267 262 261 260
284 3 263 262 261 260
285 5 251 250 102 155
286 5 251 250 103 155
287 15 102 250 103 155
288 4 251 250 102 103
289 25 188 216 218 215
290 19 523 521 520 519
291 18 523 521 520 525
292 20 523 521 519 525
293 20 520 521 519 525
294 5 521 523 526 285
295 5 521 523 522 285
296 15 526 523 522 285
297 4 521 523 526 522
298 24 187 186 182 190
299 22 311 312 310 313
300 21 311 312 310 315
301 23 311 312 313 315
302 23 310 312 313 315
303 11 312 310 306 309
304 11 312 310 306 377
305 7 312 310 309 377
306 17 309 310 377 306
307 27 301 304 305 306
308 25 186 182 181 178
309 25 182 181 58 51
310 25 304 301 298 300
311 24 515 475 477 478
312 6 521 520 358 518
313 6 521 520 358 524
314 4 521 520 518 524
315 17 518 520 524 358
316 12 186 187 185 189
317 12 186 187 185 183
318 13 186 187 189 183
319 13 185 187 189 183
320 27 470 469 331 467
321 25 480 478 475 476
322 19 41 43 168 39
323 18 41 43 168 170
324 20 41 43 39 170
325 20 168 43 39 170
326 25 333 331 469 330
327 25 415 418 417 419
328 25 60 190 186 192
329 5 43 41 42 285
330 5 43 41 40 285
331 15 42 41 40 285
332 4 43 41 42 40
333 8 312 311 308 313
334 8 312 311 314 313
335 16 308 311 314 313
336 7 312 311 308 314
337 24 515 516 333 585
338 25 231 201 404 237
339 25 516 333 331 272
340 12 516 515 475 513
341 12 516 515 475 514
342 13 516 515 513 514
343 13 475 515 513 514
344 25 301 298 299 296
345 28 41 285 523 283
346 25 353 350 343 517
347 27 350 353 352 358
348 2 287 282 279 280
349 2 287 282 483 280
350 13 280 282 279 483
351 3 287 282 279 483
352 25 470 585 516 584
353 25 302 305 304 307
354 12 233 229 231 228
355 12 233 229 231 226
356 13 233 229 228 226
357 13 231 229 228 226
358 24 434 436 439 435
359 25 553 554 556 551
360 25 414 415 418 416
361 25 350 343 342 339
362 25 238 234 232 118
363 25 384 388 392 387
364 25 299 302 305 303
365 25 234 232 233 230
366 25 482 480 478 481
367 24 229 233 235 232
368 24 187 185 136 180
369 25 185 136 135 191
370 25 348 352 353 290
371 10 490 492 486 493
372 10 490 492 486 494
373 7 490 492 493 494
374 16 493 492 494 486
375 25 128 180 185 179
376 25 130 128 180 126
377 27 128 130 135 129
378 8 211 210 207 213
379 8 211 210 212 213
380 16 207 210 212 213
381 7 211 210 207 212
382 22 210 211 208 213
383 21 210 211 208 214
384 23 210 211 213 214
385 23 208 211 213 214
386 11 211 208 413 206
387 11 211 208 413 209
388 7 211 208 206 209
389 17 206 208 209 413
390 27 415 414 412 413
391 25 455 412 414 411
392 25 388 392 334 335
393 25 342 348 352 284
394 22 487 490 492 486
395 21 487 490 492 488
396 23 487 490 486 488
397 23 492 490 486 488
398 27 480 482 479 484
399 9 490 487 485 484
400 9 490 487 491 484
401 17 485 487 491 484
402 7 490 487 485 491
403 24 337 342 348 343
404 25 477 479 482 563
405 25 235 239 238 240
406 25 233 235 239 236
407 19 269 472 473 466
408 18 269 472 473 474
409 20 269 472 466 474
410 20 473 472 466 474
411 24 337 334 390 392
412 25 417 455 412 454
413 3 282 287 289 288
414 3 282 287 289 489
415 3 282 287 288 489
416 14 289 287 288 489
417 12 342 337 334 338
418 12 342 337 334 336
419 13 342 337 338 336
420 13 334 337 338 336
421 27 234 238 239 241
422 24 581 417 455 418
423 25 136 135 130 137
424 24 229 231 201 445
425 25 475 477 479 562
426 27 60 58 181 59
427 25 58 60 190 61
428 28 84 317 196 320
429 25 201 404 400 409
430 6 79 55 59 52
431 6 79 55 59 54
432 4 79 55 52 54
433 17 52 55 54 59
434 25 397 445 231 444
435 27 397 400 404 402
436 25 400 397 445 396
437 19 84 86 561 559
438 18 84 86 561 88
439 20 84 86 559 88
440 20 561 86 559 88
441 19 544 405 406 543
442 18 544 405 406 538
443 20 544 405 543 538
444 20 406 405 543 538
445 6 405 406 402 410
446 6 405 406 402 408
447 4 405 406 410 408
448 17 410 406 408 402
449 19 78 79 55 77
450 18 78 79 55 81
451 20 78 79 77 81
452 20 55 79 77 81
453 5 79 78 80 542
454 5 79 78 76 542
455 15 80 78 76 542
456 4 79 78 80 76
457 28 78 542 544 65
458 19 196 197 195 199
459 18 196 197 195 200
460 20 196 197 199 200
461 20 195 197 199 200
462 6 197 195 394 163
463 6 197 195 394 398
464 4 197 195 163 398
465 17 163 195 398 394
466 5 197 196 194 317
467 5 197 196 198 317
468 15 194 196 198 317
469 4 197 196 194 198
470 6 86 561 558 90
471 6 86 561 558 537
472 4 86 561 90 537
473 17 90 561 537 558
474 5 86 84 552 317
475 5 86 84 82 317
476 15 552 84 82 317
477 4 86 84 552 82
478 6 140 142 143 144
479 6 140 142 143 141
480 4 140 142 144 141
481 17 144 142 141 143
482 12 417 581 580 460
483 12 417 581 580 549
484 13 417 581 460 549
485 13 580 581 460 549
486 27 438 442 393 394
487 25 580 456 453 457
488 25 442 438 435 437
489 24 295 299 302 298
490 27 498 500 503 501
491 25 149 25 29 27
492 12 436 434 555 431
493 12 436 434 555 429
494 13 436 434 431 429
495 13 555 434 431 429
496 25 146 149 25 147
497 5 108 105 106 95
498 5 108 105 104 95
499 15 106 105 104 95
500 4 108 105 106 104
501 25 575 577 578 574
502 24 581 580 456 578
503 25 390 386 384 382
504 25 500 498 497 496
505 19 105 108 504 107
506 18 105 108 504 19
507 20 105 108 107 19
508 20 504 108 107 19
509 24 295 499 502 497
510 6 108 504 501 506
511 6 108 504 501 582
512 4 108 504 506 582
513 17 506 504 582 501
514 27 560 556 554 558
515 25 439 393 442 395
516 25 334 390 386 391
517 25 502 503 500 505
518 25 498 497 499 495
519 25 560 557 555 440
520 12 299 295 499 293
521 12 299 295 499 458
522 13 299 295 293 458
523 13 499 295 293 458
524 25 556 560 557 536
525 25 577 578 580 579
526 25 436 439 393 441
527 12 30 31 29 35
528 12 30 31 29 34
529 13 30 31 35 34
530 13 29 31 35 34
531 24 434 555 553 557
532 25 499 502 503 463
533 24 31 29 24 25
534 25 555 553 554 550
535 27 149 146 148 143
536 25 438 435 436 433
537 6 472 473 467 471
538 6 472 473 467 443
539 4 472 473 471 443
540 17 471 473 443 467
