LAMMPS data file via write_data, version 4 Jul 2026, timestep = 6800750, units = real

585 atoms
11 atom types
615 bonds
18 bond types
1090 angles
35 angle types
1562 dihedrals
48 dihedral types
540 impropers
30 improper types

1.4686551652893272 19.685123844703135 xlo xhi
1.4686551652893272 19.685123844703135 ylo yhi
1.4686551652893272 19.685123844703135 zlo zhi

Masses

1 12.01115
2 12.01115
3 12.01115
4 12.01115
5 1.00797
6 1.00797
7 1.00797
8 14.0067
9 15.9994
10 15.9994
11 15.9994

Pair Coeffs # lj/class2/coul/long

1 0.054 4.01
2 0.054 4.01
3 0.054 4.01
4 0.064 4.01
5 0.02 2.995
6 0.013 1.098
7 0.013 1.098
8 0.065 4.07
9 0.24 3.535
10 0.24 3.535
11 0.24 3.535

Bond Coeffs # class2

1 1.53 299.67 -501.77 679.81
2 1.53 299.67 -501.77 679.81
3 1.53 299.67 -501.77 679.81
4 1.501 321.902 -521.821 572.163
5 1.101 345 -691.89 844.6
6 1.457 365.805 -699.637 998.484
7 1.42 400.395 -835.195 1313.01
8 1.42 400.395 -835.195 1313.01
9 1.101 345 -691.89 844.6
10 1.42 400.395 -835.195 1313.01
11 1.101 345 -691.89 844.6
12 1.42 400.395 -835.195 1313.01
13 1.417 470.836 -627.618 1327.63
14 1.0982 372.825 -803.453 894.317
15 1.412 257.775 0 0
16 1.3768 428.88 -738.235 1114.97
17 1.006 466.74 -1073.6 1251.11
18 0.965 532.506 -1282.9 2004.77

Angle Coeffs # class2

1 108.4 43.9594 -8.3924 -9.3379
2 110.77 41.453 -10.604 5.129
3 112.67 39.516 -7.443 -9.5583
4 110.77 41.453 -10.604 5.129
5 111.27 54.5381 -8.3642 -13.0838
6 112.67 39.516 -7.443 -9.5583
7 110.77 41.453 -10.604 5.129
8 111.27 54.5381 -8.3642 -13.0838
9 120.05 44.7148 -22.7352 0
10 112.444 47.2337 -10.6612 -10.2062
11 109 80 0 0
12 110.954 50.8652 -4.4522 -10.0298
13 104.5 35.7454 -10.0067 -6.2729
14 102.969 38.9739 -6.2595 -8.171
15 110.77 41.453 -10.604 5.129
16 111.91 60.7147 -13.3366 -13.0785
17 111.27 54.5381 -8.3642 -13.0838
18 105.8 52.7061 -12.109 -9.8681
19 110.77 41.453 -10.604 5.129
20 111.27 54.5381 -8.3642 -13.0838
21 111.27 54.5381 -8.3642 -13.0838
22 111 44.3234 -9.4454 0
23 111 44.3234 -9.4454 0
24 118.9 61.0226 -34.9931 0
25 117.94 35.1558 -12.4682 0
26 120 102 0 0
27 123.42 73.6781 -21.6787 0
28 110 41.6 0 0
29 107.66 39.641 -12.921 -2.4318
30 110.62 51.3137 -6.7198 -2.6003
31 108.728 58.5446 -10.8088 -12.4006
32 108.728 58.5446 -10.8088 -12.4006
33 108.728 58.5446 -10.8088 -12.4006
34 108.728 58.5446 -10.8088 -12.4006
35 107.067 45.252 -7.5558 -9.512

BondBond Coeffs

1 0 1.53 1.501
2 3.3872 1.53 1.101
3 0 1.53 1.53
4 3.3872 1.53 1.101
5 11.4318 1.53 1.42
6 0 1.53 1.53
7 3.3872 1.53 1.101
8 11.4318 1.53 1.42
9 12.0676 1.501 1.417
10 -2.1113 1.457 1.457
11 0 1.457 1.412
12 -6.4168 1.457 1.006
13 -7.1131 1.42 1.42
14 0 1.42 1.3768
15 3.3872 1.53 1.101
16 4.6217 1.53 1.457
17 11.4318 1.53 1.42
18 -9.6879 1.42 0.965
19 3.3872 1.53 1.101
20 11.4318 1.53 1.42
21 11.4318 1.53 1.42
22 0 1.501 1.501
23 2.9168 1.501 1.101
24 68.2856 1.417 1.417
25 1.0795 1.417 1.0982
26 0 1.417 1.412
27 48.4754 1.417 1.3768
28 0 1.412 1.006
29 5.3316 1.101 1.101
30 12.426 1.101 1.457
31 23.1979 1.101 1.42
32 23.1979 1.101 1.42
33 23.1979 1.101 1.42
34 23.1979 1.101 1.42
35 -1.8749 1.006 1.006

BondAngle Coeffs

1 0 0 1.53 1.501
2 20.754 11.421 1.53 1.101
3 8.016 8.016 1.53 1.53
4 20.754 11.421 1.53 1.101
5 2.6868 20.4033 1.53 1.42
6 8.016 8.016 1.53 1.53
7 20.754 11.421 1.53 1.101
8 2.6868 20.4033 1.53 1.42
9 47.0579 31.0771 1.501 1.417
10 -7.2229 -7.2229 1.457 1.457
11 0 0 1.457 1.412
12 31.8096 20.5799 1.457 1.006
13 -2.8112 -2.8112 1.42 1.42
14 0 0 1.42 1.3768
15 20.754 11.421 1.53 1.101
16 6.0876 16.5702 1.53 1.457
17 2.6868 20.4033 1.53 1.42
18 28.58 18.9277 1.42 0.965
19 20.754 11.421 1.53 1.101
20 2.6868 20.4033 1.53 1.42
21 2.6868 20.4033 1.53 1.42
22 0 0 1.501 1.501
23 26.4608 11.7717 1.501 1.101
24 28.8708 28.8708 1.417 1.417
25 20.0033 24.2183 1.417 1.0982
26 0 0 1.417 1.412
27 58.479 107.681 1.417 1.3768
28 0 0 1.412 1.006
29 18.103 18.103 1.101 1.101
30 13.4582 42.4332 1.101 1.457
31 4.6189 55.327 1.101 1.42
32 4.6189 55.327 1.101 1.42
33 4.6189 55.327 1.101 1.42
34 4.6189 55.327 1.101 1.42
35 28.0322 28.0322 1.006 1.006

Dihedral Coeffs # class2

1 -0.2802 0 -0.0678 0 -0.0122 0
2 0 0 0.0316 0 -0.1681 0
3 0.1764 0 0.1766 0 -0.5206 0
4 0.7137 0 0.266 0 -0.2545 0
5 -0.6732 0 -0.4778 0 -0.167 0
6 0 0 0.0316 0 -0.1681 0
7 0.7137 0 0.266 0 -0.2545 0
8 0.7137 0 0.266 0 -0.2545 0
9 -0.5203 0 -0.3028 0 -0.345 0
10 0 0 4.4072 0 0 0
11 0 0 1.559 0 0 0
12 0 0 3 0 0 0
13 -0.1406 0 0.4168 0 0.015 0
14 0.1904 0 -0.1342 0 -0.246 0
15 0 0 2.25 0 0 0
16 0.5302 0 0 0 -0.3966 0
17 0 0 1.5 0 0 0
18 0 0 0 0 0.05 180
19 -1.1506 0 -0.6344 0 -0.1845 0
20 0 0 0 0 0.13 180
21 0 0 0 0 0.13 180
22 0.5302 0 0 0 -0.3966 0
23 -0.0228 0 0.028 0 -0.1863 0
24 -0.2802 0 -0.0678 0 -0.0122 0
25 -0.2801 0 -0.0678 0 -0.0122 0
26 8.3667 0 1.1932 0 0 0
27 0 0 3.9661 0 0 0
28 0 0 3 0 0 0
29 0 0 4.8498 0 0 0
30 0 0 2.25 0 0 0
31 0 0 0 0 0.05 180
32 0.9513 0 0.1155 0 0.072 0
33 -0.1432 0 0.0617 0 -0.1083 0
34 -0.1432 0 0.0617 0 -0.1083 0
35 -0.1435 0 0.253 0 -0.0905 0
36 -0.1432 0 0.0617 0 -0.1083 0
37 -0.1435 0 0.253 0 -0.0905 0
38 -0.5187 0 -0.4837 0 -0.1692 0
39 -0.2428 0 0.4065 0 -0.3079 0
40 -0.1435 0 0.253 0 -0.0905 0
41 0.1863 0 -0.4338 0 -0.2121 0
42 -0.1435 0 0.253 0 -0.0905 0
43 -0.1435 0 0.253 0 -0.0905 0
44 0 0 1.8769 0 0 0
45 0 0 1.7234 0 0 0
46 0 0 0 0 0.158 180
47 -0.182 0 -0.1084 0 -0.7047 0
48 -0.182 0 -0.1084 0 -0.7047 0

AngleAngleTorsion Coeffs

1 0 108.4 120.05
2 -16.164 112.67 110.77
3 -27.3953 112.67 111.91
4 -29.042 112.67 111.27
5 -12.1038 111.27 105.8
6 -16.164 112.67 110.77
7 -29.042 112.67 111.27
8 -29.042 112.67 111.27
9 -19.0059 111.27 104.5
10 -14.4097 120.05 118.9
11 4.4444 120.05 117.94
12 0 120.05 120
13 -24.3818 112.444 111.91
14 -12.5567 112.444 110.62
15 0 109 120
16 -16.4438 104.5 108.728
17 0 102.969 123.42
18 0 111.91 109
19 -7.5499 111.91 110.954
20 0 111.27 102.969
21 0 111.27 102.969
22 -16.4438 104.5 108.728
23 0 108.4 110.77
24 0 111 120.05
25 -5.8888 120.05 111
26 0 118.9 118.9
27 -4.8141 118.9 117.94
28 0 118.9 120
29 -21.0247 118.9 123.42
30 0 120 110
31 0 109 110.62
32 0 102.969 108.728
33 -12.564 110.77 110.77
34 -12.564 110.77 110.77
35 -20.2006 110.77 111.27
36 -12.564 110.77 110.77
37 -20.2006 110.77 111.27
38 -10.4258 110.62 110.954
39 -15.7572 110.77 111.91
40 -20.2006 110.77 111.27
41 -10.5093 108.728 105.8
42 -20.2006 110.77 111.27
43 -20.2006 110.77 111.27
44 0.3598 117.94 117.94
45 4.2296 117.94 123.42
46 0 111.91 111.27
47 -14.0484 111.27 111.27
48 -14.0484 111.27 111.27

EndBondTorsion Coeffs

1 0 0 0 0 0 0 1.53 1.417
2 0.2486 0.2422 -0.0925 0.0814 0.0591 0.2219 1.53 1.101
3 0.1032 0.5896 -0.4836 0.0579 -0.0043 -0.1906 1.53 1.457
4 -0.319 0.4411 -0.7174 1.1538 0.8409 -0.9138 1.53 1.42
5 -0.58 0.9004 0 0 0.5343 0.9025 1.53 0.965
6 0.2486 0.2422 -0.0925 0.0814 0.0591 0.2219 1.53 1.101
7 -0.319 0.4411 -0.7174 1.1538 0.8409 -0.9138 1.53 1.42
8 -0.319 0.4411 -0.7174 1.1538 0.8409 -0.9138 1.53 1.42
9 -0.2456 1.0517 -0.7795 0.4741 1.2635 0.5576 1.53 1.42
10 0 0.2421 0 0 -0.6918 0 1.501 1.417
11 0 -1.797 0 0 -0.4879 0 1.501 1.0982
12 0 0 0 0 0 0 1.501 1.412
13 -0.0128 -0.0495 -0.1079 0.0997 -0.0046 -0.2657 1.457 1.53
14 0.0628 0.0873 -0.0882 -0.5892 0.714 0.3505 1.457 1.101
15 0 0 0 0 0 0 1.457 1.417
16 -0.162 0.1564 -1.1408 -0.6054 1.3339 0.9648 1.42 1.101
17 0 0 0 0 0 0 1.42 1.417
18 0 0 0 0 0 0 1.53 1.412
19 -0.9466 0.9356 -0.5542 0.057 0.0625 0.4112 1.53 1.006
20 0 0 0 0 0 0 1.53 1.3768
21 0 0 0 0 0 0 1.53 1.3768
22 -0.162 0.1564 -1.1408 -0.6054 1.3339 0.9648 1.42 1.101
23 0 0 0 0 0 0 1.501 1.101
24 0 0 0 0 0 0 1.501 1.417
25 -0.5835 1.122 0.3978 1.3997 0.7756 0 1.417 1.101
26 -0.1185 6.3204 0 -0.1185 6.3204 0 1.417 1.417
27 0 -6.8958 0 0 -0.4669 0 1.417 1.0982
28 0 0 0 0 0 0 1.417 1.412
29 0 0.2655 0 0 4.8905 0 1.417 1.3768
30 0 0 0 0 0 0 1.417 1.006
31 0 0 0 0 0 0 1.412 1.101
32 0 0 0 0 0 0 1.3768 1.101
33 0.213 0.312 0.0777 0.213 0.312 0.0777 1.101 1.101
34 0.213 0.312 0.0777 0.213 0.312 0.0777 1.101 1.101
35 0.9681 0.9551 0.0436 0.5903 0.6669 0.8584 1.101 1.42
36 0.213 0.312 0.0777 0.213 0.312 0.0777 1.101 1.101
37 0.9681 0.9551 0.0436 0.5903 0.6669 0.8584 1.101 1.42
38 -1.1685 0.9266 -0.0993 0.085 0.3061 0.2104 1.101 1.006
39 0.196 0.7056 0.112 0.1022 0.209 0.6433 1.101 1.457
40 0.9681 0.9551 0.0436 0.5903 0.6669 0.8584 1.101 1.42
41 -1.7554 1.3145 0.2263 0.2493 0.6803 0 1.101 0.965
42 0.9681 0.9551 0.0436 0.5903 0.6669 0.8584 1.101 1.42
43 0.9681 0.9551 0.0436 0.5903 0.6669 0.8584 1.101 1.42
44 0 -0.689 0 0 -0.689 0 1.0982 1.0982
45 0 -1.5867 0 0 4.2641 0 1.0982 1.3768
46 0 0 0 0 0 0 1.457 1.42
47 1.0165 0.7553 -0.4609 1.0165 0.7553 -0.4609 1.42 1.42
48 1.0165 0.7553 -0.4609 1.0165 0.7553 -0.4609 1.42 1.42

MiddleBondTorsion Coeffs

1 0 0 0 1.501
2 -14.879 -3.6581 -0.3138 1.53
3 -15.4174 -7.3055 -1.0749 1.53
4 -21.8842 -7.6764 -0.6868 1.53
5 1.2472 0 0.7485 1.42
6 -14.879 -3.6581 -0.3138 1.53
7 -21.8842 -7.6764 -0.6868 1.53
8 -21.8842 -7.6764 -0.6868 1.53
9 -5.9288 -2.7007 -0.3175 1.42
10 0 9.1792 0 1.417
11 0 3.9421 0 1.417
12 0 0 0 1.417
13 -8.0036 -7.7321 -3.064 1.457
14 -6.4529 -6.8122 -1.1632 1.457
15 0 0 0 1.412
16 -6.8007 -4.6546 -1.4101 1.42
17 0 0 0 1.3768
18 0 0 0 1.457
19 -2.2208 0.5479 -0.3527 1.457
20 0 0 0 1.42
21 0 0 0 1.42
22 -6.8007 -4.6546 -1.4101 1.42
23 0 0 0 1.53
24 0 0 0 1.501
25 -5.5679 1.4083 0.301 1.501
26 27.5989 -2.312 0 1.417
27 0 -1.1521 0 1.417
28 0 0 0 1.417
29 0 4.8255 0 1.417
30 0 0 0 1.412
31 0 0 0 1.457
32 0 0 0 1.42
33 -14.261 -0.5322 -0.4864 1.53
34 -14.261 -0.5322 -0.4864 1.53
35 -16.7975 -1.2296 -0.275 1.53
36 -14.261 -0.5322 -0.4864 1.53
37 -16.7975 -1.2296 -0.275 1.53
38 -3.4611 1.6996 -0.6007 1.457
39 -10.4959 -0.7647 -0.0545 1.53
40 -16.7975 -1.2296 -0.275 1.53
41 0 0.9241 -0.5889 1.42
42 -16.7975 -1.2296 -0.275 1.53
43 -16.7975 -1.2296 -0.275 1.53
44 0 4.8228 0 1.417
45 0 5.5432 0 1.417
46 0 0 0 1.53
47 -17.2585 -3.6157 -0.8364 1.53
48 -17.2585 -3.6157 -0.8364 1.53

BondBond13 Coeffs

1 0 1.53 1.417
2 0 1.53 1.101
3 0 1.53 1.457
4 0 1.53 1.42
5 0 1.53 0.965
6 0 1.53 1.101
7 0 1.53 1.42
8 0 1.53 1.42
9 0 1.53 1.42
10 2.5085 1.501 1.417
11 0.8743 1.501 1.0982
12 0 1.501 1.412
13 0 1.457 1.53
14 0 1.457 1.101
15 0 1.457 1.417
16 0 1.42 1.101
17 0 1.42 1.417
18 0 1.53 1.412
19 0 1.53 1.006
20 0 1.53 1.3768
21 0 1.53 1.3768
22 0 1.42 1.101
23 0 1.501 1.101
24 0 1.501 1.417
25 -3.4826 1.417 1.101
26 53 1.417 1.417
27 -6.2741 1.417 1.0982
28 0 1.417 1.412
29 -2.2436 1.417 1.3768
30 0 1.417 1.006
31 0 1.412 1.101
32 0 1.3768 1.101
33 0 1.101 1.101
34 0 1.101 1.101
35 0 1.101 1.42
36 0 1.101 1.101
37 0 1.101 1.42
38 0 1.101 1.006
39 0 1.101 1.457
40 0 1.101 1.42
41 0 1.101 0.965
42 0 1.101 1.42
43 0 1.101 1.42
44 -1.7077 1.0982 1.0982
45 2.0517 1.0982 1.3768
46 0 1.457 1.42
47 0 1.42 1.42
48 0 1.42 1.42

AngleTorsion Coeffs

1 0 0 0 0 0 0 108.4 120.05
2 -0.2454 0 -0.1136 0.3113 0.4516 -0.1988 112.67 110.77
3 -1.9225 -1.345 0.221 2.0125 0.944 -2.7612 112.67 111.91
4 0.5623 -0.3041 -0.4015 0.9672 -0.7566 -1.2331 112.67 111.27
5 -3.5903 2.5225 0.4888 0.8726 -0.3577 0.3888 111.27 105.8
6 -0.2454 0 -0.1136 0.3113 0.4516 -0.1988 112.67 110.77
7 0.5623 -0.3041 -0.4015 0.9672 -0.7566 -1.2331 112.67 111.27
8 0.5623 -0.3041 -0.4015 0.9672 -0.7566 -1.2331 112.67 111.27
9 -2.7466 1.4877 -0.8955 0.5676 0.945 0.0703 111.27 104.5
10 0 -4.4683 0 0 3.8987 0 120.05 118.9
11 0 -0.1242 0 0 3.4601 0 120.05 117.94
12 0 0 0 0 0 0 120.05 120
13 1.2031 1.3645 -0.7071 -2.7883 1.5193 1.4796 112.444 111.91
14 -1.3582 0.1465 -0.5729 -2.6321 0.9353 -0.8398 112.444 110.62
15 0 0 0 0 0 0 109 120
16 -0.7777 0.434 -0.6653 -1.8234 1.6393 0.5144 104.5 108.728
17 0 0 0 0 0 0 102.969 123.42
18 0 0 0 0 0 0 111.91 109
19 -3.343 4.4558 -0.0346 0.2873 -0.8072 -0.096 111.91 110.954
20 0 0 0 0 0 0 111.27 102.969
21 0 0 0 0 0 0 111.27 102.969
22 -0.7777 0.434 -0.6653 -1.8234 1.6393 0.5144 104.5 108.728
23 0 0 0 0 0 0 108.4 110.77
24 0 0 0 0 0 0 111 120.05
25 0.2251 0.6548 0.1237 4.6266 0.1632 0.0461 120.05 111
26 1.9767 1.0239 0 1.9767 1.0239 0 118.9 118.9
27 0 2.5014 0 0 2.7147 0 118.9 117.94
28 0 0 0 0 0 0 118.9 120
29 0 10.0155 0 0 1.7404 0 118.9 123.42
30 0 0 0 0 0 0 120 110
31 0 0 0 0 0 0 109 110.62
32 0 0 0 0 0 0 102.969 108.728
33 -0.8085 0.5569 -0.2466 -0.8085 0.5569 -0.2466 110.77 110.77
34 -0.8085 0.5569 -0.2466 -0.8085 0.5569 -0.2466 110.77 110.77
35 2.3668 2.492 -1.0122 -0.1892 0.4918 0.7273 110.77 111.27
36 -0.8085 0.5569 -0.2466 -0.8085 0.5569 -0.2466 110.77 110.77
37 2.3668 2.492 -1.0122 -0.1892 0.4918 0.7273 110.77 111.27
38 -3.9582 2.0063 0.3213 -0.4294 -0.4442 -0.6141 110.62 110.954
39 0.5111 1.6328 -1.0155 -1.1075 0.282 0.8318 110.77 111.91
40 2.3668 2.492 -1.0122 -0.1892 0.4918 0.7273 110.77 111.27
41 -3.406 1.6396 0.0737 0 -0.281 -0.5944 108.728 105.8
42 2.3668 2.492 -1.0122 -0.1892 0.4918 0.7273 110.77 111.27
43 2.3668 2.492 -1.0122 -0.1892 0.4918 0.7273 110.77 111.27
44 0 2.4501 0 0 2.4501 0 117.94 117.94
45 0 1.8729 0 0 2.5706 0 117.94 123.42
46 0 0 0 0 0 0 111.91 111.27
47 0.5511 0.9737 -0.6673 0.5511 0.9737 -0.6673 111.27 111.27
48 0.5511 0.9737 -0.6673 0.5511 0.9737 -0.6673 111.27 111.27

Improper Coeffs # class2

1 0 0
2 0 0
3 0 0
4 0 0
5 0 0
6 0 0
7 0 0
8 0 0
9 0 0
10 0 0
11 0 0
12 0 0
13 0 0
14 0 0
15 0 0
16 0 0
17 0 0
18 0 0
19 0 0
20 0 0
21 0 0
22 0 0
23 0 0
24 7.8153 0
25 4.8912 0
26 0 0
27 13.0421 0
28 0 0
29 0 0
30 0 0

AngleAngle Coeffs

1 2.0403 -1.8202 1.0827 108.4 110.77 111
2 1.0827 -1.8202 2.0403 110.77 108.4 111
3 0.2738 -0.4825 0.2738 110.77 110.77 107.66
4 0.2738 -0.4825 0.2738 110.77 110.77 107.66
5 2.4286 0.5381 -2.5301 110.77 111.91 110.62
6 0.1689 2.5926 3.9177 111.27 110.77 108.728
7 0.2738 -0.4825 0.2738 110.77 110.77 107.66
8 3.9177 2.5926 0.1689 110.77 111.27 108.728
9 3.9177 2.5926 0.1689 110.77 111.27 108.728
10 0.1689 2.5926 3.9177 111.27 110.77 108.728
11 0.1689 2.5926 3.9177 111.27 110.77 108.728
12 0 0 0 111 111 111
13 2.3794 3.0118 2.3794 111 111 107.66
14 -0.3157 -0.3157 -0.3157 107.66 107.66 107.66
15 2.4321 2.4321 -3.5496 107.66 110.62 110.62
16 2.4259 2.4259 2.1283 107.66 108.728 108.728
17 2.4259 2.4259 2.1283 107.66 108.728 108.728
18 -1.3199 -1.3199 0.1184 112.67 110.77 110.77
19 -0.833 -0.833 -3.5744 112.67 111.27 111.27
20 0.1689 2.5926 3.9177 111.27 110.77 108.728
21 -1.3199 -1.3199 0.1184 112.67 110.77 110.77
22 -0.833 -0.833 -3.5744 112.67 111.27 111.27
23 0.1689 2.5926 3.9177 111.27 110.77 108.728
24 0 0 0 120.05 120.05 118.9
25 0 0 0 118.9 117.94 117.94
26 0 0 0 118.9 120 120
27 0 0 0 118.9 123.42 123.42
28 0 0 0 112.444 109 109
29 0 0 0 110.954 109 110
30 0 0 0 110 110 107.067

Atoms # full

351 1 4 0 7.663052912391485 7.078417313483516 8.140288779645502 0 1 0
344 1 4 -0.1268 8.128135414359338 9.087729562363812 6.717065463803246 0 1 0
347 1 4 0 7.184861532984553 8.165253359901818 7.326578994981947 0 1 0
341 1 5 0.1268 7.702899099327891 9.893349920615337 6.108430017599426 0 1 0
165 1 1 -0.106 5.715588657168786 8.38029661344419 7.165750582148959 0 1 0
162 1 1 -0.159 5.062678421625815 7.7192331772530665 5.92338913510969 0 1 0
166 1 5 0.053 5.538691989110434 9.497686110751715 7.030215526649037 0 1 0
164 1 5 0.053 5.07349112937992 8.273560704358886 8.065836287298843 0 1 0
173 1 8 -0.1654 6.853816625086151 6.244537304718853 9.027670299057043 0 1 0
244 1 1 -0.0233 5.996640376309657 5.44708433369957 8.13476014794303 0 1 0
281 1 4 0 2.8534900568040547 6.816695290671236 2.410483862804184 0 0 0
527 1 11 -0.5571 4.160039922765806 4.035160095873644 5.359702524529897 1 0 1
531 1 2 0.08 2.9421479924799385 3.398542796113844 5.078719777921523 1 0 1
227 1 7 0.4241 4.473084589590443 4.611172665616309 4.624771369450809 0 0 0
167 1 5 0.053 7.025669633474185 9.020615482807543 3.2916438858866863 0 0 0
349 1 4 0 9.450630839893016 8.837677005070926 6.818677269751266 0 1 0
356 1 4 0 9.026987227779063 7.02908664149184 8.322787432138341 0 1 0
160 1 5 0.053 4.7389898330154 6.671888246716785 6.078510781041872 0 1 0
159 1 5 0.053 5.745784786345129 7.847287334913126 5.127779273787393 0 1 0
161 1 5 0.053 4.132106113201341 8.219157012826587 5.6289317661635545 0 1 0
47 1 4 -0.1268 8.048545331995602 6.6768521103151866 3.8423722526139805 0 0 0
45 1 5 0.1268 7.88910753491827 7.524016228309721 4.477915165515226 0 0 0
258 1 5 0.053 5.120183219443913 10.142066552126233 9.537911152133523 1 -1 1
247 1 2 0.08 5.853530409356959 3.8900220970812227 8.481551074017805 0 1 0
246 1 5 0.053 5.627913661994316 3.400678619696732 7.457912163854 0 1 0
245 1 5 0.053 6.421973906656227 5.428540968839056 7.104016957827747 0 1 0
252 1 1 0.027 7.129118504756677 3.0854046780918543 8.878912923396161 0 1 0
354 1 4 0 9.90857975325815 7.865672777675484 7.72365463176791 0 1 0
242 1 5 0.053 4.98459971126918 5.871897745773259 8.031823549118023 0 1 0
42 1 5 0.053 4.518285237247752 9.533994233454287 3.109656421486433 0 0 0
361 1 1 -0.159 9.595894998505893 5.926146401998192 9.311186514201164 0 1 0
462 1 4 0.0265 9.282092760410276 2.281730036123209 8.437037891661157 0 1 0
532 1 1 0.027 2.6969004366515406 2.530119660693533 6.305180757495586 1 0 1
283 1 4 0 2.8257669681738236 8.200334095926605 1.9793625066098717 0 0 0
461 1 10 -0.1595 8.263956395153695 3.005399913665226 7.995200703498759 0 1 0
140 1 2 0.08 2.94558042877121 10.062705894399985 9.142211028505333 1 -1 1
138 1 5 0.053 3.1585292673303167 9.781485642245633 8.138134314917501 1 -1 1
533 1 5 0.053 3.0397143963728013 2.6754816399813697 4.256668553255004 1 0 1
177 1 4 0 8.929687233133262 4.394287065605621 3.707263592196774 0 0 0
49 1 4 -0.1268 8.649516642655758 5.552794660934237 4.418073153239451 0 0 0
132 1 5 0.053 9.657412645527556 2.3245165254574878 3.6395811913893357 0 0 0
447 1 1 -0.159 4.214124938236209 6.209213840493921 2.2892248691790376 0 0 0
50 1 5 0.1268 8.791510060612257 5.562686400425044 5.515868290967047 0 0 0
56 1 1 -0.106 9.726997334629939 3.2212052487748295 4.26181528483575 0 0 0
57 1 5 0.053 9.3060196622233 3.0598520879315965 5.277969585765218 0 0 0
253 1 5 0.053 6.691801154532027 2.087477820444012 9.02741581635464 0 1 0
243 1 11 -0.5571 4.746875168729787 3.6156398484870724 9.29961644214073 0 1 0
314 1 5 0.053 5.923698600705404 7.88160753383761 9.828618856150158 0 0 0
139 1 11 -0.5571 3.016184299542556 8.809543856655853 9.893740077958908 1 -1 1
446 1 5 0.053 4.159085865667714 5.154718167882191 2.557972727458883 0 0 0
41 1 1 -0.0233 4.716358358133249 9.777226933547295 2.0325636422576583 0 0 0
381 2 5 0.053 6.824332884020665 2.7535721724425857 5.739655956086498 0 0 1
360 1 5 0.053 9.112390600548402 4.961417561444675 9.223763387021368 0 1 0
280 1 4 0 1.676765940529097 8.971249570947784 2.205567984818633 0 0 0
278 1 4 0 1.7312100270671673 6.223571411696036 2.974047258068712 0 0 0
116 1 8 -0.1654 1.8231411543306417 4.705677310166314 3.204079224755005 0 0 0
528 1 1 -0.0233 1.7638505154531035 4.329304085577673 4.673161103962349 1 0 1
508 1 5 0.053 2.239980497040696 2.9596433068668766 7.181570010726712 1 0 1
507 1 5 0.053 1.6864695492464497 5.290431628465781 5.252519407215848 1 0 1
421 1 4 -0.1268 10.584580209496592 2.6918288436785414 8.144565078467139 0 1 0
124 1 4 -0.1268 8.505012140161536 4.341751642261521 2.342774773945729 0 0 0
174 1 4 0.0265 7.655220169309794 6.584430326351329 2.4908846667061155 0 0 0
176 1 4 -0.1268 7.828791855570718 5.386837588862901 1.786265142106417 0 0 0
127 1 5 0.1268 8.754992330415968 3.476492450925645 1.6661556835282663 0 0 0
345 1 1 -0.106 10.458627248660422 9.783409023967362 6.119967174894095 0 1 0
311 1 1 -0.0233 6.312128442325169 6.940448330639732 10.184079128260803 0 0 0
401 1 5 0.053 9.633102687537965 10.016691862334275 4.197209917545281 0 1 0
403 1 1 -0.159 10.501797743340312 9.571951362923345 4.659461726294471 0 1 0
459 1 5 0.053 7.527836853084816 3.387294943910409 9.861746728178728 0 1 0
450 1 5 0.053 4.749857682671662 6.610752222222546 3.172783789371926 0 0 0
420 1 5 0.1268 10.684700867270296 3.497228373992751 7.441198343980614 0 1 0
363 1 5 0.053 10.70296064890586 5.6462140638157265 9.185472758927563 0 1 0
399 1 5 0.053 10.631957622174108 8.492387382550108 4.335077452343379 0 1 0
175 1 7 0.4241 4.77496261562768 4.408168813116468 9.884524344796956 0 1 0
535 1 5 0.1268 2.73680154169689 19.36780906246413 8.631614055186226 1 -1 1
168 1 1 0.027 7.20191294551898 8.982485957991074 2.2439856400555844 0 0 0
530 1 5 0.053 3.6973375909014616 2.1364113777310565 6.688833086169662 1 0 1
172 1 5 0.053 8.187882716848543 9.323706309651902 2.0299366111650476 0 0 0
362 1 5 0.053 9.43337917194982 6.235261325030466 10.364385508653907 0 1 0
169 1 10 -0.1595 7.099967639148023 7.608514321258099 1.8060708584154048 0 0 0
457 2 5 0.1268 9.700209968371095 10.037039721541118 9.452263813003146 0 0 0
282 1 1 -0.106 19.545750147014157 10.398663722887356 1.733181891858597 -1 0 0
534 1 10 -0.1595 1.8400220429325083 19.604925082571008 5.9961642232067955 1 -1 1
456 2 4 -0.1268 9.940416833656506 10.883516367799222 10.124357980779216 0 0 0
389 2 5 0.053 5.9881715659351515 2.028622554482173 4.382667230425012 0 0 1
36 1 5 0.1268 1.6238455639188243 18.14716448544583 10.252282528272962 1 -1 1
407 1 5 0.053 11.27444198753888 10.227422455589908 4.292359552995087 0 1 0
221 1 5 0.053 13.58661510879422 19.105956056567525 10.268371266231897 0 0 0
313 1 11 -0.5571 4.023725237027749 6.047003296050798 10.34285140954445 0 0 0
425 1 4 -0.1268 13.5059992000203 16.100099427897213 10.222690405925453 0 0 0
122 1 5 0.053 15.948891372954616 1.6095306344103448 10.000285107383847 -1 0 0
346 1 5 0.053 11.435954391933 9.78563535524826 6.590089750640677 0 1 0
529 1 5 0.053 19.007011632573352 3.9094713552055675 4.881753481954002 0 0 1
271 1 5 0.053 19.199371137432156 2.84637564120833 2.59774409009314 0 1 1
357 1 8 -0.3314 11.338890973732644 7.648974664480109 7.819034022412404 0 1 0
158 1 5 0.053 18.53031323782517 6.970926603758556 5.526316609999844 -1 0 0
269 1 1 -0.0233 19.22182447528368 3.9015546431280925 2.2780451896877216 0 1 1
359 1 6 0.2487 11.352634394537226 7.104518091843247 8.7014876186327 0 1 0
224 1 5 0.053 12.12584955974362 5.952416481552144 6.902962078466304 -1 0 0
157 1 5 0.053 16.97700020684076 6.405369858805437 5.909159496602336 -1 0 0
223 1 1 -0.0233 12.064139933227898 6.983325468088497 6.739980593627844 -1 0 0
249 1 5 0.053 16.80983859490413 5.039256684651366 8.449164648955989 -1 0 0
270 1 5 0.053 18.124017384538 4.27105090535034 2.120364109514092 0 1 1
137 1 5 0.1268 13.421473585700655 8.691359924413607 1.9052933990356415 0 0 0
115 1 5 0.053 17.17363910222248 8.086596956203097 5.21936453803222 -1 0 0
18 1 5 0.1268 11.354126651998586 5.387569952810702 3.3389036999388484 0 0 0
277 1 4 -0.1268 18.758686502452672 8.318357916588717 2.6231325208423506 -1 0 0
276 1 4 0 18.7580736717697 7.013971078871187 3.070848677263826 -1 0 0
275 1 5 0.1268 17.80278624514732 8.795742747827278 2.6914242498833287 -1 0 0
432 1 5 0.053 14.620020050455063 7.456362197549805 8.07734810767835 -1 0 0
291 1 9 -0.266 14.801802617956021 4.105666440063027 8.54121119619415 -1 0 0
15 1 4 0 11.197208867145223 3.554825866784327 4.506083871304252 0 0 0
17 1 4 -0.1268 11.867471122033345 4.604244273803046 3.926855849598586 0 0 0
113 1 1 -0.159 17.510648233476626 7.004615009282995 5.157972746983188 -1 0 0
117 1 5 0.053 17.54898823268799 5.342408489464214 3.842512099532831 -1 0 0
274 1 1 -0.106 17.49264556088554 6.449382447699731 3.739255603633675 -1 0 0
379 1 2 0.08 13.397876513725684 7.609550252629857 6.297101783288846 -1 0 0
273 1 5 0.053 16.610687312286647 6.728403077146282 3.1225174903794324 -1 0 0
12 1 4 0.0265 14.063085867699467 3.7624301256529376 4.656169157868907 0 0 0
14 1 4 -0.1268 13.271146635187703 4.697402053665142 3.9093857178629343 0 0 0
13 1 4 -0.1268 11.991895203594195 2.691616184811219 5.272973164939536 0 0 0
9 1 10 -0.1595 15.449107382077043 3.829469838782926 4.586000247006899 0 0 0
125 1 11 -0.5571 16.217685771291574 10.144274066095912 3.5442405980503207 0 0 0
11 1 4 -0.1268 13.390008372990943 2.751010558928955 5.363791317446181 0 0 0
123 1 3 0.08 15.805019432561778 3.086485899883872 8.500863122210344 -1 0 0
193 1 11 -0.5571 13.084587464105297 8.497865613250337 5.248966800722263 -1 0 0
297 1 5 0.053 16.126893752144994 4.493911944842978 6.827707936412373 -1 0 0
294 1 1 0.027 16.067648956766163 4.391931645253827 7.896298062413141 -1 0 0
16 1 5 0.1268 13.724204861321715 5.525688446295016 3.358351201487253 0 0 0
387 1 5 0.1268 16.36810577247553 8.820991459140775 9.0430736586571 -1 0 0
430 1 1 0.027 14.377582612864844 8.24949701934641 7.390524336397209 -1 0 0
378 1 5 0.053 13.885286886700035 6.75973895670723 5.824538569812031 -1 0 0
428 1 5 0.053 15.423882162433353 8.445171638429215 6.98026948716809 -1 0 0
6 1 5 0.053 17.309696187504787 3.1090988993229876 5.084010474006927 0 0 0
8 1 1 0.027 16.26529149616895 2.70903380566192 4.834822783055732 0 0 0
355 1 7 0.4241 12.17142537041132 8.722918371360706 5.411307841261232 0 1 0
222 1 5 0.053 11.429018376958268 6.956033162772101 5.74341834412683 -1 0 0
380 1 10 -0.1595 13.77247057628441 9.30800831616856 8.109603393275584 -1 0 0
422 1 5 0.1268 12.60720855538413 2.500290169379378 8.38447288511173 0 1 0
388 1 4 -0.1268 15.722152216964878 9.55361637333562 9.540681360157473 -1 0 0
292 1 5 0.053 15.50177541377795 2.1929037773637443 7.972177800694654 -1 0 0
423 1 4 -0.1268 11.68258710447985 2.0746650464814183 8.682279145138248 0 1 0
53 1 5 0.1268 11.545574537217089 1.8579355837868494 5.876755647221451 0 0 0
384 1 4 0.0265 14.394447743540942 9.721381546969027 9.265387782350953 -1 0 0
144 1 5 0.053 19.000299301425997 10.180536326006566 9.29723918382497 0 -1 1
5 1 5 0.053 16.093333709657397 2.3084871555775317 2.692198938582579 0 0 0
207 2 5 0.053 17.775254957806677 6.840986355261116 9.866426410164435 0 0 0
241 1 10 -0.1595 17.623869657949527 2.673169433706663 10.192629342414179 -1 0 0
248 1 5 0.053 14.29397379457593 10.442918183771411 2.9896224202233554 0 0 0
121 1 1 0.027 16.23605251069239 2.648849911173473 9.907861870939364 -1 0 0
219 1 1 -0.106 12.63745533610564 18.491118482846773 10.213602636043301 0 0 0
7 1 5 0.053 15.84929132550581 2.152100391174513 5.6864561661037225 0 0 0
43 1 2 0.08 6.163283655652213 9.977727228846955 1.6924557025329419 0 0 0
416 2 5 0.1268 13.311846372719346 6.508540064576192 10.352615077035543 0 0 0
10 1 5 0.1268 13.873001597601714 2.0325828510858073 6.076471878317494 0 0 0
443 1 5 0.053 3.7153878653132453 3.498862365788394 1.6998734466828518 1 1 1
153 1 7 0.4241 15.7191306211777 10.288559870845768 4.371427123193351 0 0 0
4 1 2 0.08 16.340039198339618 1.7878328938955648 3.604985481232136 0 0 0
212 2 5 0.053 19.283580544065575 5.955427705923377 10.482984805020184 0 0 0
62 1 5 0.053 11.203906349688014 17.66820901330662 1.9572371186294668 0 0 0
257 1 1 -0.0233 4.25938793261367 10.836255914649284 9.605571538860668 1 -1 1
317 2 8 -0.1654 5.192795751334032 15.236039571124772 1.504407080772735 0 -1 1
289 1 5 0.053 19.26578775398925 11.04680938827523 3.824622787580308 -1 0 0
288 1 5 0.053 2.5581195935620853 11.428485377845695 3.102078789294363 0 0 0
267 1 4 0 13.107349026848336 14.172362104869027 2.7563876987656326 0 0 0
332 2 5 0.053 5.633244076638354 18.861367498159883 6.687415778954556 0 -1 1
383 2 1 -0.159 6.785580845140394 1.820768650331526 5.106552532941619 0 0 1
39 1 11 -0.5571 6.4872907798514445 11.342607160985898 1.977231164284766 0 0 0
512 2 5 0.053 7.609212619143523 1.6975494544581742 4.396659029337816 0 0 1
256 1 5 0.1268 8.164330197735843 18.773252003046533 9.368224515429084 0 0 0
255 1 4 -0.1268 9.143447746632635 19.307072481862395 9.162761668942519 0 0 0
340 1 5 0.053 10.152587576723027 10.78166296565941 6.24111710245385 0 1 0
510 2 1 -0.159 2.0370415649307985 16.929996896978356 3.189659653950229 0 -1 1
67 1 4 0 5.534784857175327 13.41096414749561 10.440686632877373 0 0 0
48 1 5 0.053 7.087485854811381 11.848082758929841 9.648430353514025 0 0 0
74 1 6 0.2487 3.7627525056717412 12.093562611947172 8.094766677582866 0 0 0
72 1 8 -0.3314 4.52936036328003 11.988282538211818 8.682472598693261 0 0 0
324 2 5 0.1268 4.1690356381441855 18.630140856511044 4.369424515478929 0 -1 1
323 2 4 -0.1268 4.828960549020538 17.78273976746813 4.225198993985483 0 -1 1
152 2 1 -0.159 7.368639852951319 14.527087004173481 3.3663286709303444 0 -1 1
68 1 4 0 3.9476346322181093 14.325468982056773 8.784063461022729 0 0 0
327 2 8 -0.3314 8.023779213211093 16.34778572169867 5.464197265793466 0 -1 1
322 2 4 0 6.516297906242675 15.723118974545088 3.5744133041624835 0 -1 1
320 2 4 0 5.310062372294997 15.84753817370588 2.792981612302966 0 -1 1
325 2 4 0 6.796489090418681 16.588425385185527 4.663032318564484 0 -1 1
326 2 4 0 6.037823383920542 17.726134398499045 4.9176836107415145 0 -1 1
321 2 4 0 4.487337348851966 16.974208654879515 3.1636033039765237 0 -1 1
451 2 5 0.053 7.047628946593986 14.893732616513358 6.875278363695295 0 0 0
328 2 1 -0.106 6.464185689939211 18.80383447298227 5.937499825176132 0 -1 1
385 2 5 0.053 7.334918629023769 18.448412724009046 6.557765562062988 0 -1 1
569 2 1 -0.0233 7.729732820470978 15.755358143623075 6.82254561408044 0 0 0
156 2 6 0.2487 8.719592245248798 15.721897636945071 5.03984823317611 0 -1 1
100 1 5 0.1268 3.6398320636836603 16.430201819739743 9.087210434485513 0 0 0
66 1 4 -0.1268 4.096078492051321 15.500797578338974 9.464094818134274 0 0 0
567 2 5 0.053 7.3405220116694805 16.613730707264207 7.386148955675791 0 0 0
70 1 4 0 4.666727323063229 13.253007816282302 9.32009883860831 0 0 0
71 1 1 -0.106 2.993855156539124 14.329879083750887 7.585427286026927 0 0 0
566 2 5 0.053 8.428028725007778 15.635099952851384 9.524987249943436 0 0 0
571 2 1 0.027 8.852638726489518 14.845979527790844 8.922697792640841 0 0 0
204 1 1 -0.159 3.8773201540107993 14.204807292677266 6.329335916483591 0 0 0
568 2 2 0.08 8.97873182878679 15.2373059003726 7.441134012612925 0 0 0
202 1 5 0.053 4.422652832812027 15.12230789961124 6.2863427289738105 0 0 0
75 1 5 0.053 2.160093746896248 13.613817034463919 7.588278245962601 0 0 0
205 1 5 0.053 3.1792191290392493 14.095845769041082 5.48645842192801 0 0 0
570 2 5 0.053 8.128769651102376 14.003083873986151 9.062685307035455 0 0 0
101 1 5 0.053 2.5104124729966912 15.3319223660252 7.476678421091379 0 0 0
154 2 5 0.053 7.348054800939087 14.104514794044492 4.346718371399612 0 -1 1
151 2 5 0.053 8.431139785983525 14.717555358231612 3.0669905649052494 0 -1 1
150 2 5 0.053 6.944560338164288 13.751304895034428 2.713537056863679 0 -1 1
564 2 11 -0.5571 9.43069413563251 14.10799665747978 6.66719985014028 0 0 0
452 2 5 0.1268 9.446155912290635 12.220569582683924 8.573615541829348 0 0 0
453 2 4 -0.1268 9.782342637664222 12.148712952572124 9.59933219215661 0 0 0
565 2 5 0.053 9.807626056083137 16.02790598127334 7.43324916610608 0 0 0
203 1 5 0.053 4.386128378605275 13.246679042440334 6.355213772036208 0 0 0
509 2 5 0.053 2.033249079333572 15.90025123858109 3.607228265351946 0 -1 1
575 2 4 0.0265 10.129442092496037 13.30565611811514 10.254489391586512 0 0 0
583 2 5 0.053 2.0272126048004893 17.547127228746202 4.023581428953224 0 -1 1
319 2 1 -0.106 3.2272649853267064 17.347677417645276 2.3861220126273226 0 -1 1
217 1 4 -0.1268 10.215235264186033 18.698276060435155 9.734872830855386 0 0 0
573 2 10 -0.1595 10.131179734252283 14.575741843135935 9.60590035062087 0 0 0
316 2 5 0.053 3.180317161940713 18.449982191752618 2.2739075330364753 0 -1 1
287 1 1 -0.159 1.4717993762829853 11.403541201770421 2.8656129184514425 0 0 0
32 1 4 -0.1268 1.8486546234176937 18.878648258522823 8.291674394385542 1 -1 1
141 1 5 0.053 1.525060445128689 11.449446778984164 8.256190798435483 1 -1 1
83 1 5 0.053 10.512942958626745 18.508359663757425 4.113910878200043 0 0 0
546 1 5 0.053 5.3249393932881315 18.128608701544234 9.620262214530701 0 0 0
82 2 5 0.053 3.306652670976277 14.679848944412118 2.0914910636224735 0 0 1
142 1 1 0.027 1.6265194203812952 10.892909232593686 9.210821822344428 1 -1 1
143 1 10 -0.1595 1.655472642721878 11.726078941438791 10.376278020501566 1 -1 1
171 1 7 0.4241 3.5660763864747094 6.8955947740218155 10.10214773766324 0 1 0
220 1 5 0.1268 10.025873616321828 17.84539811353262 10.354721579744401 0 0 0
31 1 1 -0.106 17.332528048943438 16.78336214822427 10.095770772325835 0 -1 1
225 1 5 0.053 12.495466042143233 18.847425315718844 2.4332243323413736 0 0 0
29 1 4 0 17.9277218668011 15.402654338501593 10.170537381033498 0 -1 1
251 1 2 0.08 15.296705201233292 10.687011489710974 2.5558067124590202 0 0 0
89 1 1 -0.106 12.085121636245054 17.834510838571425 2.63467592263408 0 0 0
146 1 4 0.0265 19.178988477844385 12.884086324548187 10.250713233715869 0 -1 1
261 1 5 0.053 11.784413461835891 13.033101812149727 3.9474246396270267 0 0 0
489 1 5 0.053 19.251627368653093 12.41361872671181 2.6547936734913167 -1 0 0
35 1 5 0.053 16.221732291847637 16.78153675490885 9.818663664861951 0 -1 1
38 1 5 0.053 17.024834711728193 16.015482788102528 1.713804147173636 0 0 0
371 1 4 0.0265 13.397678236571716 14.574060038970172 8.367718633264449 0 0 0
93 1 5 0.053 17.061245881805867 14.740577073407948 3.078062417394916 0 0 0
264 1 5 0.053 11.028153045333896 11.414340852794567 2.153531595498932 0 0 0
94 1 5 0.053 16.973051130952783 16.471438766264214 3.3694332817392567 0 0 0
28 1 5 0.1268 16.72277501144432 14.587318945934058 8.516246273984791 0 -1 1
110 1 5 0.053 11.190532241419799 16.930817433871944 4.464784429171756 0 0 0
376 1 5 0.1268 14.22778278137001 14.08356407465383 10.25444067302602 0 0 0
26 1 4 0.0265 19.541760934857905 18.916023960883575 7.015861441643193 0 -1 1
262 1 1 -0.106 12.377125908937261 12.90333731144329 3.0564085932391056 0 0 0
23 1 4 -0.1268 17.649836352636108 17.48318650016421 7.7701428567060065 0 -1 1
148 1 4 -0.1268 18.161567849863882 13.166782565260684 9.330123739060731 0 -1 1
367 1 1 0.027 14.070422531013705 13.464117617720953 6.358226933008154 0 0 0
21 1 5 0.1268 16.62562610071381 17.02748456341977 7.554549110164372 0 -1 1
368 1 2 0.08 15.253273969682278 12.694306525343512 5.892212838254564 0 0 0
372 1 1 -0.0233 15.910233931554698 13.287899787907056 4.683644941993169 0 0 0
30 1 4 0 18.15740161582808 17.471010322269397 9.025613002214778 0 -1 1
511 2 5 0.053 19.4458382374299 17.00321945608593 2.5499598818735185 -1 -1 1
386 1 4 -0.1268 13.740296081067674 10.62658206872104 10.068807722849835 -1 0 0
366 1 5 0.053 16.061307823244178 12.702130141345869 6.609198097118991 0 0 0
92 1 1 -0.159 16.59744418716034 15.717680199281169 2.697192023021994 0 0 0
268 1 4 -0.1268 12.439347629325942 15.424198252816318 2.7130084720094607 0 0 0
103 1 5 0.053 16.70316485198644 12.26921390693569 2.060474509718207 0 0 0
111 1 4 0 13.040769070368398 16.653478154305905 2.576006231368203 0 0 0
24 1 4 -0.1268 17.49759372905757 14.430491290726433 9.304673016049389 0 -1 1
375 1 5 0.053 16.06139914479008 14.371694080135663 4.848747083491121 0 0 0
365 1 5 0.053 14.201064785560689 14.515160690787189 6.075654413495483 0 0 0
369 1 10 -0.1595 13.791434191621201 13.358441934587503 7.758113940009623 0 0 0
373 1 5 0.053 16.956887055834308 12.881952999522298 4.686288275476725 0 0 0
112 1 4 0 15.130325757857896 15.59236305615542 2.6799172338719046 0 0 0
109 1 4 0 14.529852059760486 14.280332770960797 2.8616888674921883 0 0 0
155 1 8 -0.1654 15.153251488233192 13.092831914303401 3.390034510245642 0 0 0
184 1 5 0.1268 12.629439783539318 15.446844428200292 6.557339548875433 0 0 0
37 1 7 0.4241 14.561598609295647 11.053789951066411 6.7033743923822415 0 0 0
99 1 5 0.053 14.232695295758074 19.189147328349087 3.801549016223646 0 -1 0
145 1 5 0.1268 17.70734823922446 12.393974228303431 8.669354137025643 0 -1 1
87 1 5 0.053 12.172247227741753 18.297584204199577 4.709143600745996 0 0 0
3 1 1 -0.0233 15.25634215484091 18.844449546306322 3.5721811195567263 0 -1 0
364 1 5 0.053 13.120545909133035 13.334314861913745 5.778919813774886 0 0 0
85 1 1 -0.159 11.467555838622228 17.920571499893644 4.039595071948299 0 0 0
266 1 5 0.1268 11.336444546307733 15.258741940092184 2.759332667138934 0 0 0
218 1 4 0 12.873596968860635 17.1275642684329 9.511339530974174 0 0 0
216 1 4 -0.1268 12.55306364948979 16.91527371051803 8.170046212752375 0 0 0
97 1 7 0.4241 17.99697932220531 19.211443519958227 2.7464934637692355 0 0 0
370 1 11 -0.5571 14.952858132549327 11.300694888431021 5.851881260513954 0 0 0
329 2 7 0.4241 10.297122922769411 13.806052173765421 6.979837743699235 0 -1 1
91 1 4 0 14.454645770465866 16.74585759922521 2.4923472641969413 0 0 0
260 1 5 0.053 13.068200062381221 12.085739342321808 3.2075604839748695 0 0 0
20 1 5 0.1268 17.895049792139915 18.318029974461897 5.801323936829474 0 -1 1
424 1 4 0 11.499560181842158 19.279335839396946 9.584859457225367 0 0 0
22 1 4 -0.1268 18.323753390809344 18.215511900997896 6.7794139062417145 0 -1 1
33 1 4 -0.1268 19.394291020961706 18.092051381978383 9.254614448737087 0 -1 1
95 1 8 -0.1654 15.191176420284075 18.07027545510059 2.3319364934134486 0 0 0
374 1 4 -0.1268 13.763812054782376 14.8635322735954 9.65019139462478 0 0 0
2 1 5 0.053 15.494920955551308 18.181266207541764 4.394754333081323 0 -1 0
1 1 11 -0.5571 17.660573120909905 19.510886691909594 3.627195057813165 0 -1 0
263 1 1 -0.159 11.519739343826403 12.39372829031526 1.8815975531679023 0 0 0
382 1 5 0.1268 12.630359387948614 10.81916653254224 10.009719013573969 -1 0 0
188 1 4 -0.1268 12.826052780935198 15.65015725424865 7.63303199872477 0 0 0
215 1 5 0.1268 12.153037393130779 17.717067195417666 7.473185439666985 0 0 0
250 1 1 -0.0233 15.575862121150552 12.205410423912237 2.3155018250435764 0 0 0
259 1 5 0.053 10.615433315280908 13.053596505276145 1.6957696622365495 0 0 0
552 2 5 0.053 4.333818037094542 13.212817293535071 1.6940008040628711 0 0 1
73 1 7 0.4241 2.1500674637269963 8.783037454311817 10.435351665475862 0 0 0
40 1 5 0.053 4.193007822249367 10.734012296934775 1.8710760642609545 0 0 0
119 1 5 0.053 15.516024056006362 3.218112805205404 10.575603991206824 -1 0 0
69 1 1 -0.159 6.526546998512784 12.223452233429692 10.55153838078883 0 0 0
521 1 2 0.08 2.9978832491471614 7.841179299314855 17.253764793831618 0 0 0
523 1 1 -0.0233 3.764861082443255 8.999628074158007 18.074387846745655 0 0 0
186 1 4 0 8.878824584444871 8.72698065738793 16.770022239305202 0 0 -1
310 1 1 0.027 5.446757530591531 5.295659286384829 12.159131394833874 0 0 0
377 1 5 0.053 4.477170537059402 5.150970014659219 12.68320838427004 0 0 0
306 1 10 -0.1595 6.509939863247628 5.744711207935565 13.08439547348567 0 0 0
304 1 4 0.0265 7.781225399280477 5.084921992582039 12.984966933157663 0 0 0
182 1 4 -0.1268 7.811933724187139 8.321678827322286 15.918329717708104 0 0 -1
178 1 5 0.1268 7.789946193499739 7.22040552678146 15.627268405510929 0 0 -1
181 1 4 -0.1268 6.7793743659345385 9.151305408486161 15.643261266043377 0 0 -1
51 1 5 0.1268 5.917459149372364 8.784391607026325 15.060316896495666 0 0 -1
519 1 11 -0.5571 4.029500160511552 6.9955378314604895 16.751193605573025 0 0 0
524 1 5 0.053 2.935668610841483 9.364384977287882 15.766606134415541 0 0 0
170 1 5 0.053 6.113598005563732 9.81675397029829 18.832559449434505 0 0 -1
189 1 5 0.053 9.380659724892768 7.191832768270946 18.10735976785087 0 0 -1
286 1 7 0.4241 4.504518149338974 6.717685635481385 17.58157765569093 0 0 -1
522 1 5 0.053 4.780914275390284 9.2210711524399 17.525957284026433 0 0 0
301 1 4 -0.1268 7.8616128791284225 3.7062527256080284 12.898378814955414 0 0 0
469 1 4 0.0265 5.061317458162211 3.2515555076090936 17.59790096319169 1 1 0
190 1 4 -0.1268 8.851586920635995 10.045358059103192 17.21469284155811 0 0 -1
187 1 1 -0.106 9.874024111268932 7.655671769477695 17.24048484185775 0 0 -1
305 1 4 -0.1268 8.944225538351638 5.8607000793760236 13.057547825182013 0 0 0
307 1 5 0.1268 8.897248080326566 6.927713502140844 13.135618218419497 0 0 0
300 1 5 0.1268 7.039564457792179 3.037017709015213 12.977008075859908 0 0 0
516 1 4 0 7.762107957729549 2.4454896579546137 17.03233563420072 1 1 0
331 1 4 -0.1268 5.863620185159242 3.9358318447103846 16.680432992198636 1 1 0
330 1 5 0.1268 5.450702155639261 4.816228701022583 16.179493364367655 1 1 0
333 1 4 -0.1268 7.137537115876301 3.4784484378927685 16.377121891985606 1 1 0
272 1 5 0.1268 7.818748515962265 4.083924455187532 15.68292749469373 1 1 0
298 1 4 -0.1268 9.063167131889413 3.2119375564101587 12.400294569762252 0 0 0
237 1 5 0.1268 3.877956279322434 2.28892623967133 15.289682853365145 0 0 0
183 1 5 0.053 10.032301465496902 6.805802456014004 16.509667472296464 0 0 -1
467 1 10 -0.1595 3.7619711169296988 3.6797734195795213 17.825602210440294 1 1 0
470 1 4 -0.1268 5.561330900426749 2.100265925871623 18.1747802596244 1 1 0
296 1 5 0.1268 9.21841134163128 2.105136124320317 12.259360258135242 0 0 0
315 1 5 0.053 4.853195259810892 7.342015689363143 11.648809718823962 0 0 0
309 1 5 0.053 5.686845136166545 4.343017813780328 11.685528264869841 0 0 0
312 1 2 0.08 5.196539241252379 6.394694581527984 11.086998523221643 0 0 0
526 1 5 0.053 3.2363839898420816 9.896370070955442 17.91515599805012 0 0 0
120 1 5 0.1268 7.720014903626527 5.360453112004793 18.883502360321117 0 0 -1
473 1 1 0.027 3.05669599413007 3.281465609397864 19.00775457327807 1 1 0
475 1 4 0 10.15973473923263 2.7588906402754594 17.05734920990925 1 1 0
525 1 5 0.053 2.3066105888094786 7.258641699228928 17.804899243298692 0 0 0
549 2 5 0.053 9.719365861314218 8.848774075707034 11.882954307352973 0 0 0
520 1 1 0.027 2.306355308654792 8.523300121495037 16.041696852519635 0 0 0
518 1 5 0.053 2.3104996182002777 7.802088144829986 15.232844005123638 0 0 0
562 1 5 0.1268 10.036929750294286 3.9787171965058348 15.191073919295382 1 1 0
471 1 5 0.053 2.960185596390883 2.1976002907152132 18.95977127914422 1 1 0
474 1 5 0.053 1.739120868377971 5.003688454194864 18.81859350416142 1 1 0
230 1 5 0.1268 2.5095432832886555 2.696523005665388 13.476459832773664 0 0 0
226 1 5 0.053 19.67897892527051 2.102630201305851 16.06305094934229 -1 0 0
308 1 5 0.053 7.062778941279438 7.314359729492192 10.837090475882102 0 0 0
472 1 2 0.08 1.682983470948095 3.908423736007254 19.07468650657325 1 1 0
302 1 4 -0.1268 10.183360782384446 5.271553737003936 12.85423046712101 0 0 0
58 1 4 0.0265 6.8002633724527435 10.511060907173155 16.008998768549716 0 0 -1
465 2 5 0.053 3.0505872418898337 16.88473182659972 19.572725448630965 0 -1 0
585 1 4 -0.1268 6.891012136598955 1.723176372474562 17.864706974673613 1 1 0
517 1 5 0.1268 1.7615781463157032 9.701716010182276 13.867462019529215 0 0 0
285 1 8 -0.1654 4.048843168289594 8.729106768916049 19.490181172853358 0 0 -1
515 1 1 -0.106 9.097631173170246 1.7900142021337564 16.707486154130738 1 1 0
460 2 5 0.053 10.2479931563948 9.803937222621894 13.286607879205643 0 0 0
392 1 4 -0.1268 16.25265061755806 10.211745117985503 10.726300101877905 -1 0 0
468 1 5 0.1268 4.950479355800953 1.487310016644504 18.84536357945167 1 1 0
581 2 1 -0.106 10.511556752251344 9.601434017195526 12.237756414030965 0 0 0
299 1 4 0 10.315347836964106 3.952722383226394 12.437119073825755 0 0 0
118 1 5 0.1268 1.7781798798575372 2.9943581930878045 11.143818974816085 0 0 0
513 1 5 0.053 9.139731139770866 1.4936195068913325 15.626901511553063 1 1 0
580 2 4 0 10.380532549397548 10.81186898126346 11.482936249683686 0 0 0
232 1 4 -0.1268 1.6137919597543076 2.2391605666913827 13.098867758673622 0 0 0
229 1 1 -0.106 19.48091270461089 19.422316308117768 15.409275333647347 -1 -1 0
131 1 1 0.027 15.592690831173082 9.97084179864333 19.472983720751838 0 0 -1
233 1 4 0 18.99826462439897 1.5984261558318877 14.039622386348446 -1 0 0
478 1 4 -0.1268 10.793038087434766 2.781160497700939 18.24494133606513 1 1 0
477 1 4 -0.1268 10.578263201275725 3.749019332302718 16.12764459005865 1 1 0
213 2 9 -0.266 18.800874512784766 7.772600497829959 11.467652800500938 0 0 0
185 1 4 0 11.202804119449503 8.253702129078672 17.574969839626736 0 0 -1
234 1 4 -0.1268 19.304310751372864 2.5029455666473694 11.852130837592462 -1 0 0
303 1 5 0.1268 11.087596609803917 5.916409896953601 12.915306158764997 0 0 0
358 1 10 -0.1595 19.162975063831002 8.870115810910065 16.356558573333203 -1 0 0
295 1 1 -0.106 11.607158233758458 3.3269704744190305 12.077396115394604 0 0 0
293 1 5 0.053 11.359920767876934 2.4655047894532327 11.383674267369624 0 0 0
458 1 5 0.053 12.289787972790164 3.9370099634344653 11.506476572281175 0 0 0
418 2 4 -0.1268 11.99863138379484 7.84040545055926 11.38187444612163 0 0 0
214 2 5 0.053 18.62999835618716 6.183447362660547 12.888538714989968 0 0 0
415 2 4 -0.1268 13.192120682749279 7.207415051212155 11.237708491617932 0 0 0
238 1 4 0.0265 17.99258490815434 2.174703683279178 11.44112173049772 -1 0 0
485 1 5 0.053 14.097448340213731 5.126893755135471 16.265710349519345 1 1 0
129 1 10 -0.1595 14.680945029505517 10.446007708094822 18.43543610663845 0 0 -1
136 1 4 -0.1268 11.79364405137817 8.165808801308028 18.805828733306303 0 0 -1
179 1 5 0.1268 11.510492763304693 9.028685676308157 15.490999500559916 0 0 -1
180 1 4 -0.1268 11.94325869704305 8.907223964830651 16.55449719844675 0 0 -1
128 1 4 -0.1268 13.083237924817137 9.602162071855945 16.900864739611833 0 0 -1
130 1 4 0.0265 13.606805749527116 9.58326110098682 18.15182610804958 0 0 -1
211 2 3 0.08 17.983450192353835 6.7464685045817 12.142159771651917 0 0 0
208 2 1 0.027 16.616709252958554 7.132290137596228 12.797820101413274 0 0 0
414 2 4 0.0265 14.211682599791038 7.4365550347244085 12.21712083661548 0 0 0
413 2 10 -0.1595 15.443523336288438 6.746776450937182 12.069831096604286 0 0 0
209 2 5 0.053 16.647900526696258 6.642700374809687 13.77976977376906 0 0 0
412 2 4 -0.1268 13.991840726235015 8.399267557520144 13.187419765876118 0 0 0
490 1 3 0.08 15.46381188731569 6.420196182142506 17.305109242229598 1 1 0
482 1 4 0.0265 12.189978163790654 4.6543138143306315 17.71527925677239 1 1 0
411 2 5 0.1268 14.75128278635943 8.678643851020887 13.907584527439965 0 0 0
466 1 11 -0.5571 19.053126512189824 3.2682641406055053 18.113352728947092 0 1 0
455 2 4 -0.1268 12.855540290566868 9.237207822560798 13.170993899676551 0 0 0
484 1 10 -0.1595 13.2942454491053 5.44034364921337 18.076906839134907 1 1 0
488 1 5 0.053 15.900913312089108 7.201088251750372 16.604877089447886 1 1 0
479 1 4 -0.1268 11.515891997321502 4.758913402098761 16.430109722632928 1 1 0
487 1 1 0.027 14.040233058660535 5.89984719091399 16.967450065231013 1 1 0
486 1 9 -0.266 16.413389133823728 5.327452489396332 17.393221273679735 1 1 0
114 1 7 0.4241 18.53762956607625 3.9219573575113054 17.633208699276704 -1 0 -1
563 1 5 0.1268 11.829318001323893 5.451693553605134 15.62953099054069 1 1 0
491 1 5 0.053 13.485592519746808 6.724334820362925 16.502993207174995 1 1 0
506 1 5 0.053 15.088736146049778 2.792030585947303 17.604561192033348 0 0 0
206 2 5 0.053 16.642448380067563 8.188926038527516 13.0104364863674 0 0 0
497 1 4 -0.1268 13.642980515120584 3.246592973904881 13.59725517492682 0 0 0
495 1 5 0.1268 14.124950211178456 4.126183337667303 13.14050728492728 0 0 0
496 1 5 0.1268 15.223664943267906 3.3338629676243103 15.070758207899427 0 0 0
498 1 4 -0.1268 14.308204986306967 2.8091587666334723 14.736614589484407 0 0 0
480 1 4 -0.1268 11.838111467759854 3.63960937630466 18.58178394705021 1 1 0
417 2 4 0 11.857621524196205 8.95441805792112 12.242615561822735 0 0 0
499 1 4 0 12.393326373831723 2.7034805957573536 13.217823895058439 0 0 0
502 1 4 -0.1268 11.896454189463167 1.6187554385317848 13.939480035055045 0 0 0
126 1 5 0.1268 13.628963424436776 10.101603573696787 16.040214166868893 0 0 -1
353 1 4 0.0265 18.473889038689755 9.5968875675657 15.43414520498732 -1 0 0
582 1 5 0.053 16.24487023506888 1.9295700188641611 16.51855307837136 0 0 0
335 1 5 0.1268 17.376121748378026 10.102281380079086 11.013831482595133 -1 0 0
500 1 4 0.0265 13.837862779018995 1.6878521664812303 15.445680106686668 0 0 0
483 1 5 0.053 18.50494683697946 10.382197383673006 19.610125210458015 -1 0 -1
290 1 5 0.1268 16.767938264549183 9.78005503880815 16.74898367758889 -1 0 0
239 1 4 -0.1268 17.19939760431739 1.5044273887064417 12.393550624441447 -1 0 0
235 1 4 -0.1268 17.711418851654702 19.477032924975514 13.651542724081375 -1 -1 0
240 1 5 0.1268 16.114303086496044 19.668960493569397 12.21132239446084 -1 -1 0
492 1 1 0.027 16.25231870639415 6.087801436391879 18.52625598808741 1 1 0
494 1 5 0.053 17.19737138202676 6.605265415202322 18.827017733562165 1 1 0
493 1 5 0.053 15.743674478468101 5.669381095732289 19.376815638641766 1 1 0
454 2 5 0.1268 12.802027795099928 10.10766868928614 13.861631876570698 0 0 0
501 1 10 -0.1595 14.437393438736578 19.351999613904294 16.539108683461542 0 -1 0
476 1 5 0.1268 10.389925042843588 2.0450159594438757 18.989787296006025 1 1 0
350 1 4 -0.1268 19.008276139919307 9.998264870963363 14.223761608470586 -1 0 0
352 1 4 -0.1268 17.151736176460993 10.021364141503192 15.696018867081394 -1 0 0
135 1 4 -0.1268 12.97512541216684 8.853140814693006 19.138875396315335 0 0 -1
504 1 1 0.027 15.488247453447608 1.8172370278037249 17.267129919571367 0 0 0
481 1 5 0.1268 12.498581530544032 3.5607688200356433 19.562137614876193 1 1 0
133 1 5 0.053 16.59570933655053 10.210500964882911 19.125856890662252 0 0 -1
426 1 5 0.1268 13.992292499156447 16.2571079905589 11.247467966377751 0 0 0
192 1 5 0.1268 9.71116151921771 10.33791204222979 17.91782821224577 0 0 -1
279 1 5 0.053 1.9003207515541556 10.777107296721267 19.034803685703807 0 0 -1
54 1 5 0.053 6.359206038560267 10.969374841866218 13.572139495556751 0 0 -1
201 1 4 -0.1268 3.8319642657674287 19.369759633147755 15.277864756253365 0 -1 0
231 1 4 0 2.6039234290192352 18.699381801038204 15.362445589190344 0 -1 0
254 1 5 0.053 4.195212259057029 11.14694697722039 10.636210957034926 1 -1 1
44 1 5 0.053 6.215408773712313 11.307475406827985 11.160835916794374 0 0 0
60 1 4 -0.1268 7.764870399403578 10.908099303764832 16.985955593716426 0 0 -1
572 1 5 0.053 5.240315283064565 19.19106593978746 11.207399149046186 0 0 0
84 2 1 -0.0233 4.0250027743984145 14.262690600196164 19.609887161217582 0 0 0
584 1 5 0.1268 7.289304287433181 19.066202122853245 18.37494395618302 1 0 0
52 1 5 0.053 4.815133942950752 10.4388594495016 14.048073292276772 0 0 -1
65 1 4 0 5.462861091162081 14.576806137264475 11.203579870275602 0 0 0
409 1 5 0.1268 5.920689175816298 19.42843102694105 14.8993119142628 0 -1 0
539 1 5 0.053 3.6319669206399174 17.417736995997895 11.45642006389115 0 0 0
63 1 1 -0.106 4.70884694452157 17.06422902764973 11.395855516917296 0 0 0
55 1 1 0.027 5.4722856979809436 11.330786292874208 14.159607477672148 0 0 -1
59 1 10 -0.1595 5.91267693806696 11.478776816062856 15.555076187443804 0 0 -1
548 1 5 0.053 8.357207882194842 14.716346175663745 11.790373090706598 0 -1 0
98 1 5 0.053 5.049368266259288 17.00072725461801 12.46169044218648 0 0 0
514 1 5 0.053 9.283069090106334 19.09643097059073 17.190023987767738 1 0 0
544 1 1 -0.0233 7.636678569992461 15.435762296226923 12.20133257482143 0 -1 0
542 1 8 -0.1654 6.344091936759756 14.759428821424196 12.422102662818586 0 0 0
404 1 4 -0.1268 5.010186657772945 18.73318220572921 15.005276864982172 0 -1 0
61 1 5 0.1268 7.818198629288082 11.921405471998453 17.38414090331957 0 0 -1
199 2 11 -0.5571 6.765912106456445 14.116434266060113 16.900949561377423 -1 0 0
445 1 4 -0.1268 2.6625035862521367 17.34573107780214 15.444928771074709 0 -1 0
408 1 5 0.053 8.050791299191506 17.309788143592584 15.245474623789695 0 -1 0
400 1 4 0.0265 5.049439821284164 17.32034626729276 14.998513214476828 0 -1 0
402 1 10 -0.1595 6.139897326044012 16.597591622507455 14.598915467459149 0 -1 0
397 1 4 -0.1268 3.8219192148776786 16.649867856896478 15.323554122176706 0 -1 0
396 1 5 0.1268 3.9039670920962384 15.541731845338097 15.344990618949451 0 -1 0
559 2 11 -0.5571 4.191088187626084 13.239962961081224 17.36303644155077 0 0 0
540 1 7 0.4241 4.495211408570402 14.428217060856642 14.09859026782039 0 0 0
86 2 2 0.08 3.399596161141562 14.176963716955026 18.16112693752713 0 0 0
538 1 5 0.053 8.488389206315556 15.260945724053238 14.10790829858603 0 -1 0
405 1 2 0.08 8.307001750019875 16.12988494124182 13.463580041994343 0 -1 0
406 1 1 0.027 7.488341847183433 17.137610042494572 14.265285199343483 0 -1 0
88 2 5 0.053 3.5029796206886967 15.167963676923558 17.738548971911804 0 0 0
79 1 2 0.08 5.069867416276948 12.777458389908857 13.547743809868509 0 0 -1
77 1 11 -0.5571 4.2126701098203405 13.529765539965984 14.453649163948704 0 0 -1
76 1 5 0.053 6.5330430112393 14.016829144985124 14.4004671986922 0 0 -1
81 1 5 0.053 4.478000915188373 12.662658342354748 12.685955765321125 0 0 -1
78 1 1 -0.0233 6.382619574097224 13.616008544167864 13.395862201597186 0 0 -1
80 1 5 0.053 7.195020948505489 12.95640590871453 13.140408814295755 0 0 -1
197 2 2 0.08 7.2165725947683335 14.563170454821794 18.208819827356503 -1 0 0
195 2 1 0.027 8.638428088286007 15.015304177470059 18.029711465725505 -1 0 0
318 2 7 0.4241 3.944838028665093 13.337914579638737 16.432331317521772 0 -1 0
163 2 5 0.053 8.63576285411813 16.00829223666816 17.447802936241477 -1 0 0
196 2 1 -0.0233 6.241378787885395 15.671406913331401 18.744669536297074 -1 0 0
194 2 5 0.053 5.866585067404987 16.30278809605351 17.818002180558874 -1 0 0
464 2 7 0.4241 5.804219903973795 13.756789068796238 17.123620300358468 0 -1 0
394 2 10 -0.1595 9.48409614536133 14.017947935758075 17.465154967947065 -1 0 0
410 1 5 0.053 7.436866687318325 18.08841524903769 13.727421970423066 0 -1 0
543 1 11 -0.5571 9.51428545479759 16.736788371150876 13.110383029398175 0 -1 0
147 1 5 0.1268 2.125991713130551 13.689563388883208 11.93548329593541 1 -1 1
541 1 5 0.053 7.501504104639118 16.16379420633297 11.464753952279905 0 -1 0
398 2 5 0.053 9.022028509538433 15.42634382848936 19.003342758629216 -1 0 0
561 2 1 0.027 1.8700864520389129 13.771468614673642 18.119425055988184 0 0 0
198 2 5 0.053 6.869350065432097 16.430542038818665 19.245387221448343 -1 0 0
200 2 5 0.053 7.28998000240629 13.780471248100271 18.972817613899124 -1 0 0
547 1 7 0.4241 10.09527035298159 15.957102715709091 13.09286733278814 0 0 0
449 1 7 0.4241 6.339235259617001 11.845474575242038 19.365741354992164 0 0 -1
555 2 4 0 15.835863008902102 15.32152115489037 15.817268654306678 -1 0 0
444 1 5 0.1268 1.7467806280717644 16.803902221143005 15.65504382996014 0 -1 0
64 1 4 0 4.7949137533131205 15.679102452941786 10.702151805677497 0 0 0
46 1 5 0.053 7.505623034200292 12.562728668857313 10.999306353126654 0 0 0
442 2 4 0.0265 10.681273751315983 14.501375353930667 16.897059541101413 -1 0 0
578 2 4 -0.1268 10.645173961800692 11.979209788016785 12.189671024027279 0 0 0
210 2 1 0.027 18.424842893543108 6.631036111897531 10.69475183894476 0 0 0
437 2 5 0.1268 11.051076943229635 12.800829088782894 15.680298702754465 -1 0 0
545 1 1 -0.159 5.482228003621668 18.18424829673257 10.760087696903442 0 0 0
96 1 7 0.4241 15.989957680198144 17.362085731914373 17.560425529500176 0 0 -1
265 1 5 0.053 12.130445449993402 12.276429783741085 19.25630138787861 0 0 -1
228 1 5 0.053 18.83202544455665 18.688886907218187 15.975210818551568 -1 -1 0
390 1 4 -0.1268 14.245861146508428 11.424568775418676 11.064393741275625 -1 0 0
102 1 5 0.053 15.074099743492376 12.454648901861566 19.55128549056231 0 0 -1
463 1 5 0.1268 10.931246967444752 19.300750030020392 13.654246851138128 0 -1 0
440 2 5 0.1268 16.737119229656386 15.662089313708119 13.860979232980986 -1 0 0
574 2 5 0.1268 10.93022481805203 14.175672909486806 12.178942176383726 0 0 0
90 2 5 0.053 1.6681327412245828 12.676163317055357 18.40807287776847 0 0 0
536 2 5 0.1268 18.921103776617063 14.724820770856855 14.37195948050591 -1 0 0
537 2 5 0.053 19.54818114934517 14.538691329891204 18.739384856544934 -1 0 0
395 2 5 0.1268 10.828784520641419 16.252253163913487 18.219282134761265 -1 0 0
149 1 4 -0.1268 19.56064680691949 13.892011090805338 11.103129705710884 0 -1 1
431 2 5 0.053 14.490446946850392 17.037426494374294 15.657168220029961 -1 0 0
577 2 4 -0.1268 10.57080918363713 13.235254647380197 11.596853887098984 0 0 0
427 1 5 0.053 12.449842917294365 18.23603962516634 11.259133312266808 0 0 0
438 2 4 -0.1268 11.452335385860307 13.754890661681426 15.983351475338626 -1 0 0
334 1 4 0 15.634240804426932 11.238835601826715 11.402451411064458 -1 0 0
435 2 4 -0.1268 12.636052282672491 14.194383081908288 15.506546226748327 -1 0 0
236 1 5 0.1268 17.09284000070423 19.112745758114436 14.461004811981606 -1 -1 0
557 2 4 -0.1268 16.877777548999102 15.25664619748297 14.905033205082406 -1 0 0
505 1 5 0.1268 12.212662298791441 18.4900113385022 15.600321904601836 0 -1 0
439 2 4 -0.1268 12.469300668482118 16.018345464974686 16.895362795788394 -1 0 0
558 2 10 -0.1595 1.490707633873079 13.895201814845917 16.742689955577184 0 0 0
27 1 5 0.1268 19.18313961562683 15.923516595308143 11.751432192177354 0 -1 1
108 1 2 0.08 15.995552858549223 19.201826124585967 18.44603371559255 0 -1 0
34 1 5 0.053 17.380931586544605 17.304761741142453 11.069399598172252 0 -1 1
339 1 5 0.1268 18.740907636403215 11.081286934334846 12.406215307816582 -1 0 0
105 1 1 -0.0233 14.809973520470834 18.895631674416187 19.33770053938693 0 -1 0
107 1 11 -0.5571 16.674044240100763 17.940357546982032 17.986045062845182 0 -1 0
551 2 5 0.1268 17.3483946461536 13.826747301111652 18.388321988484986 -1 0 0
343 1 4 -0.1268 18.24413199571499 10.70808530731358 13.322951676090169 -1 0 0
342 1 4 0 16.970520110854302 11.194732806951466 13.570080199224535 -1 0 0
348 1 4 -0.1268 16.451240250262117 10.82441394594693 14.813773422957508 -1 0 0
284 1 5 0.1268 15.516500134240495 11.302362600422724 15.171940527375542 -1 0 0
553 2 4 -0.1268 16.07308255553238 14.677470876107007 17.038708161450426 -1 0 0
429 2 5 0.053 14.38807249395436 15.9084736536089 14.254366655223963 -1 0 0
25 1 4 -0.1268 18.921692529991713 15.165225402470696 11.059245045187366 0 -1 1
104 1 5 0.053 14.030263975504202 18.378380098791375 18.786736110604835 0 -1 0
579 2 5 0.1268 10.98888557266 11.982470739494882 13.234058552629987 0 0 0
433 2 5 0.1268 13.169801706027089 13.609274220735038 14.746363922444147 -1 0 0
434 2 1 -0.106 14.508262224788899 15.967207758454487 15.308341889920772 -1 0 0
554 2 4 -0.1268 17.314904947025944 14.191245521462276 17.385254268061452 -1 0 0
106 1 5 0.053 14.327839654203851 1.5708142781589416 19.666268071947933 0 0 0
19 1 5 0.053 16.77376660700596 1.570640748334366 18.9379922488025 0 0 0
391 1 5 0.1268 13.543993379285713 12.062138855682818 11.687178823909807 -1 0 0
337 1 1 -0.106 16.26251676073621 12.018068103951958 12.49387066715709 -1 0 0
550 2 5 0.1268 15.273950646126012 14.641635692756276 17.720172915884273 -1 0 0
556 2 4 0.0265 18.417488020023903 14.298796189991151 16.48072784473009 -1 0 0
393 2 4 -0.1268 11.249601380003998 15.618418698380719 17.40246238297479 -1 0 0
338 1 5 0.053 15.450476852269205 12.59996369779741 13.001953156463403 -1 0 0
560 2 4 -0.1268 18.128145323442787 14.657337086790568 15.17422533917851 -1 0 0
336 1 5 0.053 16.94550837929806 12.704587800647735 12.034773745311877 -1 0 0
436 2 4 0 13.228564547912336 15.362136289651044 15.925015305386879 -1 0 0
503 1 4 -0.1268 12.60378178537628 19.352673506883008 15.02168434130614 0 -1 0
441 2 5 0.1268 12.97162658909575 16.86344777121471 17.339019562736667 -1 0 0
576 1 5 0.053 6.575644181589501 17.92593988498752 10.907315371075926 0 0 0
419 2 5 0.1268 11.184890705025156 7.556046604526902 10.663604208933757 0 0 0
448 1 5 0.053 4.745823163993458 6.284423792082241 19.566890042744824 0 0 -1
191 1 5 0.1268 11.246200489756513 7.652922368457228 19.606904336641804 0 0 -1
134 1 5 0.053 15.527735637189645 8.892755526605262 19.524911466035107 0 0 -1

Velocities

351 0.00166359300715951 0.0017716522052530356 -0.0002821665995532118
344 0.008695257978718075 -0.006820609562512476 -0.00016146947630799386
347 -0.004575543356800322 0.002268832352903713 0.0009757826250927778
341 0.017996768872344436 -0.03469572109874161 -0.011887763737331377
165 0.005108148546974324 -0.006106773506046674 0.003931978113764177
162 0.0040567518185423675 -0.0022442280115899976 -0.006529349641166514
166 0.004988740084147638 0.006907588418946398 0.010812851260507628
164 0.0008350715088814748 0.02288920011213986 0.0018214082076432397
173 0.0008286935268748867 -0.0035026940750770923 0.0007424215129756786
244 -0.0011243127582461943 0.004503196112414962 0.0025437983279344616
281 -0.010435436505005715 -0.003154584027717988 0.0010974873428652595
527 0.00042713226548327045 -0.0006557974958486236 0.007224930739571039
531 0.00276033246348367 0.003411764475729518 0.0008136633261916788
227 0.008470601634729546 0.0016109148676384795 0.03278124551895264
167 -0.0034346661820125212 0.010051237093894288 0.04054646506160412
349 -4.0943671644559104e-06 0.0006048657450134334 0.0017982432316536376
356 -0.0035395031522636707 0.0027116103814801007 -0.004484487670182668
160 0.02050978205994307 -0.002445898551185927 0.0018786631032602294
159 0.022066485211433073 0.031579272340660394 0.01203334702682055
161 -0.005430443983391391 0.002991915536018682 -0.012970698281500307
47 0.0007010881812984463 0.005665762958942688 -0.0026270015307201648
45 0.004262800552190999 0.00026897503111031676 0.00019657302049795066
258 0.02407986814416023 -0.006661888963547835 -0.03969740403478717
247 -0.0025152161341476416 -0.0020233773227582253 0.0069246634163935405
246 -0.0052136386747684 -0.007192931999784704 -0.016997437713242778
245 -0.013660874852848896 0.0056067515608779735 -0.009169224600678002
252 0.0028343837406522884 -0.0038975080836162555 -0.002922809116925439
354 -0.0019945592700799752 0.005639165610841454 -0.0009395193601791525
242 -0.005141642509473167 -0.009029226433847671 -0.012868039024768591
42 0.01819405190404549 -0.005814773906023299 -0.003991456740385324
361 -0.00878768539725768 -0.0022703455283174818 0.005260808990465314
462 -0.0021061304549004536 -0.0018639694118843058 0.003988616143695963
532 0.001902768169366383 -0.0014029073763174177 -0.002035361187860884
283 -0.0011332795459065754 0.0036557510434866024 0.002651002099080922
461 -0.0010109071589479376 -0.0010189233197755744 0.006785527105141008
140 -0.0012683225795347853 -0.001055518752043919 0.002679968981261075
138 0.0056830719366544056 0.01787741385639677 0.007660941561600601
533 0.006765797059652192 -0.010544592679831752 0.020533610250104424
177 0.005124464805983014 0.006691767244016233 0.0008640762783819851
49 -0.0011719434675633163 -0.008354267102234145 0.0003867850571288859
132 0.0027561906387644284 -0.003567384549797323 -0.008747089617560357
447 -0.0004194778481904694 -0.002576813062787235 -0.008212847734245738
50 0.005426348315621203 0.004748919279033568 0.005784444732760534
56 0.000818477563495578 0.0049900087061965906 0.012788619895070075
57 -0.006371863461360855 0.014613818588189357 -0.0013679797405117711
253 0.007087602804003004 0.036432697684679397 -0.0015961567320865336
243 -0.001817408765228347 0.0032888412539734476 -0.0010238480572686327
314 0.0016842888216189083 0.025331087985580394 0.01463031719160905
139 0.0018798644564469724 0.004811748417071374 -0.003706605479534187
446 -0.005779483967821418 -0.011777056081245792 -0.017322226468820232
41 0.0032065863063330522 -0.003065884931986535 0.00018761041163378297
381 -0.024528141171945093 -0.00829065763754892 -0.03693773746610768
360 -0.015058968367021601 0.018339428825574117 -0.0031310360519481036
280 0.003252430616524362 -0.008457831072363928 0.002332540140329019
278 0.0010050746204576736 0.003415102524165473 0.00010186463863201346
116 -0.0006962802912027193 0.00012050313769091673 -0.0008665421971806137
528 -0.0023814138023203436 -0.0028655911928466035 -0.007422351161749092
508 -0.025533848285491264 -0.03480373984079896 0.0034519753071861384
507 0.01987108542259122 0.005810786064121668 0.005990453510895684
421 0.008525849586827087 0.0029471652233772593 -0.0055176991871988415
124 0.0010419816072072517 0.0012613222119415369 -0.008081874568604281
174 -0.0019565006328864463 0.0033175527293678076 -0.0027809867970536046
176 0.0006923944931718552 -0.0027196062508233363 0.01345000362230462
127 -0.014189184977053175 -0.0025803797383721237 -0.016714954019728986
345 0.012102548831980831 -0.0018733743914339464 -0.005570268667279151
311 0.003005745051751793 0.004712641529492866 -0.001318431138691543
401 -0.008665244096685731 -0.013497852149066226 -0.0004411047255304992
403 -0.005094065579840175 0.002027127543792823 0.0005136493702039228
459 0.0014140787970090948 -0.0024098022338710635 -0.011412767224098716
450 -0.013912374131710292 0.02003560063854917 -0.00916637054114839
420 -0.021056721758533334 0.020578409499573104 -0.0005335766463659355
363 -0.018181485375434958 0.0004978313105986125 -0.012705682752744765
399 0.00274232814968638 0.015224993909552098 -0.005099798214257804
175 -0.004905253161119122 -0.0014870555634819897 -0.0019953200605727327
535 0.024250950532348818 -0.010641733701017 -0.015492857381023408
168 -0.004445581112343201 -0.0009341357982467566 0.0011940253189985633
530 -0.0019870668974163695 -0.013486886472444254 -0.02694745291948131
172 -0.022140188453143753 -0.013938870344821878 0.003360613364096734
362 0.02612436408490621 0.0077134309376213385 0.00325401439571096
169 0.004312876196868917 0.0014767564970463885 0.0018316618478278865
457 -0.004140661908129648 0.01164390056801465 -0.0011466588967283995
282 -0.002133552229495756 0.004872171094446777 0.0003978664765523665
534 -0.00347019182530736 0.0012809431873877228 -0.0018172083501780613
456 0.0009093145695086356 0.001443316031195652 0.0025093325581910498
389 0.011693312119692972 0.01405512447502467 0.00023730543406665948
36 -0.03472020439798036 0.006037556733290492 -0.030746441596498763
407 0.023628837770844263 0.0011243618499601786 0.018084811598198157
221 -0.007361392388080662 0.03363534056840096 0.026898533759633334
313 -0.0024503688573584126 0.002195211810746264 -0.0013640134444955385
425 -0.005324916645727749 -8.556695356995774e-05 0.004694080716012775
122 0.013653821373319395 0.005511701518657428 -0.02072521250956655
346 -0.03155394493524002 -0.012400358796894176 -0.011296107346265058
529 0.01093495689802884 -0.024882489895277266 -0.011048972362433202
271 0.007845474822635068 -0.032987559116980834 0.011437529062285684
357 0.0007469658364485382 -0.003008403917259025 -0.00414412892454594
158 0.006893515571999135 -0.015993317246964598 0.00928910183145643
269 0.00016744779277055803 0.00033169502519960316 0.0021224968308667445
359 0.019411130514438962 -0.020360969563003047 0.015047247650861543
224 0.015869509816702293 0.022822341489151 0.004751187893003285
157 0.016329208854652576 -0.021949949137437155 -0.010876836433126775
223 -0.0076019477269764265 0.0015740743863188048 -0.005235856024631992
249 0.002532515557334058 -0.01800322986187985 0.004675094104552888
270 -0.011851486734398366 -0.02134862385091386 -0.002867552080342609
137 -0.015734293378042087 0.0002888345840044849 -0.009874990771913407
115 -0.0015906022685485783 0.022715554036536727 -0.004829341005892731
18 0.020132988016198828 -0.017551380834581933 0.00878589664362409
277 -0.010791349582112161 -0.002415994650263908 -0.0015586186829029947
276 -0.0035883955203825394 -0.0005447536254222686 -0.00490688234309807
275 0.020623921237649563 0.0035796177700118254 -0.0211166480434069
432 -0.002213933198222007 -0.009243938302610211 0.025578747310986197
291 -5.443017924781735e-06 -0.0019931390615014477 -0.004791562918464261
15 0.00773223582606834 0.0016877371382249214 -0.0042452400018643775
17 0.004155364238757935 0.00853296627881566 0.003507156258373648
113 0.002312859006413656 -0.0016230767930239724 -0.0030065090997884484
117 -0.003443398764244207 -0.010592251490780037 -0.019437174624711735
274 0.007119129207341528 -0.0007695220156408499 0.0004936765684196585
379 -0.002264565976195081 -0.0011035185065272964 0.005130832658431912
273 0.006607282015705553 -0.0038890534132847874 -0.01932993377323926
12 0.008077147512587975 -0.004768385311252164 -0.0012465425729099285
14 -0.001063741507999487 0.0036276888255677877 0.0008333674051113982
13 0.0018358972069381042 -0.004798639079783693 -0.013771815186302872
9 -0.0016461507284125745 0.0017944493436303974 -0.005872867985056425
125 0.002191370997032599 -0.0033655480982238417 -0.00024276897484795356
11 0.004952991748424294 -0.006653765505689458 -0.0017374863493410549
123 -0.002198499425465072 -0.014863273065605042 0.0093679730035723
193 0.0008389340096480725 -0.0009894447954153784 0.008439895402368806
297 -0.010935799545508329 -0.004219692505619657 0.011570707365400832
294 -0.003961817919179626 0.0031730042038721124 -5.163710221816349e-05
16 0.023343326617993335 -0.012044697991897483 -0.045231554815880114
387 0.017354845823775455 -0.020322990575945693 -0.0011905980301553409
430 0.0010855034230141901 -0.004104836620295413 0.004484996012774345
378 -0.0008244628720679336 0.01806355208839907 0.006237239527498639
428 -0.02274045740574664 -0.032721076799356874 -0.014969066805256934
6 0.007572161754809714 6.1062367370576e-05 -0.0036970223292619865
8 -0.003566747260502657 0.0045475228286379 -0.00611959127514765
355 -0.0007640948134756069 0.01596298697168797 0.02916980354928246
222 0.021512130726678316 -0.0029922814017455837 0.0032889161914922923
380 -0.003051881083768415 0.0013745468126107358 -0.0044914153285629905
422 -0.010690415232193455 0.01211588512440768 0.017282543793528657
388 0.0036020914013967105 0.0007811798095271161 -0.0006630018798367897
292 0.0005062549231483018 0.018057032899047254 -0.024230984944515616
423 -0.0027145611241468025 -0.0024580490199695134 -0.011976517295317037
53 0.02738205112788713 -0.005031798347249231 0.004606847603488597
384 0.0018468527530228777 0.0018823454283356995 0.0010837066126730892
144 0.021035896204731546 -0.01221292975537957 -0.015910723258285926
5 0.011182329863368392 0.004040949178082309 0.009381495102628453
207 0.013975396602215955 -0.029970894693908862 0.01016744515111841
241 -0.0037445117180036347 -0.006200554461739378 0.004167789664096873
248 0.009908776726176 -0.018092483786426757 -0.005676930194500579
121 0.0024964124220906445 -0.0029598524944024693 -0.005719024106189555
219 0.0005373930566606919 -0.005686214039832069 -0.0008656811179479106
7 -0.0031342895386563467 -0.02172987535627581 -0.0177941190515572
43 0.0027574921920586397 -0.003375233469784588 0.007157615941593232
416 -0.014060938784873864 0.02086775357165309 0.020271008091231533
10 -0.00012317255790524292 -0.026303471040107284 -0.008306251733808475
443 -0.0017657199215646733 -0.0015075452330875004 0.036521971016670984
153 0.005676888174998944 -0.012430108947937033 0.02636499165375714
4 -0.003714871148848774 0.0042527256212113425 -0.0022099614327095135
212 0.034510812814487216 -0.003112309219740043 0.0032791821604368863
62 -0.015784066243237645 -0.011309834659299108 0.011463983623579524
257 0.004409714246782005 0.008524137451125373 -0.001090952771860722
317 -8.767845523722046e-05 0.0010126162006115385 0.00304073069922011
289 -0.011092722765689409 0.01891947365267087 0.023599356219035465
288 -0.005094096447332494 0.0008543264003336548 0.006434933784041722
267 0.0004540184663559913 0.0024283984423457594 0.004287347509528248
332 -0.011738689113316155 -0.010080978508248434 -0.02372637820898893
383 -0.00022472296027479884 -0.004203128507344286 0.0017529257215848748
39 -0.003884043499007381 -0.0011537188345527743 0.0022240249578655835
512 -0.009853674442728137 0.022939126123164746 0.0019139342176560648
256 -0.015853321557380038 -0.005114304244463849 0.005749040880900442
255 0.003010512368824273 -0.003973439136560754 0.004829112825720331
340 0.019743688384863005 -0.001668417364379606 -0.03308453890010706
510 -0.004694686482960593 0.00012489156323576277 0.004966866066313968
67 -0.0047367739050272525 0.005690710402888674 -0.0007591195254660389
48 0.005841328732304283 0.02728803992907021 0.019135195345982913
74 0.003014398467704571 0.013494651122170173 -0.006403999547500443
72 0.0015691534830565414 0.013662630152336375 -0.00226898664253962
324 0.006076661398784243 -0.021062307840213044 -0.018638904940236012
323 0.00218559760032716 0.0036120159065518255 -0.001171540017172233
152 -0.00025325690136288775 0.0016516896226005326 0.001004062017581399
68 -0.005126439438568183 -0.0005475729630413602 0.0028530954996521035
327 0.001015576742789577 0.0008637263444605783 -0.003428028653176025
322 0.0008209915374482885 0.0029342100523868193 -0.0007732216339457861
320 0.006725290146205873 -0.005209800677664477 -0.000558451512990827
325 -0.003991947714396199 0.0026482828702001407 -0.0007661277801867213
326 0.00456471668334824 0.0040992415394139805 0.001394258864637515
321 0.005892898712900186 0.004865424453272147 0.001526056932931559
451 0.00741210757893296 0.0033493462607302456 -0.0006563379114238649
328 -0.0026192668488806883 0.002353700772252209 -0.002857170914699675
385 0.0021348361873720963 0.0010542426814336453 -0.013325971651155956
569 0.004043474846324118 0.011928085781879526 0.0045940884856933316
156 0.008936764565574276 -0.000639925022514512 0.0026674027187114494
100 -0.004646460296356338 0.0188847502495632 -0.02872756509437703
66 0.0012479233757075406 -0.0018078564378179048 0.009682331274502732
567 0.011686458905457966 -0.0064854991077083176 -0.025087015934712492
70 -0.007959195984082455 -0.0015157309035675334 -0.0031999563801337998
71 -0.0032991219370107783 0.0014838515374326186 0.0030188642192560183
566 -0.008485602195277645 -0.006849963472442722 -0.005816462907981885
571 0.005073873819553548 0.006702852718060171 0.008002647463818721
204 0.004309188591367242 -0.004296796429040826 0.004641284017710573
568 -0.0035553060729689554 0.0070202283596600265 -0.0036102025719270243
202 -0.030283827228756756 0.024038030284191762 0.037361422666921454
75 0.0027905636863129065 0.006138599112015409 -0.0035864875788079696
205 -0.028584387798705722 -0.020729007345994623 -0.01870938635162902
570 -0.0013076500738373967 -0.016431347361804714 0.00893153843305988
101 0.030795796861895583 -0.011262481177603891 0.010165944567860236
154 -0.01232910464131396 0.0063080694549277165 0.0004434978328527722
151 -0.0317431808329782 0.01877402489768452 -0.007723090053662307
150 -0.01416971263614398 -0.007351451788646184 -0.014159242209208969
564 -0.005095079585279862 0.003149537713982655 0.0058262609718559115
452 -0.014202003340076999 0.01887920673739333 -0.016210488443226492
453 0.00473687256523701 -0.002736216280700893 -0.009413828695870768
565 -0.012992048161961796 -0.013353326883093078 0.004134675947517474
203 0.0010658445047827783 0.018660881863312048 -0.002327631171443234
509 -0.00940430401579965 0.016183868831691085 -0.01581783769152846
575 -0.003712986029233771 0.0032559595771336825 0.0022406454180796597
583 -0.010538764730966332 0.03440429543080589 -0.01223685090204617
319 0.0077659460773352625 -0.0075055179532557605 -0.012629133182709057
217 0.006590548617533174 -0.004125017141174813 -0.007687983664808754
573 0.009396100638331238 0.0017014900822166989 0.009683213392793615
316 0.014655267187035798 0.02218639625624126 -0.009994601292240005
287 -0.00522864887676675 0.006931886587176848 -0.0020166587756916725
32 -0.0032514317046122227 0.0035330560998300935 0.005459902830784364
141 0.010459852077705169 -0.0005886530681089142 -0.012008482684243588
83 -0.020534825071004986 0.020922270353536363 -0.01066320038377036
546 0.012380800934265806 -0.0037121525693193332 -0.0018498465752786809
82 -0.01124028796648014 0.005706417006531554 -0.008662321353438635
142 0.0006444130710837919 -0.0016757174457620375 5.4457800461222475e-06
143 0.001288922392155825 -0.0010201843554500623 -0.0105634086558296
171 -0.01591314273980951 0.015554732720548933 0.038194339084946065
220 -0.028264917060981484 -0.01558438462420384 -0.0015960150108673484
31 -0.00218324097088618 0.00014452407678825386 0.0002297786708855927
225 0.003915929799701274 -0.0006877679740700409 -0.0061713694089634945
29 -0.0043788086804437115 -0.0053764333156174045 -0.00020799837833242665
251 0.0036890333223511904 0.0010152686809351298 -0.0012959726610683546
89 0.0009035305190273371 -0.0011103462466092195 -0.0015173016870355565
146 -0.0020638978346582074 -0.0034164145834105816 0.005394276058381497
261 -0.00020810622236892395 0.00012271586969687042 0.01412789035098413
489 -0.00032536091674602785 0.0025882294195171216 -0.010548316699650423
35 0.016031552332867717 0.02180934171998794 -0.016616905911447873
38 0.02969057930863843 0.030989946980327636 -0.0085517510803632
371 0.00035383678039790836 0.0001325633811649096 -0.0022766185990608515
93 0.01758818203693199 -0.0001978788025085888 0.010234936238717506
264 -0.010978740918708617 0.008920772466167737 -0.0018816377775483929
94 0.0070035006981918274 -0.004441840786041617 0.004479680519182112
28 0.012139554950171797 0.023137126096612257 0.004286396703637334
110 -0.013392548299957651 -0.0033565784754684596 -0.0361910817715734
376 -0.004200112595675102 -0.015345147537871244 -0.0037377865663654544
26 -0.0005558078164075431 0.004369313180274911 -7.898803996846176e-05
262 -0.009667140833684749 0.00017782542971390538 -0.0007557525000085814
23 -0.007204450225308997 0.0038437881762259356 -0.0037439343470957558
148 -0.0010478112588018609 -0.0027270436450091617 0.0013396311987436524
367 0.002943237252910304 -0.010667609432973306 0.0008148971769605236
21 -0.0051000677939644 0.009228235900035695 0.02113506954365918
368 0.0023874407372953548 -0.004252117858362155 0.003113931732264707
372 0.0032477103943250934 0.003251703436399499 0.003884989785311547
30 0.0007510155824736978 0.010278804093276946 0.002953316322686952
511 -0.019953427166032187 -0.019125110133596378 -0.002620390457600921
386 -0.0021619044146775255 0.008024409261717911 -0.0015638308286017952
366 0.002461457762792104 0.013762407093690076 0.0034484631352834252
92 0.0009668664849505085 -0.006279277699262609 0.004744348859008144
268 -0.007160796950431762 0.003964314130799196 0.001663281325995828
103 0.0013158334257001685 0.0462550017084143 0.021873005969670803
111 -0.00016176137624441863 0.0067451909787836105 0.002714046673883048
24 0.0028047654911624417 -0.007876189896450524 0.0011195032746787379
375 0.0005888859709933114 0.006195059039544823 0.026408996794368943
365 -0.01470771162402702 0.014359396951460629 -0.024419028890599243
369 0.0023211739288805694 -0.002027153939662585 0.001132598976957627
373 0.005371026359846861 0.022689453882996022 0.019725718441631762
112 -0.0006311127196373011 -0.0042883086833210085 0.0009650314715301386
109 0.0034245519007001985 0.006264499341048114 0.011576338347063338
155 -0.000903100573412937 0.0052136078844802905 0.0028575860033655423
184 0.005581335930314397 0.03176392846267613 0.0032794456796290832
37 0.00342069932478951 0.00923327910418671 -0.011568930186799078
99 0.019197633791569 -0.01855509386991563 -0.013408628235275983
145 0.008516942696747997 0.0017229040832358552 0.01377425957884291
87 -0.005035716280366669 -0.018311177627319923 0.02240741710109786
3 0.0066133537147073105 -0.0033284817127478337 0.005089424062862203
364 -0.03270728328773453 -0.010816460436234285 -0.00395263765173273
85 -0.001314845474641946 -0.0007212220883362613 0.0022317171861164103
266 0.008939259134637813 -0.013827373140316795 0.034244524763846755
218 -0.005573293669568241 0.003842879777600897 0.004380631048427187
216 -0.011288145890456285 0.00012559219335856286 -0.0016537182494128742
97 0.0012009968477882857 -0.007627894001041814 -0.016301733383630022
370 -0.0020054711231427824 0.0016333252490080652 0.0007785192158700115
329 -0.01096024350364896 -0.005327268355771216 0.01944599245179874
91 0.003340317328742254 -0.002115055714790594 -0.008702484769925398
260 -0.0025967120635085874 0.009717417588350642 0.010480969266548826
20 0.00646176142993367 -0.006197223201123356 0.0008062134513672324
424 -0.0020171110576074104 0.007967632697124444 0.004368891307394573
22 -0.0030211225804931486 -0.0029049895935659405 0.0049425811714344
33 0.002771075301990145 -0.005507003206263571 -0.0002252877081878533
95 -0.0007626762218641133 0.005728891262038272 0.005311184245531301
374 -0.0017851478964648346 -0.0006576690455890195 -0.006007643908525331
2 0.004705669831859344 -0.0023585930006670146 0.007584312189368716
1 -0.001805986329263283 0.0004260221647117678 -0.003067534240731738
263 -0.0010155909526570377 0.0003435330681529033 -0.006660034550031132
382 0.023007688790300247 -0.04392599380765073 0.009742499999987438
188 -0.0011678938909056205 -0.0073118879083567435 -0.0007358824400756899
215 0.00954961522149393 -0.031448349973298394 -0.0258437628673335
250 -0.0030264883278519426 -0.002919502750679512 -0.0030762663306998935
259 0.014002030640614985 -0.0038085135376763578 -0.005044086854947594
552 0.01412029776987951 0.014774929242638438 -0.007879511091415022
73 0.015503022421221622 0.0401280044396264 0.004126654311671727
40 -0.009560014556565204 -0.011857339489528915 -1.0662941560928616e-05
119 -0.0013213078941994203 0.012124083222542614 0.005704390363558324
69 -0.004140562168107189 -0.002842801898201627 -0.0004653974003790796
521 0.004753210049245289 0.00054506548545154 0.012377578436347403
523 -0.0029979176470800568 0.0020478524525431104 -0.003607447119487566
186 -0.0008505346714956664 -0.00210981203028938 0.0017032525131311618
310 -0.00949162452952439 -0.0019931912564488032 0.002357814923080822
377 0.018795268374094794 0.014657725023128397 0.002521999371975777
306 -0.0022755592527487463 -0.0011159062861081255 -0.0006937405128104001
304 0.003075924710177997 -0.0003573453915648989 0.011456061624795622
182 -0.002310027279204625 0.002885706582605643 -0.012964912148403533
178 0.003102132853457924 0.008177410965800908 -0.007661414537324999
181 -0.0045064143499010485 -0.006498514797718942 8.236546909491327e-05
51 -0.012214754761375355 0.008752762647008265 -0.004024141077946786
519 -0.004110807032752127 0.007724463570910392 -0.0043805409083325746
524 0.010755628456137449 0.01938661376933815 -0.010731411221713361
170 0.014080056640920342 0.001198975049534936 0.009900046405804408
189 0.008858987166723384 0.02100066191120925 -0.011618060013103806
286 0.0006298755726596233 0.021613417395732012 0.012546703669415701
522 -0.0003248030214576799 -0.00883404999827352 0.0007824230171164347
301 0.0008632529393378271 -0.000629671309228155 -0.0051460351217761015
469 -0.003056504015633192 0.004723759389677862 0.004797792460959537
190 0.0003227658415033732 0.00841327151461209 -0.0061055087559348615
187 0.0027942623921263024 0.0021817475153954723 -0.006758073249241402
305 0.0051080852514894404 0.0010741995642561811 -0.0033557602529786603
307 0.010193443535015712 0.0026745156361314215 0.006859798158310415
300 -0.013890201100144614 0.02776330100907235 0.019488394026222204
516 0.0025587671455379 -0.0008886291911793057 -0.00564430522840573
331 -0.0035763472402973993 -0.002582722313441494 -0.001403806549904658
330 0.006914740265262551 -0.0059024943908297925 -0.025213317714897616
333 0.0018889075933672555 -0.010268839431023385 -0.0008099820786092431
272 -0.013514407000332327 0.0076203473941697155 -0.017941045040290943
298 -0.006396199648299667 0.00450614128795019 -0.006679443264950025
237 0.016985045490649584 -0.02120985829268874 0.01173267401334253
183 -0.003425239919235944 -0.006172443371849511 -0.010685761244189088
467 0.0015631028616781579 -0.0009225600990029778 -0.001470767908998736
470 -0.005295405592644405 -0.005921090075699713 0.00024364535473151862
296 0.008129437456106501 0.025039837319062213 0.020624474630186643
315 -0.007533206952367418 0.028547084550213157 -0.008534132073495305
309 0.009489227856126516 -0.005873270409925865 -0.01182918717359547
312 -0.0013688869002771965 -0.0037509443983031504 -0.009751211590126907
526 -0.019458389809976794 -0.0012176397809589793 0.00016368964946368838
120 0.006197444854700978 -0.011472451797380703 0.026069749981616673
473 0.004943072860242529 -0.0001998120859893207 0.0031552274539176557
475 0.0034506709389977297 -0.006233515439587414 0.00874912199085908
525 -0.004923704831884341 -0.02370839553246505 0.023584981617409656
549 -0.0009824110404309972 -0.0014126069610958184 0.016465849260683098
520 -0.0027267510934517853 0.007181423570816231 0.0061462605152237905
518 0.017947638732883305 0.011678920924571337 0.01589914500964023
562 0.026265046740103652 0.012063359139819672 -0.01583682975014827
471 -0.0018418057133597367 0.006542994367530735 0.00029653820972381763
474 0.004756084321283767 -0.0173203830340481 0.01162279546371874
230 0.005917514485228561 0.019356228284919244 0.019415143442011975
226 -0.01316502236980637 -0.006773938087350179 -0.020850622566279814
308 -0.00034320678116839536 0.008156926498881459 -0.014960808493392886
472 -0.006820762599173402 0.005534808139623217 0.0039024930314969057
302 -0.0008385964708502123 0.003007415353200935 0.008160081985716579
58 -0.0011341298372903835 -0.006595257514808105 -0.008715105020689937
465 0.007004854889921848 0.011341836519472898 -0.0003019314743274941
585 0.0005450492903226863 -0.0013799936009428974 0.008611334265458685
517 0.00940994377216354 0.033643362911274295 0.02845906579815987
285 0.003331930715765629 -0.00209902532327851 -0.010198833769055431
515 0.0035609470840964317 -0.0030377299346757633 -0.0009876848803763861
460 0.019987429646867273 0.018319900850028138 0.01505738208535491
392 -0.0004904271704356982 -0.0027795610195421824 0.003918702191848854
468 0.002179196683942881 -0.010233103348959825 -0.014639171786093334
581 -0.0027962565841393285 -0.0005625390327235153 -0.008442144405846631
299 0.0023604036692904096 0.0014081895931800214 -0.006199681916048045
118 -0.03357551288524769 0.002597330572454519 -0.02326973054292206
513 -0.003222983446490976 0.007557056985604292 -0.008506165343490728
580 0.0007873453329566943 0.0007162890973928026 -0.0016330408582683857
232 0.013084264209744975 0.007132083885201913 -0.006359411150573043
229 0.0011903708976261336 -0.006277808579323741 -0.004812309416337792
131 0.001992229287362904 0.005385042883828684 0.00413948412065584
233 -0.0006859298195220035 -0.001812687138756297 0.005004691532308554
478 -4.456418012526932e-05 -0.0012694519530000903 -0.005664346806468925
477 -0.0072111526224233995 -0.0018074870531910262 -0.004174773734527334
213 0.000113768819474892 0.0045885923921636235 0.006690746735407439
185 0.003122514599463747 0.00022819715963855815 -0.0026638614918312944
234 -0.005420066140457277 -0.0022583020184891783 -0.0011519748029333694
303 0.007618650772142849 -0.004996789132675391 -0.0005081666481131225
358 0.0024948663400179653 -0.003619381020290686 -0.0014035859372242454
295 0.005418468398614573 -0.004980021434393263 0.003950530746394769
293 0.005222566118729097 -0.010752586901274092 0.0015584731175287893
458 -0.040037679189042774 -0.02287923428201926 0.007077823192332292
418 -0.00027094578449051414 0.0033552918133373565 0.003683548246407462
214 -0.0011437002001814804 -0.003716281149056012 -0.011740435486563273
415 0.0006924199767600754 0.003055111954877787 0.0001056237845437788
238 0.0008332767984173657 0.0025887668570866444 0.008340892064330724
485 -0.010081340981713097 -0.009156612216817092 0.013155962152239683
129 -3.241478078069197e-06 -0.0018390570181167623 0.0011135681538956648
136 -0.003139970902213348 -0.00413652678720285 0.0011554227101101234
179 -0.0218740061306166 -0.011041970707889107 -0.03573104329928602
180 0.004788751058256527 0.005709821115532263 0.006507619903448542
128 -0.004677621420189558 0.004106231897833312 0.001602533834808962
130 -0.001508688537461774 0.0016728846526096082 -0.0006729580347963904
211 0.008350538395133745 0.00335196413724888 -0.005283237104803649
208 0.0019299208330257561 0.001131310271894751 0.006479036048960174
414 -0.006791815804506621 0.00250158147701571 -0.0010610820264258685
413 0.0022307165295211394 0.0014370430942880845 0.0017528217568103658
209 -0.014595596812508521 0.006212689358915972 -0.01632925876476975
412 0.0036346398637144947 0.0022317875302023385 -0.0071979934981914705
490 0.009034009432137634 -0.0012613314326298693 -0.003991213375284622
482 0.0020773883533194153 -0.009501675299447013 -0.0031742505984746396
411 -0.0025240368908875373 -0.012267367315957473 -0.002726262946088315
466 -4.711883685456777e-05 0.0010251671881938511 -0.0015174706703322373
455 0.004693090654520816 -0.002913437952424747 -0.0011594139656437247
484 -0.002501881525250463 -0.0011630469799250181 0.0012862864614165534
488 0.025225445549654748 0.008591735851443566 -0.01043586405430676
479 0.0005844085245558784 0.0022718833791390263 -0.006199475524722541
487 -0.0002860506011702332 -0.0022469230303175307 0.001130518841138808
486 0.0011574384373090798 -0.0022961252918045553 0.0030321884071685514
114 0.01614191824034703 -0.005036583855475156 0.003503571255840981
563 0.007125476905588892 -0.015000053405691473 -0.005789238617087626
491 -0.011004694218050922 -0.008537677531170322 0.014599616645631383
506 -0.015157057503106836 0.018650332524470337 0.03687432553236422
206 0.010741590030485594 0.004464287293547396 0.005624702777745422
497 0.011230470301955602 -0.0043197243777655945 0.0013190098979967053
495 0.024395745027583585 -0.003625789601708376 0.017984902842242193
496 -0.013864108053083185 -0.020019955659055497 0.018829162025718296
498 -0.007908507683715416 0.004271915091535096 0.003658359608295526
480 -0.008378206125154532 0.0012886396284433187 0.005322346412352237
417 0.0049628887585298305 0.001730953613485409 -0.0053363141656602815
499 0.001655437270139655 -0.0011227449657537534 -0.001969553214154901
502 -0.004709658734575109 -0.0017844118982243652 -0.0008908011712740742
126 -0.0340295349150087 -0.0027844114796668194 -0.0039057103891380444
353 0.01054331087914902 -0.005496472390094007 -0.002590042305716678
582 0.009118495525819881 -0.01856795986780345 -0.013463001934402308
335 0.009755341836784087 0.01582752107832729 -0.005017313250135577
500 -0.005085552580645175 0.0038199122863992047 0.0005087791199497178
483 0.022554806833668322 -0.008472952482413667 0.007180712110012217
290 0.008344285423788327 0.004752433723804865 -0.028104248394980574
239 0.011521490905362823 -0.009217276703553082 -0.003315357559316135
235 0.005527170942265541 0.004697848702288335 0.002664317222827152
240 -0.009617318556926028 -0.00779911929446524 -0.015514453663606258
492 0.0008691779920034144 -0.002922287368815093 -0.0003266865254500849
494 -0.005322276422129539 0.0015484118498446042 0.0189918991526508
493 -0.006021951789400851 -0.017793561487500886 -0.017535395067977803
454 -0.003841349539477613 -0.011606762270520475 0.01433128244047417
501 -0.0009757693608941775 0.0005310327291281241 -0.004044156130243877
476 -0.011861431340864212 0.030693089963194243 -0.0028507975322215728
350 -0.005374124650413612 -0.0033553173896424984 0.000959391408807779
352 -9.717465782283555e-05 0.003629251935745053 0.0010897920423528172
135 0.0022813329692735807 -0.0023589652379503384 0.002565548854685208
504 -0.008773016165979251 -0.0015238989759845175 0.006047387677645591
481 -0.023294592987712276 0.002132719821318246 -0.011551746637511465
133 -0.04504425139307218 -0.005963414723615527 -0.008295682172103821
426 0.025900256970498393 0.0070034117890676205 0.0002992722794025943
192 0.024242696739551185 -0.01441724154837389 -0.011421099645400667
279 -0.002410654727958095 -0.009293598785892539 -0.004356208708981205
54 -0.005595883603444918 -0.009291738061142292 0.004752065597064337
201 0.000709112965453839 -0.005553393245530041 0.0011408442484798613
231 -0.006388590793855015 0.0026254876646723754 0.004732387837151255
254 0.013088735560072487 -0.019304643885751094 -0.004103643216943665
44 0.019096309497843827 -0.00793009007694886 0.00728221411217336
60 -0.0013588984853053212 0.0014949688111295168 -0.009664722061966882
572 0.012695169450203164 0.0025308705882606205 0.007437366639243908
84 0.0038954951272591083 -0.0010411849831539134 0.0004246590855207999
584 0.0228028067033801 0.015810405099907804 -0.007560696412025448
52 -0.00046904325833493194 -0.04178706497828379 -0.008461596726933324
65 -0.002670359360689565 -0.0017501774575541793 0.0009848170735458402
409 0.010297881797684613 0.011047210908897785 -0.007385080668251098
539 -0.0016917995199966726 -0.009047038229434602 0.0036889922731757445
63 -0.00010717901837613076 0.005521972271234639 0.004688909718335739
55 -0.0008685661190858767 0.0044292008054085215 -0.00212229902149987
59 0.002727683129782975 0.0017304213747781079 0.005388729272152533
548 -0.00288335640389275 0.0018734616281359483 0.004476704013612598
98 -0.006536244637591969 0.014066821008352775 0.0029427302129655976
514 -0.005361735029206752 -0.019302627484267972 -0.015444240946805835
544 -0.005409321081814108 0.002148297254161259 -0.00010258584229108603
542 -0.0020142441426586454 -0.0023899171450781614 -0.004652980337047169
404 0.0007197783258899441 -0.0008628880698140607 -0.003990247127841115
61 -0.012688379276717935 -0.007739168816667136 -0.022624397698363996
199 -2.7008699946904175e-05 -0.0026372167564724927 0.0017388268992242608
445 -0.00010107830743999761 0.008784860347202996 0.011064379925381118
408 0.011780083536482022 0.0013457302745638606 -0.005304542944718533
400 -0.0027966252613540366 -0.0040800501456316534 -0.0018117069809215828
402 0.0018461250172590192 -0.005392521677612625 -0.002985193801628043
397 -0.005191617694204101 0.0012725789198803317 -0.003342254325749177
396 0.020055316836167278 0.003827797138251313 0.029149587865047854
559 0.0048446135336290665 0.0028078983103623123 0.0005146917173969082
540 -0.04254838325372004 -0.006059910570733492 -0.0011809221614478497
86 0.003494571562307751 -0.0021303221763639916 0.005287315397318128
538 0.0018486449700628664 0.01572129757354907 -0.002112646954906494
405 0.004665562530460832 0.0038190901256057587 -0.0009849523140151016
406 -0.00494766906780078 0.0023547492787558424 -0.003966765365643249
88 0.024483001169462008 -0.002906227278911075 -0.0023828708898076924
79 0.008507516335572573 0.0018200315381714616 -0.006605023764178347
77 0.005112395313219279 -0.001002614343800656 0.00452802191385647
76 -0.015895383980073986 0.012219888288867978 0.005228294794866856
81 -0.029944978559845386 -0.005278573601010363 0.02659477801807583
78 -0.0006889933688450087 0.001613681638278198 -0.0012287393768847462
80 -0.0029094569174239744 0.009957377952540371 -0.013883949580891624
197 -0.011035383668373321 0.0030723605186400915 -0.0014184896908849935
195 -0.007116306234676928 -0.007425329092744802 0.004116257875567746
318 0.010754054116312401 -0.011475651791098329 -0.015459626779107252
163 0.017047656311595185 -0.0043326478237464576 -0.0033675861197928134
196 0.001195154532476896 -0.006221401695952882 -0.0021719786643952985
194 0.00447908492715863 -0.01042175576182465 -0.00615562159661287
464 0.013932548908450724 0.014204212585228785 -0.02424167089161788
394 -0.005128254433168614 -0.004866848491986191 -0.007444412190386528
410 0.021160252329895296 -0.003647307142178293 0.033769149856958405
543 0.001573151939617034 -0.00623172341974759 -0.001893403068728117
147 0.007260825031139073 0.004553740723873592 0.03476827777069885
541 0.0024364451056219393 -0.003454516347815938 0.0005268474648641128
398 -0.0007931295066452257 0.015237141963787025 0.015069018116824363
561 0.0006318468959812606 0.0056723998738844195 0.007616710025150843
198 -0.005337941810852228 0.029334038177108942 0.017127127176714208
200 -0.002479490303256331 -0.011975796749755544 -0.006962105082379162
547 -0.015198842954593943 -0.01863547467834229 0.009053080500359282
449 0.0010887220836216052 0.0030073265574947 -0.003747630179870829
555 -0.005516329288046723 -0.005099098063092214 -0.0006836256261585587
444 0.012599061246856223 -0.003802301808008683 0.01313450099359596
64 0.003220495554093669 -0.0016033554236940912 -0.008278864580682057
46 -0.02759926379602998 -0.01768358220891726 0.009969704950161178
442 -0.004973921163367161 0.0005285240646221188 0.0026912114903798784
578 0.00557086150295652 -1.57415160969527e-05 0.003954055771905012
210 -0.009877974917695287 -0.003677294607349639 0.008924352555777157
437 0.014024384410735646 0.003865100930362406 -0.004078013557261159
545 -0.005005552507945939 -0.000478195908886437 0.0014890082663453718
96 -0.004967124890476246 0.009550932067098665 0.04024371771654405
265 -0.004541054194364436 -0.01779375368221049 -0.0022559520314585067
228 -0.014464643649137318 -0.001701933211150606 0.010707463232359448
390 0.00412024758305677 -0.0025042302889555557 -0.0020475210031841665
102 -0.03159433905033634 0.00277196055158923 -0.008801215145293034
463 -0.014708866211143918 -0.019323398703690545 0.00820668801409301
440 -0.017127584219750906 -0.014626670032153944 -0.010805189772347316
574 -0.0063288418916825 0.0379809483562992 -0.026915974968685374
90 0.003443367324790788 0.012335601321516964 -0.05906433345842566
536 0.019218235483222074 -0.01505601859534648 -0.014938989536686454
537 -0.025946062801177103 0.0030366827219015587 -0.012111731765417603
395 0.0009559332179244328 0.01596173920861394 -0.027874796015595837
149 -0.0008095242850643234 -0.004865450346637197 -0.001644930804108804
431 0.0036058314668199376 -0.010449837876441999 -0.010234434751635567
577 -0.002832265891082084 -6.858132485714109e-05 -0.0005300945973614242
427 -0.029768402423396314 -0.02696699482362227 0.014912475935038427
438 0.004744745974139054 -0.003457971364388496 0.007914172387913955
334 0.00347972717025312 0.003527174087818012 -0.00537225209654666
435 0.0024836250096665203 -0.0006163442071627517 0.007685207793712973
236 -0.008491128451509592 -0.00954376214273409 0.019227567815083318
557 0.004826889065988966 0.0015032522724365148 0.004254801291417408
505 -0.025050482283536242 0.002376452565468447 -0.018557882948709803
439 -0.0030786503838432814 0.0026599836432440404 0.0020559282582177318
558 -0.003790647385499928 -0.0029546712498682627 -0.01058567289471882
27 -0.02442489335597411 0.0059497022965742915 -0.017444937304658483
108 -0.0020551673482120574 0.0031055935707918507 0.004211983936867371
34 0.003958788698025075 0.02867310296622978 0.022667310364056312
339 0.0031588229862673485 0.025978922482879363 -0.001548722348448971
105 -0.0003744736849002195 -0.0015702098105404955 -0.0005962366327635062
107 -0.00154357205095348 0.001415565102262125 -0.00011434241284464447
551 0.0023610377569587364 0.01801598636425871 -0.006784150844703157
343 -0.0016168953781798031 0.005360127417598539 -0.004322443937823237
342 0.009264756147785984 -0.0048501267993090215 0.004242485720182738
348 0.001507716267068888 0.002681009289627197 -0.00025211913904280903
284 -0.012598217935077618 -0.031706892782952543 0.02363198039912603
553 0.0036714437424720634 -0.003693050529303971 0.006150623877892212
429 0.007013527186452909 0.011401214218062004 -0.007760985856914742
25 0.0020889563148360343 -0.0012337678275832582 -0.005844242611634472
104 -0.018577218526228307 -0.016767657498900777 -0.0057605235073613995
579 0.021899066209994756 0.02555389376770954 -0.01660849006881074
433 0.00030235217485797324 0.001941179667349058 -4.4434652036893095e-05
434 -0.0031510608340508503 0.0030176977353179673 0.001428954812931214
554 0.004784988902862703 0.0037390465289279906 0.0019494038437464453
106 -0.016798811469687723 0.00041483614966153 0.010162909866058617
19 0.008391989309165829 -0.015331124123556018 0.00793036121314866
391 0.001564516403819462 0.006272704489705291 -0.0054722113707464
337 0.006460379765303308 -0.002364020188443881 -0.0009181790808628977
550 0.005168133401090053 0.005460478819509203 -0.0032244734635037543
556 0.0002774774672089655 -0.01091831094458561 -0.004952128581511336
393 0.0021958048759038815 0.0012434438110309508 0.0046442874228708395
338 0.015414718819798777 0.0070168776007637984 0.011989677587617523
560 0.0017422432621509597 -0.0012370302120097252 0.0020148531743391313
336 -0.018327840575966408 0.009471898723688935 -0.011978565938167162
436 -0.001049801259228702 -0.0006496763786321824 -0.005805954388863607
503 -0.0042320409605487086 -0.0022108423121186558 0.0004163391363376456
441 -0.017702756652520305 -0.03300866480037017 0.02238128771323351
576 0.013417387003428259 -0.015657153298069326 -0.016143465543945742
419 -0.011492616469024169 0.017070209212037602 0.0264783340791057
448 0.010463080702510208 -0.0006761801164253309 -0.0030055160596753933
191 -0.009984934416680701 -0.0185527407180802 0.016949794962111603
134 -0.010234936362224344 -0.01574015130182354 -0.036739266234069416

Bonds

1 15 351 173
2 13 344 349
3 14 344 341
4 13 347 344
5 13 347 351
6 4 165 347
7 5 165 164
8 5 165 166
9 1 162 165
10 5 162 160
11 5 162 161
12 5 162 159
13 2 244 247
14 6 244 173
15 5 244 242
16 5 244 245
17 13 281 278
18 10 531 527
19 9 531 533
20 18 227 527
21 13 349 354
22 13 356 351
23 13 47 174
24 14 47 45
25 10 247 243
26 9 247 246
27 8 252 461
28 2 252 247
29 5 252 459
30 5 252 253
31 13 354 356
32 15 354 357
33 4 361 356
34 5 361 363
35 5 361 360
36 5 361 362
37 16 462 461
38 13 462 255
39 13 462 421
40 8 532 534
41 2 532 531
42 5 532 530
43 5 532 508
44 13 283 281
45 15 283 285
46 10 140 139
47 9 140 138
48 13 177 49
49 13 177 124
50 13 49 47
51 14 49 50
52 4 447 281
53 5 447 446
54 5 447 450
55 5 447 448
56 4 56 15
57 4 56 177
58 5 56 132
59 5 56 57
60 2 41 43
61 6 41 285
62 5 41 42
63 5 41 40
64 13 280 283
65 15 278 116
66 2 528 531
67 6 528 116
68 5 528 507
69 5 528 529
70 14 421 420
71 14 124 127
72 16 174 169
73 13 174 176
74 13 176 124
75 14 176 120
76 4 345 349
77 1 345 403
78 5 345 346
79 5 345 340
80 6 311 173
81 2 311 312
82 5 311 314
83 5 311 308
84 5 403 401
85 5 403 407
86 5 403 399
87 18 175 243
88 8 168 169
89 2 168 43
90 5 168 172
91 5 168 167
92 4 282 280
93 1 282 287
94 5 282 279
95 5 282 483
96 13 456 453
97 14 456 457
98 13 425 374
99 14 425 426
100 6 269 116
101 2 269 472
102 5 269 270
103 5 269 271
104 17 359 357
105 6 223 357
106 2 223 379
107 5 223 224
108 5 223 222
109 13 277 280
110 14 277 275
111 13 276 277
112 13 276 278
113 13 15 13
114 13 17 15
115 14 17 18
116 1 113 274
117 5 113 115
118 5 113 158
119 5 113 157
120 4 274 276
121 5 274 117
122 5 274 273
123 10 379 193
124 9 379 378
125 16 12 9
126 13 12 14
127 13 12 11
128 13 14 17
129 14 14 16
130 13 13 11
131 14 13 53
132 14 11 10
133 12 123 291
134 11 123 292
135 7 294 291
136 3 294 123
137 5 294 297
138 5 294 249
139 8 430 380
140 2 430 379
141 5 430 428
142 5 430 432
143 8 8 9
144 2 8 4
145 5 8 7
146 5 8 6
147 18 355 193
148 13 388 392
149 14 388 387
150 13 423 421
151 14 423 422
152 16 384 380
153 13 384 388
154 3 121 123
155 8 121 241
156 5 121 119
157 5 121 122
158 4 219 424
159 4 219 218
160 5 219 221
161 5 219 427
162 10 43 39
163 9 43 170
164 18 153 125
165 10 4 1
166 9 4 5
167 6 257 72
168 2 257 140
169 5 257 254
170 5 257 258
171 13 267 109
172 1 383 328
173 5 383 512
174 5 383 381
175 5 383 389
176 13 255 217
177 14 255 256
178 5 510 583
179 5 510 509
180 5 510 511
181 13 67 70
182 17 74 72
183 13 323 321
184 14 323 324
185 4 152 322
186 5 152 154
187 5 152 151
188 5 152 150
189 13 68 66
190 13 68 70
191 13 322 325
192 13 320 322
193 15 320 317
194 15 325 327
195 13 326 323
196 13 326 325
197 13 321 320
198 4 328 326
199 5 328 385
200 5 328 332
201 6 569 327
202 2 569 568
203 5 569 567
204 5 569 451
205 17 156 327
206 13 66 64
207 14 66 100
208 15 70 72
209 4 71 68
210 5 71 75
211 5 71 101
212 8 571 573
213 2 571 568
214 5 571 570
215 5 571 566
216 1 204 71
217 5 204 203
218 5 204 202
219 5 204 205
220 10 568 564
221 9 568 565
222 13 453 575
223 14 453 452
224 16 575 573
225 13 575 577
226 4 319 321
227 1 319 510
228 5 319 316
229 5 319 465
230 13 217 424
231 14 217 220
232 5 287 289
233 5 287 288
234 5 287 489
235 14 32 535
236 8 142 143
237 2 142 140
238 5 142 144
239 5 142 141
240 18 171 313
241 4 31 30
242 4 31 29
243 5 31 35
244 5 31 34
245 13 29 24
246 13 29 25
247 10 251 125
248 9 251 248
249 4 89 111
250 5 89 225
251 5 89 62
252 16 146 143
253 13 146 149
254 16 371 369
255 13 371 188
256 16 26 534
257 13 26 22
258 13 26 32
259 4 262 267
260 1 262 263
261 5 262 261
262 5 262 260
263 13 23 30
264 14 23 21
265 13 148 146
266 14 148 145
267 8 367 369
268 2 367 368
269 5 367 365
270 5 367 364
271 10 368 370
272 9 368 366
273 2 372 368
274 6 372 155
275 5 372 375
276 5 372 373
277 13 30 33
278 13 386 384
279 14 386 382
280 4 92 112
281 5 92 93
282 5 92 94
283 5 92 38
284 13 268 267
285 14 268 266
286 13 111 268
287 13 111 91
288 13 24 148
289 14 24 28
290 13 112 91
291 13 109 112
292 15 109 155
293 18 37 370
294 2 3 4
295 6 3 95
296 5 3 99
297 5 3 2
298 1 85 89
299 5 85 110
300 5 85 83
301 5 85 87
302 13 218 425
303 13 218 216
304 14 216 215
305 18 97 1
306 18 329 564
307 15 91 95
308 13 424 423
309 13 22 23
310 14 22 20
311 13 33 32
312 14 33 36
313 13 374 371
314 14 374 376
315 5 263 264
316 5 263 259
317 5 263 265
318 13 188 216
319 14 188 184
320 6 250 155
321 2 250 251
322 5 250 102
323 5 250 103
324 18 73 139
325 4 69 67
326 5 69 46
327 5 69 44
328 5 69 48
329 10 521 519
330 9 521 525
331 6 523 285
332 2 523 521
333 5 523 526
334 5 523 522
335 13 186 182
336 8 310 306
337 2 310 312
338 5 310 309
339 5 310 377
340 16 304 306
341 13 304 301
342 13 304 305
343 13 182 181
344 14 182 178
345 14 181 51
346 18 286 519
347 13 301 298
348 14 301 300
349 16 469 467
350 13 469 470
351 13 469 331
352 13 190 186
353 14 190 192
354 4 187 186
355 4 187 185
356 5 187 189
357 5 187 183
358 14 305 307
359 13 516 333
360 14 331 330
361 13 333 331
362 14 333 272
363 13 298 299
364 14 298 296
365 13 470 585
366 14 470 468
367 10 312 313
368 9 312 315
369 8 473 467
370 2 473 472
371 5 473 471
372 5 473 443
373 13 475 477
374 13 475 478
375 8 520 358
376 2 520 521
377 5 520 518
378 5 520 524
379 10 472 466
380 9 472 474
381 13 302 305
382 14 302 303
383 16 58 59
384 13 58 60
385 13 58 181
386 13 585 516
387 14 585 584
388 4 515 516
389 4 515 475
390 5 515 513
391 5 515 514
392 14 392 335
393 4 581 417
394 4 581 580
395 5 581 460
396 5 581 549
397 13 299 302
398 13 580 456
399 13 580 578
400 13 232 233
401 14 232 230
402 4 229 233
403 4 229 231
404 5 229 228
405 5 229 226
406 8 131 129
407 2 131 251
408 5 131 134
409 5 131 133
410 13 233 235
411 14 478 476
412 13 477 479
413 14 477 562
414 13 185 136
415 13 185 180
416 13 234 232
417 14 234 118
418 4 295 299
419 4 295 499
420 5 295 293
421 5 295 458
422 13 418 417
423 14 418 419
424 13 415 418
425 14 415 416
426 16 238 241
427 13 238 234
428 13 238 239
429 13 136 135
430 14 136 191
431 14 180 179
432 13 128 180
433 14 128 126
434 16 130 129
435 13 130 128
436 12 211 213
437 11 211 214
438 3 208 211
439 8 208 413
440 5 208 206
441 5 208 209
442 16 414 413
443 13 414 415
444 13 414 412
445 14 412 411
446 12 490 486
447 11 490 488
448 16 482 484
449 13 482 480
450 13 455 412
451 14 455 454
452 13 479 482
453 14 479 563
454 8 487 484
455 3 487 490
456 5 487 485
457 5 487 491
458 18 114 466
459 14 497 495
460 13 498 497
461 14 498 496
462 13 480 478
463 14 480 481
464 13 417 455
465 13 499 502
466 13 499 497
467 13 502 503
468 14 502 463
469 16 353 358
470 13 353 350
471 13 353 352
472 16 500 501
473 13 500 498
474 14 239 240
475 13 235 239
476 14 235 236
477 3 492 490
478 7 492 486
479 5 492 493
480 5 492 494
481 13 350 343
482 14 350 517
483 14 352 290
484 13 135 130
485 14 135 137
486 8 504 501
487 2 504 108
488 5 504 506
489 5 504 582
490 13 201 404
491 14 201 237
492 13 231 201
493 13 231 445
494 13 60 190
495 14 60 61
496 2 84 86
497 6 84 317
498 5 84 552
499 5 84 82
500 13 65 67
501 15 65 542
502 4 63 64
503 1 63 545
504 5 63 98
505 5 63 539
506 8 55 59
507 2 55 79
508 5 55 52
509 5 55 54
510 6 544 542
511 2 544 405
512 5 544 541
513 5 544 548
514 13 404 400
515 14 404 409
516 14 445 444
517 16 400 402
518 13 400 397
519 13 397 445
520 14 397 396
521 18 540 77
522 10 86 559
523 9 86 88
524 10 405 543
525 9 405 538
526 8 406 402
527 2 406 405
528 5 406 410
529 5 406 408
530 10 79 77
531 9 79 81
532 2 78 79
533 6 78 542
534 5 78 80
535 5 78 76
536 10 197 199
537 9 197 200
538 8 195 394
539 2 195 197
540 5 195 163
541 5 195 398
542 18 318 559
543 6 196 317
544 2 196 197
545 5 196 194
546 5 196 198
547 18 464 199
548 8 561 558
549 2 561 86
550 5 561 90
551 5 561 537
552 18 547 543
553 18 449 39
554 13 555 553
555 13 555 557
556 13 64 65
557 16 442 394
558 13 442 438
559 13 442 393
560 14 578 579
561 7 210 213
562 3 210 211
563 5 210 207
564 5 210 212
565 5 545 576
566 5 545 572
567 5 545 546
568 18 96 107
569 13 390 386
570 14 390 391
571 13 149 25
572 14 149 147
573 13 577 578
574 14 577 574
575 13 438 435
576 14 438 437
577 13 334 390
578 13 334 392
579 13 435 436
580 14 435 433
581 14 557 440
582 13 439 393
583 14 439 441
584 10 108 107
585 9 108 19
586 6 105 95
587 2 105 108
588 5 105 106
589 5 105 104
590 13 343 342
591 14 343 339
592 13 342 348
593 13 348 352
594 14 348 284
595 13 553 554
596 14 553 550
597 14 25 27
598 4 434 436
599 4 434 555
600 5 434 431
601 5 434 429
602 13 554 556
603 14 554 551
604 4 337 342
605 4 337 334
606 5 337 338
607 5 337 336
608 16 556 558
609 13 556 560
610 14 393 395
611 13 560 557
612 14 560 536
613 13 436 439
614 13 503 500
615 14 503 505

Angles

1 24 347 351 356
2 26 347 351 173
3 26 356 351 173
4 24 347 344 349
5 25 347 344 341
6 25 349 344 341
7 9 165 347 344
8 9 165 347 351
9 24 344 347 351
10 1 162 165 347
11 2 162 165 164
12 2 162 165 166
13 23 347 165 164
14 29 164 165 166
15 23 347 165 166
16 2 165 162 160
17 29 160 162 161
18 29 160 162 159
19 2 165 162 161
20 29 161 162 159
21 2 165 162 159
22 11 244 173 351
23 11 311 173 351
24 10 244 173 311
25 16 247 244 173
26 30 242 244 173
27 30 245 244 173
28 15 247 244 242
29 29 242 244 245
30 15 247 244 245
31 9 447 281 283
32 24 283 281 278
33 9 447 281 278
34 18 531 527 227
35 3 528 531 532
36 5 528 531 527
37 4 528 531 533
38 4 532 531 533
39 33 533 531 527
40 5 532 531 527
41 9 345 349 344
42 24 344 349 354
43 9 345 349 354
44 9 361 356 354
45 24 354 356 351
46 9 361 356 351
47 24 49 47 174
48 25 49 47 45
49 25 174 47 45
50 3 244 247 252
51 5 244 247 243
52 4 244 247 246
53 4 252 247 246
54 33 246 247 243
55 5 252 247 243
56 17 247 252 461
57 15 247 252 459
58 15 247 252 253
59 32 459 252 461
60 29 459 252 253
61 32 253 252 461
62 24 349 354 356
63 26 356 354 357
64 26 349 354 357
65 23 356 361 363
66 23 356 361 360
67 23 356 361 362
68 29 363 361 360
69 29 363 361 362
70 29 360 361 362
71 27 255 462 461
72 27 421 462 461
73 24 255 462 421
74 17 531 532 534
75 15 531 532 530
76 15 531 532 508
77 32 530 532 534
78 29 530 532 508
79 32 508 532 534
80 24 280 283 281
81 26 280 283 285
82 26 281 283 285
83 14 252 461 462
84 3 257 140 142
85 5 257 140 139
86 4 257 140 138
87 4 142 140 138
88 33 138 140 139
89 5 142 140 139
90 9 56 177 49
91 9 56 177 124
92 24 49 177 124
93 24 177 49 47
94 25 177 49 50
95 25 47 49 50
96 23 281 447 446
97 23 281 447 450
98 23 281 447 448
99 29 446 447 450
100 29 446 447 448
101 29 450 447 448
102 22 15 56 177
103 23 15 56 132
104 23 15 56 57
105 23 177 56 132
106 29 132 56 57
107 23 177 56 57
108 18 247 243 175
109 18 140 139 73
110 16 43 41 285
111 30 42 41 285
112 30 40 41 285
113 15 43 41 42
114 29 42 41 40
115 15 43 41 40
116 9 282 280 277
117 24 277 280 283
118 9 282 280 283
119 24 276 278 281
120 26 276 278 116
121 26 281 278 116
122 11 528 116 278
123 11 269 116 278
124 10 528 116 269
125 16 531 528 116
126 30 507 528 116
127 30 529 528 116
128 15 531 528 507
129 29 507 528 529
130 15 531 528 529
131 24 462 421 423
132 25 462 421 420
133 25 423 421 420
134 24 177 124 176
135 25 177 124 127
136 25 176 124 127
137 27 47 174 169
138 24 47 174 176
139 27 176 174 169
140 24 174 176 124
141 25 174 176 120
142 25 124 176 120
143 1 403 345 349
144 23 349 345 346
145 23 349 345 340
146 2 403 345 346
147 29 346 345 340
148 2 403 345 340
149 16 312 311 173
150 30 314 311 173
151 30 308 311 173
152 15 312 311 314
153 29 314 311 308
154 15 312 311 308
155 2 345 403 401
156 2 345 403 407
157 2 345 403 399
158 29 401 403 407
159 29 401 403 399
160 29 407 403 399
161 17 43 168 169
162 15 43 168 172
163 15 43 168 167
164 32 172 168 169
165 29 172 168 167
166 32 167 168 169
167 14 168 169 174
168 1 287 282 280
169 23 280 282 279
170 23 280 282 483
171 2 287 282 279
172 29 279 282 483
173 2 287 282 483
174 14 532 534 26
175 24 580 456 453
176 25 580 456 457
177 25 453 456 457
178 18 312 313 171
179 24 218 425 374
180 25 218 425 426
181 25 374 425 426
182 11 223 357 354
183 28 354 357 359
184 12 223 357 359
185 16 472 269 116
186 30 270 269 116
187 30 271 269 116
188 15 472 269 270
189 29 270 269 271
190 15 472 269 271
191 16 379 223 357
192 30 224 223 357
193 30 222 223 357
194 15 379 223 224
195 29 224 223 222
196 15 379 223 222
197 24 276 277 280
198 25 276 277 275
199 25 280 277 275
200 9 274 276 277
201 9 274 276 278
202 24 277 276 278
203 13 294 291 123
204 9 56 15 17
205 24 17 15 13
206 9 56 15 13
207 24 14 17 15
208 25 14 17 18
209 25 15 17 18
210 2 274 113 115
211 29 115 113 158
212 29 115 113 157
213 2 274 113 158
214 29 158 113 157
215 2 274 113 157
216 1 113 274 276
217 2 113 274 117
218 2 113 274 273
219 23 276 274 117
220 29 117 274 273
221 23 276 274 273
222 3 223 379 430
223 5 223 379 193
224 4 223 379 378
225 4 430 379 378
226 33 378 379 193
227 5 430 379 193
228 27 14 12 9
229 27 11 12 9
230 24 14 12 11
231 24 12 14 17
232 25 12 14 16
233 25 17 14 16
234 24 15 13 11
235 25 15 13 53
236 25 11 13 53
237 14 8 9 12
238 18 251 125 153
239 24 12 11 13
240 25 12 11 10
241 25 13 11 10
242 6 294 123 121
243 8 294 123 291
244 7 294 123 292
245 7 121 123 292
246 34 292 123 291
247 8 121 123 291
248 18 379 193 355
249 31 297 294 291
250 19 123 294 297
251 29 297 294 249
252 31 249 294 291
253 19 123 294 249
254 20 123 294 291
255 17 379 430 380
256 15 379 430 428
257 15 379 430 432
258 32 428 430 380
259 29 428 430 432
260 32 432 430 380
261 17 4 8 9
262 15 4 8 7
263 15 4 8 6
264 32 7 8 9
265 29 7 8 6
266 32 6 8 9
267 14 430 380 384
268 24 384 388 392
269 25 384 388 387
270 25 392 388 387
271 24 424 423 421
272 25 424 423 422
273 25 421 423 422
274 27 386 384 380
275 24 386 384 388
276 27 388 384 380
277 14 121 241 238
278 21 123 121 241
279 19 123 121 119
280 19 123 121 122
281 32 119 121 241
282 29 119 121 122
283 32 122 121 241
284 22 424 219 218
285 23 424 219 221
286 23 424 219 427
287 23 218 219 221
288 29 221 219 427
289 23 218 219 427
290 3 41 43 168
291 5 41 43 39
292 4 41 43 170
293 4 168 43 170
294 33 170 43 39
295 5 168 43 39
296 3 3 4 8
297 5 3 4 1
298 4 3 4 5
299 4 8 4 5
300 33 5 4 1
301 5 8 4 1
302 16 140 257 72
303 30 254 257 72
304 30 258 257 72
305 15 140 257 254
306 29 254 257 258
307 15 140 257 258
308 11 84 317 320
309 11 196 317 320
310 10 84 317 196
311 9 262 267 268
312 24 268 267 109
313 9 262 267 109
314 2 328 383 512
315 29 512 383 381
316 29 512 383 389
317 2 328 383 381
318 29 381 383 389
319 2 328 383 389
320 18 43 39 449
321 24 462 255 217
322 25 462 255 256
323 25 217 255 256
324 2 319 510 583
325 2 319 510 509
326 2 319 510 511
327 29 583 510 509
328 29 583 510 511
329 29 509 510 511
330 9 69 67 65
331 24 65 67 70
332 9 69 67 70
333 11 257 72 70
334 28 70 72 74
335 12 257 72 74
336 24 326 323 321
337 25 326 323 324
338 25 321 323 324
339 23 322 152 154
340 23 322 152 151
341 23 322 152 150
342 29 154 152 151
343 29 154 152 150
344 29 151 152 150
345 9 71 68 66
346 9 71 68 70
347 24 66 68 70
348 11 569 327 325
349 28 325 327 156
350 12 569 327 156
351 9 152 322 320
352 24 320 322 325
353 9 152 322 325
354 24 321 320 322
355 26 321 320 317
356 26 322 320 317
357 24 326 325 322
358 26 326 325 327
359 26 322 325 327
360 9 328 326 323
361 9 328 326 325
362 24 323 326 325
363 9 319 321 323
364 24 323 321 320
365 9 319 321 320
366 1 383 328 326
367 2 383 328 385
368 2 383 328 332
369 23 326 328 385
370 29 385 328 332
371 23 326 328 332
372 16 568 569 327
373 30 567 569 327
374 30 451 569 327
375 15 568 569 567
376 29 567 569 451
377 15 568 569 451
378 24 68 66 64
379 25 68 66 100
380 25 64 66 100
381 24 68 70 67
382 26 68 70 72
383 26 67 70 72
384 1 204 71 68
385 2 204 71 75
386 2 204 71 101
387 23 68 71 75
388 29 75 71 101
389 23 68 71 101
390 17 568 571 573
391 15 568 571 570
392 15 568 571 566
393 32 570 571 573
394 29 570 571 566
395 32 566 571 573
396 2 71 204 203
397 29 203 204 202
398 29 203 204 205
399 2 71 204 202
400 29 202 204 205
401 2 71 204 205
402 3 569 568 571
403 5 569 568 564
404 4 569 568 565
405 4 571 568 565
406 33 565 568 564
407 5 571 568 564
408 18 568 564 329
409 24 456 453 575
410 25 456 453 452
411 25 575 453 452
412 27 453 575 573
413 24 453 575 577
414 27 577 575 573
415 1 510 319 321
416 23 321 319 316
417 23 321 319 465
418 2 510 319 316
419 29 316 319 465
420 2 510 319 465
421 24 255 217 424
422 25 255 217 220
423 25 424 217 220
424 14 571 573 575
425 2 282 287 289
426 2 282 287 288
427 2 282 287 489
428 29 289 287 288
429 29 289 287 489
430 29 288 287 489
431 24 26 32 33
432 25 26 32 535
433 25 33 32 535
434 17 140 142 143
435 15 140 142 144
436 15 140 142 141
437 32 144 142 143
438 29 144 142 141
439 32 141 142 143
440 14 142 143 146
441 22 30 31 29
442 23 30 31 35
443 23 30 31 34
444 23 29 31 35
445 29 35 31 34
446 23 29 31 34
447 9 31 29 24
448 9 31 29 25
449 24 24 29 25
450 3 250 251 131
451 5 250 251 125
452 4 250 251 248
453 4 131 251 248
454 33 248 251 125
455 5 131 251 125
456 1 85 89 111
457 2 85 89 225
458 2 85 89 62
459 23 111 89 225
460 29 225 89 62
461 23 111 89 62
462 27 148 146 143
463 24 148 146 149
464 27 149 146 143
465 27 374 371 369
466 24 374 371 188
467 27 188 371 369
468 27 22 26 534
469 27 32 26 534
470 24 22 26 32
471 1 263 262 267
472 23 267 262 261
473 23 267 262 260
474 2 263 262 261
475 29 261 262 260
476 2 263 262 260
477 24 22 23 30
478 25 22 23 21
479 25 30 23 21
480 24 24 148 146
481 25 24 148 145
482 25 146 148 145
483 17 368 367 369
484 15 368 367 365
485 15 368 367 364
486 32 365 367 369
487 29 365 367 364
488 32 364 367 369
489 3 372 368 367
490 5 372 368 370
491 4 372 368 366
492 4 367 368 366
493 33 366 368 370
494 5 367 368 370
495 16 368 372 155
496 30 375 372 155
497 30 373 372 155
498 15 368 372 375
499 29 375 372 373
500 15 368 372 373
501 9 31 30 23
502 24 23 30 33
503 9 31 30 33
504 24 390 386 384
505 25 390 386 382
506 25 384 386 382
507 23 112 92 93
508 23 112 92 94
509 23 112 92 38
510 29 93 92 94
511 29 93 92 38
512 29 94 92 38
513 24 111 268 267
514 25 111 268 266
515 25 267 268 266
516 9 89 111 268
517 9 89 111 91
518 24 268 111 91
519 24 29 24 148
520 25 29 24 28
521 25 148 24 28
522 14 367 369 371
523 9 92 112 109
524 24 109 112 91
525 9 92 112 91
526 24 267 109 112
527 26 112 109 155
528 26 267 109 155
529 11 372 155 109
530 11 250 155 109
531 10 372 155 250
532 16 4 3 95
533 30 99 3 95
534 30 2 3 95
535 15 4 3 99
536 29 99 3 2
537 15 4 3 2
538 2 89 85 110
539 29 110 85 83
540 29 110 85 87
541 2 89 85 83
542 29 83 85 87
543 2 89 85 87
544 9 219 218 425
545 9 219 218 216
546 24 425 218 216
547 24 218 216 188
548 25 218 216 215
549 25 188 216 215
550 18 368 370 37
551 24 111 91 112
552 26 111 91 95
553 26 112 91 95
554 9 219 424 217
555 24 217 424 423
556 9 219 424 423
557 24 26 22 23
558 25 26 22 20
559 25 23 22 20
560 24 30 33 32
561 25 30 33 36
562 25 32 33 36
563 11 3 95 91
564 11 105 95 91
565 10 3 95 105
566 24 425 374 371
567 25 425 374 376
568 25 371 374 376
569 18 4 1 97
570 2 262 263 264
571 2 262 263 259
572 2 262 263 265
573 29 264 263 259
574 29 264 263 265
575 29 259 263 265
576 24 371 188 216
577 25 371 188 184
578 25 216 188 184
579 16 251 250 155
580 30 102 250 155
581 30 103 250 155
582 15 251 250 102
583 29 102 250 103
584 15 251 250 103
585 23 67 69 46
586 23 67 69 44
587 23 67 69 48
588 29 46 69 44
589 29 46 69 48
590 29 44 69 48
591 3 523 521 520
592 5 523 521 519
593 4 523 521 525
594 4 520 521 525
595 33 525 521 519
596 5 520 521 519
597 16 521 523 285
598 30 526 523 285
599 30 522 523 285
600 15 521 523 526
601 29 526 523 522
602 15 521 523 522
603 9 187 186 190
604 24 190 186 182
605 9 187 186 182
606 17 312 310 306
607 15 312 310 309
608 15 312 310 377
609 32 309 310 306
610 29 309 310 377
611 32 377 310 306
612 14 310 306 304
613 27 301 304 306
614 27 305 304 306
615 24 301 304 305
616 24 186 182 181
617 25 186 182 178
618 25 181 182 178
619 24 58 181 182
620 25 58 181 51
621 25 182 181 51
622 18 521 519 286
623 24 304 301 298
624 25 304 301 300
625 25 298 301 300
626 27 470 469 467
627 27 331 469 467
628 24 470 469 331
629 24 60 190 186
630 25 60 190 192
631 25 186 190 192
632 22 186 187 185
633 23 186 187 189
634 23 186 187 183
635 23 185 187 189
636 29 189 187 183
637 23 185 187 183
638 24 304 305 302
639 25 304 305 307
640 25 302 305 307
641 9 515 516 585
642 24 585 516 333
643 9 515 516 333
644 24 469 331 333
645 25 469 331 330
646 25 333 331 330
647 24 516 333 331
648 25 516 333 272
649 25 331 333 272
650 24 301 298 299
651 25 301 298 296
652 25 299 298 296
653 14 473 467 469
654 24 469 470 585
655 25 469 470 468
656 25 585 470 468
657 3 311 312 310
658 5 311 312 313
659 4 311 312 315
660 4 310 312 315
661 33 315 312 313
662 5 310 312 313
663 17 472 473 467
664 15 472 473 471
665 15 472 473 443
666 32 471 473 467
667 29 471 473 443
668 32 443 473 467
669 9 515 475 477
670 9 515 475 478
671 24 477 475 478
672 17 521 520 358
673 15 521 520 518
674 15 521 520 524
675 32 518 520 358
676 29 518 520 524
677 32 524 520 358
678 3 269 472 473
679 5 269 472 466
680 4 269 472 474
681 4 473 472 474
682 33 474 472 466
683 5 473 472 466
684 24 299 302 305
685 25 299 302 303
686 25 305 302 303
687 27 60 58 59
688 27 181 58 59
689 24 60 58 181
690 24 470 585 516
691 25 470 585 584
692 25 516 585 584
693 11 41 285 283
694 11 523 285 283
695 10 41 285 523
696 22 516 515 475
697 23 516 515 513
698 23 516 515 514
699 23 475 515 513
700 29 513 515 514
701 23 475 515 514
702 24 334 392 388
703 25 334 392 335
704 25 388 392 335
705 22 417 581 580
706 23 417 581 460
707 23 417 581 549
708 23 580 581 460
709 29 460 581 549
710 23 580 581 549
711 9 295 299 298
712 24 298 299 302
713 9 295 299 302
714 9 581 580 456
715 9 581 580 578
716 24 456 580 578
717 24 234 232 233
718 25 234 232 230
719 25 233 232 230
720 22 233 229 231
721 23 233 229 228
722 23 233 229 226
723 23 231 229 228
724 29 228 229 226
725 23 231 229 226
726 17 251 131 129
727 15 251 131 134
728 15 251 131 133
729 32 134 131 129
730 29 134 131 133
731 32 133 131 129
732 9 229 233 232
733 24 232 233 235
734 9 229 233 235
735 24 475 478 480
736 25 475 478 476
737 25 480 478 476
738 24 475 477 479
739 25 475 477 562
740 25 479 477 562
741 13 210 213 211
742 9 187 185 136
743 9 187 185 180
744 24 136 185 180
745 24 238 234 232
746 25 238 234 118
747 25 232 234 118
748 14 520 358 353
749 22 299 295 499
750 23 299 295 293
751 23 299 295 458
752 23 499 295 293
753 29 293 295 458
754 23 499 295 458
755 24 415 418 417
756 25 415 418 419
757 25 417 418 419
758 24 414 415 418
759 25 414 415 416
760 25 418 415 416
761 27 234 238 241
762 27 239 238 241
763 24 234 238 239
764 14 131 129 130
765 24 185 136 135
766 25 185 136 191
767 25 135 136 191
768 24 185 180 128
769 25 185 180 179
770 25 128 180 179
771 24 130 128 180
772 25 130 128 126
773 25 180 128 126
774 27 135 130 129
775 24 135 130 128
776 27 128 130 129
777 6 210 211 208
778 8 210 211 213
779 7 210 211 214
780 7 208 211 214
781 34 214 211 213
782 8 208 211 213
783 21 211 208 413
784 19 211 208 206
785 19 211 208 209
786 32 206 208 413
787 29 206 208 209
788 32 209 208 413
789 27 415 414 413
790 27 412 414 413
791 24 415 414 412
792 14 208 413 414
793 24 414 412 455
794 25 414 412 411
795 25 455 412 411
796 6 487 490 492
797 8 487 490 486
798 7 487 490 488
799 7 492 490 488
800 34 488 490 486
801 8 492 490 486
802 27 479 482 484
803 24 479 482 480
804 27 480 482 484
805 18 472 466 114
806 24 417 455 412
807 25 417 455 454
808 25 412 455 454
809 14 487 484 482
810 24 477 479 482
811 25 477 479 563
812 25 482 479 563
813 21 490 487 484
814 32 485 487 484
815 32 491 487 484
816 19 490 487 485
817 29 485 487 491
818 19 490 487 491
819 13 492 486 490
820 24 499 497 498
821 25 499 497 495
822 25 498 497 495
823 24 500 498 497
824 25 500 498 496
825 25 497 498 496
826 24 482 480 478
827 25 482 480 481
828 25 478 480 481
829 9 581 417 418
830 24 418 417 455
831 9 581 417 455
832 9 295 499 502
833 9 295 499 497
834 24 502 499 497
835 24 499 502 503
836 25 499 502 463
837 25 503 502 463
838 27 350 353 358
839 27 352 353 358
840 24 350 353 352
841 27 503 500 501
842 24 503 500 498
843 27 498 500 501
844 24 238 239 235
845 25 238 239 240
846 25 235 239 240
847 24 233 235 239
848 25 233 235 236
849 25 239 235 236
850 20 490 492 486
851 19 490 492 493
852 19 490 492 494
853 31 493 492 486
854 29 493 492 494
855 31 494 492 486
856 14 504 501 500
857 24 353 350 343
858 25 353 350 517
859 25 343 350 517
860 24 353 352 348
861 25 353 352 290
862 25 348 352 290
863 24 136 135 130
864 25 136 135 137
865 25 130 135 137
866 17 108 504 501
867 15 108 504 506
868 15 108 504 582
869 32 506 504 501
870 29 506 504 582
871 32 582 504 501
872 24 231 201 404
873 25 231 201 237
874 25 404 201 237
875 9 229 231 201
876 9 229 231 445
877 24 201 231 445
878 24 58 60 190
879 25 58 60 61
880 25 190 60 61
881 16 86 84 317
882 30 552 84 317
883 30 82 84 317
884 15 86 84 552
885 29 552 84 82
886 15 86 84 82
887 24 64 65 67
888 26 64 65 542
889 26 67 65 542
890 1 545 63 64
891 23 64 63 98
892 23 64 63 539
893 2 545 63 98
894 29 98 63 539
895 2 545 63 539
896 17 79 55 59
897 15 79 55 52
898 15 79 55 54
899 32 52 55 59
900 29 52 55 54
901 32 54 55 59
902 14 55 59 58
903 16 405 544 542
904 30 541 544 542
905 30 548 544 542
906 15 405 544 541
907 29 541 544 548
908 15 405 544 548
909 11 78 542 65
910 11 544 542 65
911 10 78 542 544
912 24 201 404 400
913 25 201 404 409
914 25 400 404 409
915 18 197 199 464
916 24 231 445 397
917 25 231 445 444
918 25 397 445 444
919 27 404 400 402
920 24 404 400 397
921 27 397 400 402
922 14 406 402 400
923 24 400 397 445
924 25 400 397 396
925 25 445 397 396
926 18 86 559 318
927 3 84 86 561
928 5 84 86 559
929 4 84 86 88
930 4 561 86 88
931 33 88 86 559
932 5 561 86 559
933 3 544 405 406
934 5 544 405 543
935 4 544 405 538
936 4 406 405 538
937 33 538 405 543
938 5 406 405 543
939 17 405 406 402
940 15 405 406 410
941 15 405 406 408
942 32 410 406 402
943 29 410 406 408
944 32 408 406 402
945 3 78 79 55
946 5 78 79 77
947 4 78 79 81
948 4 55 79 81
949 33 81 79 77
950 5 55 79 77
951 18 79 77 540
952 16 79 78 542
953 30 80 78 542
954 30 76 78 542
955 15 79 78 80
956 29 80 78 76
957 15 79 78 76
958 3 196 197 195
959 5 196 197 199
960 4 196 197 200
961 4 195 197 200
962 33 200 197 199
963 5 195 197 199
964 17 197 195 394
965 15 197 195 163
966 15 197 195 398
967 32 163 195 394
968 29 163 195 398
969 32 398 195 394
970 16 197 196 317
971 30 194 196 317
972 30 198 196 317
973 15 197 196 194
974 29 194 196 198
975 15 197 196 198
976 14 195 394 442
977 18 405 543 547
978 17 86 561 558
979 15 86 561 90
980 15 86 561 537
981 32 90 561 558
982 29 90 561 537
983 32 537 561 558
984 9 434 555 553
985 9 434 555 557
986 24 553 555 557
987 9 63 64 66
988 24 66 64 65
989 9 63 64 65
990 27 438 442 394
991 27 393 442 394
992 24 438 442 393
993 24 580 578 577
994 25 580 578 579
995 25 577 578 579
996 31 207 210 213
997 19 211 210 207
998 29 207 210 212
999 31 212 210 213
1000 19 211 210 212
1001 20 211 210 213
1002 2 63 545 576
1003 2 63 545 572
1004 2 63 545 546
1005 29 576 545 572
1006 29 576 545 546
1007 29 572 545 546
1008 24 334 390 386
1009 25 334 390 391
1010 25 386 390 391
1011 24 146 149 25
1012 25 146 149 147
1013 25 25 149 147
1014 24 575 577 578
1015 25 575 577 574
1016 25 578 577 574
1017 24 442 438 435
1018 25 442 438 437
1019 25 435 438 437
1020 9 337 334 390
1021 9 337 334 392
1022 24 390 334 392
1023 24 438 435 436
1024 25 438 435 433
1025 25 436 435 433
1026 24 555 557 560
1027 25 555 557 440
1028 25 560 557 440
1029 24 436 439 393
1030 25 436 439 441
1031 25 393 439 441
1032 14 561 558 556
1033 3 105 108 504
1034 5 105 108 107
1035 4 105 108 19
1036 4 504 108 19
1037 33 19 108 107
1038 5 504 108 107
1039 16 108 105 95
1040 30 106 105 95
1041 30 104 105 95
1042 15 108 105 106
1043 29 106 105 104
1044 15 108 105 104
1045 18 108 107 96
1046 24 350 343 342
1047 25 350 343 339
1048 25 342 343 339
1049 9 337 342 343
1050 24 343 342 348
1051 9 337 342 348
1052 24 342 348 352
1053 25 342 348 284
1054 25 352 348 284
1055 24 555 553 554
1056 25 555 553 550
1057 25 554 553 550
1058 24 29 25 149
1059 25 29 25 27
1060 25 149 25 27
1061 22 436 434 555
1062 23 436 434 431
1063 23 436 434 429
1064 23 555 434 431
1065 29 431 434 429
1066 23 555 434 429
1067 24 553 554 556
1068 25 553 554 551
1069 25 556 554 551
1070 22 342 337 334
1071 23 342 337 338
1072 23 342 337 336
1073 23 334 337 338
1074 29 338 337 336
1075 23 334 337 336
1076 27 554 556 558
1077 24 554 556 560
1078 27 560 556 558
1079 24 442 393 439
1080 25 442 393 395
1081 25 439 393 395
1082 24 556 560 557
1083 25 556 560 536
1084 25 557 560 536
1085 9 434 436 435
1086 24 435 436 439
1087 9 434 436 439
1088 24 502 503 500
1089 25 502 503 505
1090 25 500 503 505

Dihedrals

1 26 347 351 356 354
2 26 347 344 349 354
3 26 349 344 347 351
4 10 165 347 344 349
5 11 165 347 344 341
6 10 165 347 351 356
7 25 344 347 165 164
8 25 351 347 165 164
9 25 344 347 165 166
10 25 351 347 165 166
11 26 344 347 351 356
12 27 351 347 344 341
13 28 344 347 351 173
14 12 165 347 351 173
15 1 162 165 347 344
16 1 162 165 347 351
17 23 347 165 162 160
18 23 347 165 162 161
19 23 347 165 162 159
20 33 160 162 165 164
21 33 160 162 165 166
22 33 161 162 165 164
23 33 161 162 165 166
24 33 159 162 165 164
25 33 159 162 165 166
26 15 244 173 351 347
27 15 311 173 351 347
28 15 244 173 351 356
29 15 311 173 351 356
30 31 351 173 244 242
31 31 351 173 244 245
32 31 351 173 311 314
33 31 351 173 311 308
34 13 244 173 311 312
35 14 244 173 311 314
36 14 244 173 311 308
37 14 311 173 244 242
38 14 311 173 244 245
39 13 311 173 244 247
40 18 247 244 173 351
41 46 173 244 247 243
42 35 242 244 247 243
43 34 242 244 247 246
44 35 245 244 247 243
45 34 245 244 247 246
46 10 447 281 278 276
47 10 447 281 283 280
48 25 283 281 447 446
49 25 283 281 447 450
50 25 283 281 447 448
51 25 278 281 447 446
52 25 278 281 447 450
53 25 278 281 447 448
54 12 447 281 278 116
55 28 283 281 278 116
56 12 447 281 283 285
57 28 278 281 283 285
58 4 528 531 532 534
59 2 528 531 532 530
60 2 528 531 532 508
61 40 533 531 532 534
62 3 532 531 528 116
63 39 533 531 528 116
64 5 532 531 527 227
65 41 533 531 527 227
66 2 532 531 528 529
67 5 528 531 527 227
68 2 532 531 528 507
69 10 345 349 344 347
70 25 344 349 345 346
71 25 344 349 345 340
72 26 344 349 354 356
73 11 345 349 344 341
74 27 354 349 344 341
75 25 354 349 345 346
76 25 354 349 345 340
77 10 345 349 354 356
78 12 345 349 354 357
79 28 344 349 354 357
80 10 361 356 351 347
81 10 361 356 354 349
82 25 354 356 361 363
83 25 354 356 361 360
84 25 354 356 361 362
85 25 351 356 361 363
86 25 351 356 361 360
87 25 351 356 361 362
88 12 361 356 354 357
89 28 351 356 354 357
90 12 361 356 351 173
91 28 354 356 351 173
92 29 49 47 174 169
93 26 49 47 174 176
94 27 174 47 49 50
95 45 45 47 174 169
96 4 244 247 252 461
97 2 244 247 252 459
98 2 244 247 252 253
99 40 246 247 252 461
100 3 252 247 244 173
101 39 246 247 244 173
102 5 252 247 243 175
103 41 246 247 243 175
104 2 252 247 244 245
105 5 244 247 243 175
106 2 252 247 244 242
107 20 247 252 461 462
108 34 459 252 247 246
109 34 253 252 247 246
110 48 461 252 247 243
111 35 459 252 247 243
112 35 253 252 247 243
113 26 349 354 356 351
114 30 356 354 357 359
115 30 349 354 357 359
116 26 255 462 421 423
117 27 255 462 421 420
118 27 421 462 255 256
119 20 531 532 534 26
120 34 530 532 531 533
121 34 508 532 531 533
122 48 534 532 531 527
123 35 530 532 531 527
124 35 508 532 531 527
125 26 280 283 281 278
126 17 252 461 462 255
127 17 252 461 462 421
128 32 462 461 252 253
129 32 462 461 252 459
130 3 142 140 257 72
131 39 138 140 257 72
132 4 257 140 142 143
133 2 257 140 142 144
134 2 257 140 142 141
135 5 257 140 139 73
136 2 142 140 257 254
137 2 142 140 257 258
138 40 138 140 142 143
139 41 138 140 139 73
140 5 142 140 139 73
141 10 56 177 49 47
142 11 56 177 49 50
143 10 56 177 124 176
144 11 56 177 124 127
145 25 49 177 56 132
146 25 124 177 56 132
147 25 49 177 56 57
148 25 124 177 56 57
149 26 49 177 124 176
150 27 49 177 124 127
151 27 124 177 49 50
152 26 177 49 47 174
153 27 177 49 47 45
154 44 50 49 47 45
155 26 47 49 177 124
156 24 177 56 15 17
157 24 15 56 177 49
158 24 15 56 177 124
159 24 177 56 15 13
160 18 43 41 285 283
161 46 285 41 43 39
162 35 42 41 43 39
163 34 42 41 43 170
164 35 40 41 43 39
165 34 40 41 43 170
166 10 282 280 277 276
167 25 277 280 282 279
168 25 277 280 282 483
169 26 277 280 283 281
170 11 282 280 277 275
171 27 283 280 277 275
172 25 283 280 282 279
173 25 283 280 282 483
174 10 282 280 283 281
175 28 277 280 283 285
176 12 282 280 283 285
177 26 276 278 281 283
178 15 528 116 278 276
179 15 269 116 278 276
180 15 528 116 278 281
181 15 269 116 278 281
182 31 278 116 528 507
183 31 278 116 528 529
184 31 278 116 269 270
185 31 278 116 269 271
186 13 528 116 269 472
187 14 528 116 269 270
188 14 528 116 269 271
189 14 269 116 528 507
190 14 269 116 528 529
191 13 269 116 528 531
192 18 531 528 116 278
193 46 116 528 531 527
194 35 507 528 531 527
195 34 507 528 531 533
196 35 529 528 531 527
197 34 529 528 531 533
198 29 423 421 462 461
199 45 420 421 462 461
200 26 462 421 423 424
201 27 462 421 423 422
202 26 177 124 176 174
203 27 177 124 176 120
204 26 47 174 176 124
205 27 47 174 176 120
206 27 176 174 47 45
207 27 174 176 124 127
208 45 120 176 174 169
209 44 120 176 124 127
210 29 124 176 174 169
211 1 403 345 349 344
212 23 349 345 403 401
213 23 349 345 403 407
214 23 349 345 403 399
215 1 403 345 349 354
216 33 346 345 403 401
217 33 346 345 403 407
218 33 346 345 403 399
219 33 340 345 403 401
220 33 340 345 403 407
221 33 340 345 403 399
222 18 312 311 173 351
223 46 173 311 312 313
224 35 314 311 312 313
225 34 314 311 312 315
226 35 308 311 312 313
227 34 308 311 312 315
228 20 43 168 169 174
229 34 172 168 43 170
230 34 167 168 43 170
231 48 169 168 43 39
232 35 172 168 43 39
233 35 167 168 43 39
234 17 168 169 174 47
235 17 168 169 174 176
236 32 174 169 168 167
237 32 174 169 168 172
238 1 287 282 280 277
239 23 280 282 287 289
240 23 280 282 287 288
241 23 280 282 287 489
242 1 287 282 280 283
243 33 279 282 287 289
244 33 279 282 287 288
245 33 279 282 287 489
246 33 483 282 287 289
247 33 483 282 287 288
248 33 483 282 287 489
249 17 532 534 26 22
250 17 532 534 26 32
251 32 26 534 532 508
252 32 26 534 532 530
253 26 580 456 453 575
254 27 580 456 453 452
255 44 457 456 453 452
256 26 453 456 580 578
257 26 218 425 374 371
258 27 218 425 374 376
259 44 426 425 374 376
260 26 374 425 218 216
261 15 223 357 354 356
262 31 354 357 223 224
263 31 354 357 223 222
264 15 223 357 354 349
265 18 472 269 116 278
266 46 116 269 472 466
267 35 270 269 472 466
268 34 270 269 472 474
269 35 271 269 472 466
270 34 271 269 472 474
271 18 379 223 357 354
272 46 357 223 379 193
273 19 379 223 357 359
274 38 224 223 357 359
275 38 222 223 357 359
276 35 224 223 379 193
277 34 224 223 379 378
278 35 222 223 379 193
279 34 222 223 379 378
280 26 276 277 280 283
281 26 280 277 276 278
282 10 274 276 277 280
283 11 274 276 277 275
284 10 274 276 278 281
285 25 277 276 274 117
286 25 278 276 274 117
287 25 277 276 274 273
288 25 278 276 274 273
289 26 277 276 278 281
290 27 278 276 277 275
291 28 277 276 278 116
292 12 274 276 278 116
293 16 294 291 123 292
294 22 123 291 294 297
295 22 123 291 294 249
296 10 56 15 17 14
297 25 17 15 56 132
298 25 17 15 56 57
299 26 17 15 13 11
300 27 17 15 13 53
301 11 56 15 17 18
302 27 13 15 17 18
303 25 13 15 56 132
304 25 13 15 56 57
305 11 56 15 13 53
306 10 56 15 13 11
307 26 14 17 15 13
308 27 15 17 14 16
309 33 115 113 274 117
310 33 115 113 274 273
311 33 158 113 274 117
312 33 158 113 274 273
313 33 157 113 274 117
314 33 157 113 274 273
315 1 113 274 276 277
316 1 113 274 276 278
317 23 276 274 113 115
318 23 276 274 113 158
319 23 276 274 113 157
320 3 430 379 223 357
321 39 378 379 223 357
322 4 223 379 430 380
323 2 223 379 430 428
324 2 223 379 430 432
325 5 223 379 193 355
326 2 430 379 223 224
327 2 430 379 223 222
328 40 378 379 430 380
329 41 378 379 193 355
330 5 430 379 193 355
331 26 14 12 11 13
332 27 14 12 11 10
333 27 11 12 14 16
334 29 17 14 12 9
335 45 16 14 12 9
336 26 12 14 17 15
337 27 12 14 17 18
338 44 16 14 17 18
339 26 17 14 12 11
340 27 15 13 11 10
341 44 53 13 11 10
342 17 8 9 12 14
343 17 8 9 12 11
344 32 12 9 8 6
345 32 12 9 8 7
346 29 13 11 12 9
347 45 10 11 12 9
348 26 12 11 13 15
349 27 12 11 13 53
350 9 121 123 291 294
351 8 294 123 121 241
352 6 294 123 121 119
353 6 294 123 121 122
354 6 121 123 294 297
355 6 121 123 294 249
356 42 292 123 294 291
357 43 292 123 121 241
358 47 291 123 121 241
359 7 121 123 294 291
360 37 297 294 123 291
361 36 297 294 123 292
362 37 249 294 123 291
363 36 249 294 123 292
364 20 379 430 380 384
365 34 428 430 379 378
366 34 432 430 379 378
367 48 380 430 379 193
368 35 428 430 379 193
369 35 432 430 379 193
370 20 4 8 9 12
371 34 7 8 4 5
372 34 6 8 4 5
373 48 9 8 4 1
374 35 7 8 4 1
375 35 6 8 4 1
376 17 430 380 384 386
377 17 430 380 384 388
378 32 384 380 430 432
379 32 384 380 430 428
380 27 384 388 392 335
381 45 387 388 384 380
382 44 387 388 392 335
383 29 392 388 384 380
384 27 424 423 421 420
385 44 422 423 421 420
386 26 386 384 388 392
387 27 386 384 388 387
388 27 388 384 386 382
389 17 121 241 238 234
390 17 121 241 238 239
391 32 238 241 121 119
392 32 238 241 121 122
393 21 123 121 241 238
394 36 119 121 123 292
395 36 122 121 123 292
396 37 119 121 123 291
397 37 122 121 123 291
398 24 218 219 424 217
399 24 424 219 218 425
400 24 424 219 218 216
401 24 218 219 424 423
402 4 41 43 168 169
403 2 41 43 168 172
404 2 41 43 168 167
405 40 170 43 168 169
406 3 168 43 41 285
407 39 170 43 41 285
408 5 168 43 39 449
409 41 170 43 39 449
410 2 168 43 41 40
411 5 41 43 39 449
412 2 168 43 41 42
413 4 3 4 8 9
414 2 3 4 8 7
415 2 3 4 8 6
416 40 5 4 8 9
417 3 8 4 3 95
418 39 5 4 3 95
419 5 8 4 1 97
420 41 5 4 1 97
421 2 8 4 3 2
422 5 3 4 1 97
423 2 8 4 3 99
424 18 140 257 72 70
425 46 72 257 140 139
426 19 140 257 72 74
427 38 254 257 72 74
428 38 258 257 72 74
429 35 254 257 140 139
430 34 254 257 140 138
431 35 258 257 140 139
432 34 258 257 140 138
433 15 84 317 320 321
434 15 196 317 320 321
435 15 84 317 320 322
436 15 196 317 320 322
437 31 320 317 84 552
438 31 320 317 84 82
439 31 320 317 196 194
440 31 320 317 196 198
441 13 84 317 196 197
442 14 84 317 196 194
443 14 84 317 196 198
444 14 196 317 84 552
445 14 196 317 84 82
446 13 196 317 84 86
447 10 262 267 268 111
448 25 268 267 262 261
449 25 268 267 262 260
450 26 268 267 109 112
451 11 262 267 268 266
452 27 109 267 268 266
453 25 109 267 262 261
454 25 109 267 262 260
455 10 262 267 109 112
456 12 262 267 109 155
457 28 268 267 109 155
458 33 512 383 328 385
459 33 512 383 328 332
460 33 381 383 328 385
461 33 381 383 328 332
462 33 389 383 328 385
463 33 389 383 328 332
464 29 217 255 462 461
465 45 256 255 462 461
466 26 462 255 217 424
467 27 462 255 217 220
468 44 256 255 217 220
469 26 217 255 462 421
470 10 69 67 70 68
471 10 69 67 65 64
472 25 65 67 69 46
473 25 65 67 69 44
474 25 65 67 69 48
475 25 70 67 69 46
476 25 70 67 69 44
477 25 70 67 69 48
478 12 69 67 70 72
479 28 65 67 70 72
480 12 69 67 65 542
481 28 70 67 65 542
482 15 257 72 70 68
483 31 70 72 257 254
484 31 70 72 257 258
485 15 257 72 70 67
486 26 326 323 321 320
487 26 321 323 326 325
488 10 71 68 66 64
489 11 71 68 66 100
490 10 71 68 70 67
491 25 66 68 71 75
492 25 70 68 71 75
493 25 66 68 71 101
494 25 70 68 71 101
495 26 66 68 70 67
496 27 70 68 66 100
497 12 71 68 70 72
498 28 66 68 70 72
499 15 569 327 325 326
500 31 325 327 569 567
501 31 325 327 569 451
502 15 569 327 325 322
503 10 152 322 325 326
504 10 152 322 320 321
505 25 320 322 152 154
506 25 320 322 152 151
507 25 320 322 152 150
508 25 325 322 152 154
509 25 325 322 152 151
510 25 325 322 152 150
511 12 152 322 325 327
512 28 320 322 325 327
513 12 152 322 320 317
514 28 325 322 320 317
515 26 321 320 322 325
516 26 326 325 322 320
517 30 326 325 327 156
518 30 322 325 327 156
519 10 328 326 323 321
520 11 328 326 323 324
521 10 328 326 325 322
522 25 323 326 328 385
523 25 325 326 328 385
524 25 323 326 328 332
525 25 325 326 328 332
526 26 323 326 325 322
527 27 325 326 323 324
528 12 328 326 325 327
529 28 323 326 325 327
530 10 319 321 323 326
531 25 323 321 319 316
532 25 323 321 319 465
533 26 323 321 320 322
534 11 319 321 323 324
535 27 320 321 323 324
536 25 320 321 319 316
537 25 320 321 319 465
538 10 319 321 320 322
539 28 323 321 320 317
540 12 319 321 320 317
541 1 383 328 326 323
542 1 383 328 326 325
543 23 326 328 383 512
544 23 326 328 383 381
545 23 326 328 383 389
546 18 568 569 327 325
547 46 327 569 568 564
548 19 568 569 327 156
549 38 567 569 327 156
550 38 451 569 327 156
551 35 567 569 568 564
552 34 567 569 568 565
553 35 451 569 568 564
554 34 451 569 568 565
555 26 68 66 64 65
556 26 64 66 68 70
557 26 68 70 67 65
558 30 68 70 72 74
559 30 67 70 72 74
560 1 204 71 68 66
561 1 204 71 68 70
562 23 68 71 204 203
563 23 68 71 204 202
564 23 68 71 204 205
565 20 568 571 573 575
566 34 570 571 568 565
567 34 566 571 568 565
568 48 573 571 568 564
569 35 570 571 568 564
570 35 566 571 568 564
571 33 203 204 71 75
572 33 203 204 71 101
573 33 202 204 71 75
574 33 202 204 71 101
575 33 205 204 71 75
576 33 205 204 71 101
577 3 571 568 569 327
578 39 565 568 569 327
579 4 569 568 571 573
580 2 569 568 571 570
581 2 569 568 571 566
582 5 569 568 564 329
583 2 571 568 569 567
584 2 571 568 569 451
585 40 565 568 571 573
586 41 565 568 564 329
587 5 571 568 564 329
588 29 456 453 575 573
589 26 456 453 575 577
590 27 575 453 456 457
591 45 452 453 575 573
592 26 453 575 577 578
593 27 453 575 577 574
594 27 577 575 453 452
595 1 510 319 321 323
596 23 321 319 510 583
597 23 321 319 510 509
598 23 321 319 510 511
599 1 510 319 321 320
600 33 316 319 510 583
601 33 316 319 510 509
602 33 316 319 510 511
603 33 465 319 510 583
604 33 465 319 510 509
605 33 465 319 510 511
606 26 255 217 424 423
607 27 424 217 255 256
608 17 571 573 575 453
609 17 571 573 575 577
610 32 575 573 571 566
611 32 575 573 571 570
612 29 33 32 26 534
613 45 535 32 26 534
614 26 26 32 33 30
615 27 26 32 33 36
616 20 140 142 143 146
617 34 144 142 140 138
618 34 141 142 140 138
619 48 143 142 140 139
620 35 144 142 140 139
621 35 141 142 140 139
622 17 142 143 146 148
623 17 142 143 146 149
624 32 146 143 142 141
625 32 146 143 142 144
626 24 29 31 30 23
627 24 30 31 29 24
628 24 30 31 29 25
629 24 29 31 30 33
630 10 31 29 24 148
631 11 31 29 24 28
632 10 31 29 25 149
633 11 31 29 25 27
634 25 24 29 31 35
635 25 25 29 31 35
636 25 24 29 31 34
637 25 25 29 31 34
638 26 24 29 25 149
639 27 24 29 25 27
640 27 25 29 24 28
641 3 131 251 250 155
642 39 248 251 250 155
643 4 250 251 131 129
644 2 250 251 131 134
645 2 250 251 131 133
646 5 250 251 125 153
647 2 131 251 250 102
648 2 131 251 250 103
649 40 248 251 131 129
650 41 248 251 125 153
651 5 131 251 125 153
652 1 85 89 111 268
653 1 85 89 111 91
654 23 111 89 85 110
655 23 111 89 85 83
656 23 111 89 85 87
657 26 148 146 149 25
658 27 148 146 149 147
659 27 149 146 148 145
660 26 374 371 188 216
661 27 374 371 188 184
662 27 188 371 374 376
663 26 22 26 32 33
664 27 22 26 32 535
665 27 32 26 22 20
666 1 263 262 267 268
667 23 267 262 263 264
668 23 267 262 263 259
669 23 267 262 263 265
670 1 263 262 267 109
671 33 261 262 263 264
672 33 261 262 263 259
673 33 261 262 263 265
674 33 260 262 263 264
675 33 260 262 263 259
676 33 260 262 263 265
677 26 22 23 30 33
678 27 30 23 22 20
679 29 24 148 146 143
680 26 24 148 146 149
681 27 146 148 24 28
682 45 145 148 146 143
683 20 368 367 369 371
684 34 365 367 368 366
685 34 364 367 368 366
686 48 369 367 368 370
687 35 365 367 368 370
688 35 364 367 368 370
689 4 372 368 367 369
690 2 372 368 367 365
691 2 372 368 367 364
692 40 366 368 367 369
693 3 367 368 372 155
694 39 366 368 372 155
695 5 367 368 370 37
696 41 366 368 370 37
697 2 367 368 372 373
698 5 372 368 370 37
699 2 367 368 372 375
700 18 368 372 155 109
701 46 155 372 368 370
702 35 375 372 368 370
703 34 375 372 368 366
704 35 373 372 368 370
705 34 373 372 368 366
706 10 31 30 23 22
707 25 23 30 31 35
708 25 23 30 31 34
709 26 23 30 33 32
710 27 23 30 33 36
711 11 31 30 23 21
712 27 33 30 23 21
713 25 33 30 31 35
714 25 33 30 31 34
715 11 31 30 33 36
716 10 31 30 33 32
717 29 390 386 384 380
718 26 390 386 384 388
719 27 384 386 390 391
720 45 382 386 384 380
721 26 111 268 267 109
722 26 267 268 111 91
723 10 89 111 268 267
724 11 89 111 268 266
725 10 89 111 91 112
726 25 268 111 89 225
727 25 91 111 89 225
728 25 268 111 89 62
729 25 91 111 89 62
730 26 268 111 91 112
731 27 91 111 268 266
732 28 268 111 91 95
733 12 89 111 91 95
734 26 29 24 148 146
735 27 29 24 148 145
736 44 28 24 148 145
737 26 148 24 29 25
738 17 367 369 371 374
739 17 367 369 371 188
740 32 371 369 367 364
741 32 371 369 367 365
742 10 92 112 91 111
743 10 92 112 109 267
744 25 109 112 92 93
745 25 109 112 92 94
746 25 109 112 92 38
747 25 91 112 92 93
748 25 91 112 92 94
749 25 91 112 92 38
750 12 92 112 91 95
751 28 109 112 91 95
752 28 91 112 109 155
753 12 92 112 109 155
754 26 267 109 112 91
755 15 372 155 109 112
756 15 250 155 109 112
757 15 372 155 109 267
758 15 250 155 109 267
759 31 109 155 372 375
760 31 109 155 372 373
761 31 109 155 250 102
762 31 109 155 250 103
763 13 372 155 250 251
764 14 372 155 250 102
765 14 372 155 250 103
766 14 250 155 372 375
767 14 250 155 372 373
768 13 250 155 372 368
769 18 4 3 95 91
770 46 95 3 4 1
771 35 99 3 4 1
772 34 99 3 4 5
773 35 2 3 4 1
774 34 2 3 4 5
775 33 110 85 89 225
776 33 110 85 89 62
777 33 83 85 89 225
778 33 83 85 89 62
779 33 87 85 89 225
780 33 87 85 89 62
781 10 219 218 425 374
782 11 219 218 425 426
783 10 219 218 216 188
784 11 219 218 216 215
785 25 425 218 219 221
786 25 216 218 219 221
787 25 425 218 219 427
788 25 216 218 219 427
789 26 425 218 216 188
790 27 425 218 216 215
791 27 216 218 425 426
792 26 218 216 188 371
793 27 218 216 188 184
794 26 111 91 112 109
795 10 219 424 217 255
796 25 217 424 219 221
797 25 217 424 219 427
798 26 217 424 423 421
799 27 217 424 423 422
800 11 219 424 217 220
801 27 423 424 217 220
802 25 423 424 219 221
803 25 423 424 219 427
804 11 219 424 423 422
805 10 219 424 423 421
806 29 23 22 26 534
807 45 20 22 26 534
808 26 26 22 23 30
809 27 26 22 23 21
810 44 20 22 23 21
811 26 23 22 26 32
812 27 30 33 32 535
813 44 36 33 32 535
814 15 3 95 91 111
815 15 105 95 91 111
816 15 3 95 91 112
817 15 105 95 91 112
818 31 91 95 3 99
819 31 91 95 3 2
820 31 91 95 105 106
821 31 91 95 105 104
822 13 3 95 105 108
823 14 3 95 105 106
824 14 3 95 105 104
825 14 105 95 3 99
826 14 105 95 3 2
827 13 105 95 3 4
828 29 425 374 371 369
829 26 425 374 371 188
830 27 371 374 425 426
831 45 376 374 371 369
832 27 371 188 216 215
833 45 184 188 371 369
834 44 184 188 216 215
835 29 216 188 371 369
836 18 251 250 155 109
837 46 155 250 251 125
838 35 102 250 251 125
839 34 102 250 251 248
840 35 103 250 251 125
841 34 103 250 251 248
842 3 520 521 523 285
843 39 525 521 523 285
844 4 523 521 520 358
845 2 523 521 520 518
846 2 523 521 520 524
847 5 523 521 519 286
848 2 520 521 523 526
849 2 520 521 523 522
850 40 525 521 520 358
851 41 525 521 519 286
852 5 520 521 519 286
853 18 521 523 285 283
854 46 285 523 521 519
855 35 526 523 521 519
856 34 526 523 521 525
857 35 522 523 521 519
858 34 522 523 521 525
859 10 187 186 190 60
860 25 190 186 187 189
861 25 190 186 187 183
862 26 190 186 182 181
863 27 190 186 182 178
864 11 187 186 190 192
865 27 182 186 190 192
866 25 182 186 187 189
867 25 182 186 187 183
868 11 187 186 182 178
869 10 187 186 182 181
870 20 312 310 306 304
871 34 309 310 312 315
872 34 377 310 312 315
873 48 306 310 312 313
874 35 309 310 312 313
875 35 377 310 312 313
876 17 310 306 304 301
877 17 310 306 304 305
878 32 304 306 310 377
879 32 304 306 310 309
880 26 301 304 305 302
881 27 301 304 305 307
882 27 305 304 301 300
883 27 186 182 181 51
884 44 178 182 181 51
885 29 182 181 58 59
886 45 51 181 58 59
887 26 58 181 182 186
888 27 58 181 182 178
889 29 298 301 304 306
890 45 300 301 304 306
891 26 304 301 298 299
892 27 304 301 298 296
893 44 300 301 298 296
894 26 298 301 304 305
895 26 470 469 331 333
896 27 470 469 331 330
897 27 331 469 470 468
898 26 60 190 186 182
899 27 186 190 60 61
900 24 185 187 186 190
901 24 186 187 185 136
902 24 186 187 185 180
903 24 185 187 186 182
904 29 302 305 304 306
905 45 307 305 304 306
906 26 304 305 302 299
907 27 304 305 302 303
908 10 515 516 585 470
909 25 585 516 515 513
910 25 585 516 515 514
911 26 585 516 333 331
912 27 585 516 333 272
913 11 515 516 585 584
914 27 333 516 585 584
915 25 333 516 515 513
916 25 333 516 515 514
917 11 515 516 333 272
918 10 515 516 333 331
919 29 333 331 469 467
920 45 330 331 469 467
921 26 469 331 333 516
922 27 469 331 333 272
923 27 516 333 331 330
924 44 272 333 331 330
925 26 301 298 299 302
926 27 299 298 301 300
927 17 473 467 469 470
928 17 473 467 469 331
929 32 469 467 473 443
930 32 469 467 473 471
931 29 585 470 469 467
932 45 468 470 469 467
933 26 469 470 585 516
934 27 469 470 585 584
935 44 468 470 585 584
936 26 585 470 469 331
937 3 310 312 311 173
938 39 315 312 311 173
939 4 311 312 310 306
940 2 311 312 310 309
941 2 311 312 310 377
942 5 311 312 313 171
943 2 310 312 311 314
944 2 310 312 311 308
945 40 315 312 310 306
946 41 315 312 313 171
947 5 310 312 313 171
948 20 472 473 467 469
949 34 471 473 472 474
950 34 443 473 472 474
951 48 467 473 472 466
952 35 471 473 472 466
953 35 443 473 472 466
954 10 515 475 477 479
955 11 515 475 477 562
956 10 515 475 478 480
957 11 515 475 478 476
958 25 477 475 515 513
959 25 478 475 515 513
960 25 477 475 515 514
961 25 478 475 515 514
962 26 477 475 478 480
963 27 477 475 478 476
964 27 478 475 477 562
965 20 521 520 358 353
966 34 518 520 521 525
967 34 524 520 521 525
968 48 358 520 521 519
969 35 518 520 521 519
970 35 524 520 521 519
971 3 473 472 269 116
972 39 474 472 269 116
973 4 269 472 473 467
974 2 269 472 473 471
975 2 269 472 473 443
976 5 269 472 466 114
977 2 473 472 269 270
978 2 473 472 269 271
979 40 474 472 473 467
980 41 474 472 466 114
981 5 473 472 466 114
982 27 299 302 305 307
983 44 303 302 305 307
984 26 60 58 181 182
985 27 60 58 181 51
986 27 181 58 60 61
987 26 470 585 516 333
988 27 516 585 470 468
989 15 41 285 283 280
990 15 523 285 283 280
991 15 41 285 283 281
992 15 523 285 283 281
993 31 283 285 41 42
994 31 283 285 41 40
995 31 283 285 523 526
996 31 283 285 523 522
997 13 41 285 523 521
998 14 41 285 523 526
999 14 41 285 523 522
1000 14 523 285 41 42
1001 14 523 285 41 40
1002 13 523 285 41 43
1003 24 475 515 516 585
1004 24 516 515 475 477
1005 24 516 515 475 478
1006 24 475 515 516 333
1007 26 334 392 388 384
1008 27 334 392 388 387
1009 24 580 581 417 418
1010 24 417 581 580 456
1011 24 417 581 580 578
1012 24 580 581 417 455
1013 10 295 299 298 301
1014 25 298 299 295 293
1015 25 298 299 295 458
1016 26 298 299 302 305
1017 27 298 299 302 303
1018 11 295 299 298 296
1019 27 302 299 298 296
1020 25 302 299 295 293
1021 25 302 299 295 458
1022 11 295 299 302 303
1023 10 295 299 302 305
1024 10 581 580 456 453
1025 11 581 580 456 457
1026 10 581 580 578 577
1027 11 581 580 578 579
1028 25 456 580 581 460
1029 25 578 580 581 460
1030 25 456 580 581 549
1031 25 578 580 581 549
1032 26 456 580 578 577
1033 27 456 580 578 579
1034 27 578 580 456 457
1035 26 234 232 233 235
1036 27 233 232 234 118
1037 24 231 229 233 232
1038 24 233 229 231 201
1039 24 233 229 231 445
1040 24 231 229 233 235
1041 20 251 131 129 130
1042 34 134 131 251 248
1043 34 133 131 251 248
1044 48 129 131 251 125
1045 35 134 131 251 125
1046 35 133 131 251 125
1047 10 229 233 232 234
1048 25 232 233 229 228
1049 25 232 233 229 226
1050 26 232 233 235 239
1051 27 232 233 235 236
1052 11 229 233 232 230
1053 27 235 233 232 230
1054 25 235 233 229 228
1055 25 235 233 229 226
1056 11 229 233 235 236
1057 10 229 233 235 239
1058 26 475 478 480 482
1059 27 475 478 480 481
1060 26 475 477 479 482
1061 27 475 477 479 563
1062 44 562 477 479 563
1063 26 479 477 475 478
1064 16 210 213 211 214
1065 22 211 213 210 207
1066 22 211 213 210 212
1067 10 187 185 136 135
1068 11 187 185 136 191
1069 10 187 185 180 128
1070 11 187 185 180 179
1071 25 136 185 187 189
1072 25 180 185 187 189
1073 25 136 185 187 183
1074 25 180 185 187 183
1075 26 136 185 180 128
1076 27 136 185 180 179
1077 27 180 185 136 191
1078 29 232 234 238 241
1079 45 118 234 238 241
1080 26 238 234 232 233
1081 27 238 234 232 230
1082 44 118 234 232 230
1083 26 232 234 238 239
1084 17 520 358 353 350
1085 17 520 358 353 352
1086 32 353 358 520 524
1087 32 353 358 520 518
1088 24 499 295 299 298
1089 24 299 295 499 502
1090 24 299 295 499 497
1091 24 499 295 299 302
1092 26 415 418 417 455
1093 27 417 418 415 416
1094 29 418 415 414 413
1095 45 416 415 414 413
1096 26 414 415 418 417
1097 27 414 415 418 419
1098 44 416 415 418 419
1099 26 418 415 414 412
1100 26 234 238 239 235
1101 27 234 238 239 240
1102 27 239 238 234 118
1103 17 131 129 130 135
1104 17 131 129 130 128
1105 32 130 129 131 133
1106 32 130 129 131 134
1107 26 185 136 135 130
1108 27 185 136 135 137
1109 44 191 136 135 137
1110 26 135 136 185 180
1111 26 185 180 128 130
1112 27 185 180 128 126
1113 27 130 128 180 179
1114 45 126 128 130 129
1115 44 126 128 180 179
1116 29 180 128 130 129
1117 26 135 130 128 180
1118 27 135 130 128 126
1119 27 128 130 135 137
1120 9 208 211 213 210
1121 8 210 211 208 413
1122 6 210 211 208 206
1123 6 210 211 208 209
1124 6 208 211 210 207
1125 6 208 211 210 212
1126 42 214 211 210 213
1127 43 214 211 208 413
1128 47 213 211 208 413
1129 7 208 211 210 213
1130 21 211 208 413 414
1131 36 206 208 211 214
1132 36 209 208 211 214
1133 37 206 208 211 213
1134 37 209 208 211 213
1135 26 415 414 412 455
1136 27 415 414 412 411
1137 27 412 414 415 416
1138 17 208 413 414 415
1139 17 208 413 414 412
1140 32 414 413 208 206
1141 32 414 413 208 209
1142 29 455 412 414 413
1143 45 411 412 414 413
1144 26 414 412 455 417
1145 27 414 412 455 454
1146 8 492 490 487 484
1147 47 486 490 487 484
1148 43 488 490 487 484
1149 7 487 490 492 486
1150 6 487 490 492 493
1151 6 487 490 492 494
1152 9 487 490 486 492
1153 6 492 490 487 485
1154 6 492 490 487 491
1155 42 488 490 492 486
1156 26 479 482 480 478
1157 27 479 482 480 481
1158 27 480 482 479 563
1159 27 417 455 412 411
1160 44 454 455 412 411
1161 17 487 484 482 479
1162 32 482 484 487 485
1163 32 482 484 487 491
1164 17 487 484 482 480
1165 29 477 479 482 484
1166 26 477 479 482 480
1167 27 482 479 477 562
1168 45 563 479 482 484
1169 21 490 487 484 482
1170 37 485 487 490 486
1171 36 485 487 490 488
1172 37 491 487 490 486
1173 36 491 487 490 488
1174 22 490 486 492 493
1175 22 490 486 492 494
1176 16 492 486 490 488
1177 26 499 497 498 500
1178 27 499 497 498 496
1179 27 500 498 497 495
1180 45 496 498 500 501
1181 44 496 498 497 495
1182 29 497 498 500 501
1183 27 482 480 478 476
1184 45 481 480 482 484
1185 44 481 480 478 476
1186 29 478 480 482 484
1187 10 581 417 418 415
1188 25 418 417 581 460
1189 25 418 417 581 549
1190 26 418 417 455 412
1191 27 418 417 455 454
1192 11 581 417 418 419
1193 27 455 417 418 419
1194 25 455 417 581 460
1195 25 455 417 581 549
1196 11 581 417 455 454
1197 10 581 417 455 412
1198 10 295 499 502 503
1199 11 295 499 502 463
1200 10 295 499 497 498
1201 11 295 499 497 495
1202 25 502 499 295 293
1203 25 497 499 295 293
1204 25 502 499 295 458
1205 25 497 499 295 458
1206 26 502 499 497 498
1207 27 502 499 497 495
1208 27 497 499 502 463
1209 26 499 502 503 500
1210 27 499 502 503 505
1211 44 463 502 503 505
1212 26 503 502 499 497
1213 26 350 353 352 348
1214 27 350 353 352 290
1215 27 352 353 350 517
1216 26 503 500 498 497
1217 27 503 500 498 496
1218 27 498 500 503 505
1219 29 235 239 238 241
1220 45 240 239 238 241
1221 26 238 239 235 233
1222 27 238 239 235 236
1223 27 233 235 239 240
1224 44 236 235 239 240
1225 36 493 492 490 488
1226 36 494 492 490 488
1227 37 493 492 490 486
1228 37 494 492 490 486
1229 17 504 501 500 503
1230 17 504 501 500 498
1231 32 500 501 504 582
1232 32 500 501 504 506
1233 29 343 350 353 358
1234 45 517 350 353 358
1235 26 353 350 343 342
1236 27 353 350 343 339
1237 44 517 350 343 339
1238 26 343 350 353 352
1239 29 348 352 353 358
1240 45 290 352 353 358
1241 26 353 352 348 342
1242 27 353 352 348 284
1243 29 136 135 130 129
1244 26 136 135 130 128
1245 27 130 135 136 191
1246 45 137 135 130 129
1247 20 108 504 501 500
1248 34 506 504 108 19
1249 34 582 504 108 19
1250 48 501 504 108 107
1251 35 506 504 108 107
1252 35 582 504 108 107
1253 26 231 201 404 400
1254 27 231 201 404 409
1255 44 237 201 404 409
1256 26 404 201 231 445
1257 10 229 231 201 404
1258 11 229 231 201 237
1259 10 229 231 445 397
1260 11 229 231 445 444
1261 25 201 231 229 228
1262 25 445 231 229 228
1263 25 201 231 229 226
1264 25 445 231 229 226
1265 26 201 231 445 397
1266 27 201 231 445 444
1267 27 445 231 201 237
1268 29 190 60 58 59
1269 45 61 60 58 59
1270 26 58 60 190 186
1271 27 58 60 190 192
1272 44 61 60 190 192
1273 26 190 60 58 181
1274 18 86 84 317 320
1275 46 317 84 86 559
1276 35 552 84 86 559
1277 34 552 84 86 88
1278 35 82 84 86 559
1279 34 82 84 86 88
1280 26 64 65 67 70
1281 1 545 63 64 66
1282 23 64 63 545 576
1283 23 64 63 545 572
1284 23 64 63 545 546
1285 1 545 63 64 65
1286 33 98 63 545 576
1287 33 98 63 545 572
1288 33 98 63 545 546
1289 33 539 63 545 576
1290 33 539 63 545 572
1291 33 539 63 545 546
1292 20 79 55 59 58
1293 34 52 55 79 81
1294 34 54 55 79 81
1295 48 59 55 79 77
1296 35 52 55 79 77
1297 35 54 55 79 77
1298 17 55 59 58 60
1299 17 55 59 58 181
1300 32 58 59 55 54
1301 32 58 59 55 52
1302 18 405 544 542 65
1303 46 542 544 405 543
1304 35 541 544 405 543
1305 34 541 544 405 538
1306 35 548 544 405 543
1307 34 548 544 405 538
1308 15 78 542 65 64
1309 15 544 542 65 64
1310 15 78 542 65 67
1311 15 544 542 65 67
1312 31 65 542 78 80
1313 31 65 542 78 76
1314 31 65 542 544 541
1315 31 65 542 544 548
1316 13 78 542 544 405
1317 14 78 542 544 541
1318 14 78 542 544 548
1319 14 544 542 78 80
1320 14 544 542 78 76
1321 13 544 542 78 79
1322 29 201 404 400 402
1323 26 201 404 400 397
1324 27 400 404 201 237
1325 45 409 404 400 402
1326 26 231 445 397 400
1327 27 231 445 397 396
1328 26 404 400 397 445
1329 27 404 400 397 396
1330 27 397 400 404 409
1331 17 406 402 400 404
1332 17 406 402 400 397
1333 32 400 402 406 408
1334 32 400 402 406 410
1335 27 400 397 445 444
1336 45 396 397 400 402
1337 44 396 397 445 444
1338 29 445 397 400 402
1339 4 84 86 561 558
1340 2 84 86 561 90
1341 2 84 86 561 537
1342 40 88 86 561 558
1343 3 561 86 84 317
1344 39 88 86 84 317
1345 5 561 86 559 318
1346 41 88 86 559 318
1347 2 561 86 84 82
1348 5 84 86 559 318
1349 2 561 86 84 552
1350 3 406 405 544 542
1351 39 538 405 544 542
1352 4 544 405 406 402
1353 2 544 405 406 410
1354 2 544 405 406 408
1355 5 544 405 543 547
1356 2 406 405 544 541
1357 2 406 405 544 548
1358 40 538 405 406 402
1359 41 538 405 543 547
1360 5 406 405 543 547
1361 20 405 406 402 400
1362 34 410 406 405 538
1363 34 408 406 405 538
1364 48 402 406 405 543
1365 35 410 406 405 543
1366 35 408 406 405 543
1367 4 78 79 55 59
1368 2 78 79 55 52
1369 2 78 79 55 54
1370 40 81 79 55 59
1371 3 55 79 78 542
1372 39 81 79 78 542
1373 5 55 79 77 540
1374 41 81 79 77 540
1375 2 55 79 78 76
1376 5 78 79 77 540
1377 2 55 79 78 80
1378 18 79 78 542 65
1379 46 542 78 79 77
1380 35 80 78 79 77
1381 34 80 78 79 81
1382 35 76 78 79 77
1383 34 76 78 79 81
1384 3 195 197 196 317
1385 39 200 197 196 317
1386 4 196 197 195 394
1387 2 196 197 195 163
1388 2 196 197 195 398
1389 5 196 197 199 464
1390 2 195 197 196 194
1391 2 195 197 196 198
1392 40 200 197 195 394
1393 41 200 197 199 464
1394 5 195 197 199 464
1395 20 197 195 394 442
1396 34 163 195 197 200
1397 34 398 195 197 200
1398 48 394 195 197 199
1399 35 163 195 197 199
1400 35 398 195 197 199
1401 18 197 196 317 320
1402 46 317 196 197 199
1403 35 194 196 197 199
1404 34 194 196 197 200
1405 35 198 196 197 199
1406 34 198 196 197 200
1407 17 195 394 442 438
1408 17 195 394 442 393
1409 32 442 394 195 398
1410 32 442 394 195 163
1411 20 86 561 558 556
1412 34 90 561 86 88
1413 34 537 561 86 88
1414 48 558 561 86 559
1415 35 90 561 86 559
1416 35 537 561 86 559
1417 10 434 555 553 554
1418 11 434 555 553 550
1419 10 434 555 557 560
1420 11 434 555 557 440
1421 25 553 555 434 431
1422 25 557 555 434 431
1423 25 553 555 434 429
1424 25 557 555 434 429
1425 26 553 555 557 560
1426 27 553 555 557 440
1427 27 557 555 553 550
1428 10 63 64 66 68
1429 25 66 64 63 98
1430 25 66 64 63 539
1431 26 66 64 65 67
1432 11 63 64 66 100
1433 27 65 64 66 100
1434 25 65 64 63 98
1435 25 65 64 63 539
1436 10 63 64 65 67
1437 28 66 64 65 542
1438 12 63 64 65 542
1439 26 438 442 393 439
1440 27 438 442 393 395
1441 27 393 442 438 437
1442 26 580 578 577 575
1443 27 580 578 577 574
1444 37 207 210 211 213
1445 36 207 210 211 214
1446 37 212 210 211 213
1447 36 212 210 211 214
1448 26 334 390 386 384
1449 27 334 390 386 382
1450 44 391 390 386 382
1451 26 386 390 334 392
1452 27 146 149 25 27
1453 45 147 149 146 143
1454 44 147 149 25 27
1455 29 25 149 146 143
1456 27 575 577 578 579
1457 45 574 577 575 573
1458 44 574 577 578 579
1459 29 578 577 575 573
1460 29 435 438 442 394
1461 45 437 438 442 394
1462 26 442 438 435 436
1463 27 442 438 435 433
1464 44 437 438 435 433
1465 26 435 438 442 393
1466 10 337 334 390 386
1467 11 337 334 390 391
1468 10 337 334 392 388
1469 11 337 334 392 335
1470 25 390 334 337 338
1471 25 392 334 337 338
1472 25 390 334 337 336
1473 25 392 334 337 336
1474 26 390 334 392 388
1475 27 390 334 392 335
1476 27 392 334 390 391
1477 26 438 435 436 439
1478 27 436 435 438 437
1479 26 555 557 560 556
1480 27 555 557 560 536
1481 27 436 439 393 395
1482 44 441 439 393 395
1483 17 561 558 556 554
1484 17 561 558 556 560
1485 32 556 558 561 537
1486 32 556 558 561 90
1487 3 504 108 105 95
1488 39 19 108 105 95
1489 4 105 108 504 501
1490 2 105 108 504 506
1491 2 105 108 504 582
1492 5 105 108 107 96
1493 2 504 108 105 106
1494 2 504 108 105 104
1495 40 19 108 504 501
1496 41 19 108 107 96
1497 5 504 108 107 96
1498 18 108 105 95 91
1499 46 95 105 108 107
1500 35 106 105 108 107
1501 34 106 105 108 19
1502 35 104 105 108 107
1503 34 104 105 108 19
1504 26 350 343 342 348
1505 27 342 343 350 517
1506 10 337 342 343 350
1507 25 343 342 337 338
1508 25 343 342 337 336
1509 26 343 342 348 352
1510 27 343 342 348 284
1511 11 337 342 343 339
1512 27 348 342 343 339
1513 25 348 342 337 338
1514 25 348 342 337 336
1515 11 337 342 348 284
1516 10 337 342 348 352
1517 27 342 348 352 290
1518 44 284 348 352 290
1519 26 555 553 554 556
1520 27 555 553 554 551
1521 44 550 553 554 551
1522 26 554 553 555 557
1523 26 29 25 149 146
1524 27 29 25 149 147
1525 24 555 434 436 435
1526 24 436 434 555 553
1527 24 436 434 555 557
1528 24 555 434 436 439
1529 29 553 554 556 558
1530 26 553 554 556 560
1531 27 556 554 553 550
1532 45 551 554 556 558
1533 24 334 337 342 343
1534 24 342 337 334 390
1535 24 342 337 334 392
1536 24 334 337 342 348
1537 26 554 556 560 557
1538 27 554 556 560 536
1539 27 560 556 554 551
1540 29 439 393 442 394
1541 45 395 393 442 394
1542 26 442 393 439 436
1543 27 442 393 439 441
1544 27 556 560 557 440
1545 45 536 560 556 558
1546 44 536 560 557 440
1547 29 557 560 556 558
1548 10 434 436 435 438
1549 25 435 436 434 431
1550 25 435 436 434 429
1551 26 435 436 439 393
1552 27 435 436 439 441
1553 11 434 436 435 433
1554 27 439 436 435 433
1555 25 439 436 434 431
1556 25 439 436 434 429
1557 11 434 436 439 441
1558 10 434 436 439 393
1559 29 502 503 500 501
1560 26 502 503 500 498
1561 27 500 503 502 463
1562 45 505 503 500 501

Impropers

1 26 347 351 356 173
2 25 347 344 349 341
3 24 165 347 344 351
4 1 162 165 347 164
5 1 162 165 347 166
6 3 162 165 164 166
7 13 347 165 164 166
8 3 165 162 160 161
9 3 165 162 160 159
10 3 165 162 161 159
11 14 160 162 161 159
12 28 244 173 311 351
13 5 247 244 242 173
14 5 247 244 245 173
15 15 242 244 245 173
16 4 247 244 242 245
17 24 447 281 278 283
18 19 528 531 532 527
19 18 528 531 532 533
20 20 528 531 527 533
21 20 532 531 527 533
22 24 345 349 354 344
23 24 361 356 351 354
24 25 49 47 174 45
25 19 244 247 252 243
26 18 244 247 252 246
27 20 244 247 243 246
28 20 252 247 243 246
29 6 247 252 461 459
30 6 247 252 461 253
31 4 247 252 459 253
32 17 459 252 253 461
33 26 349 354 356 357
34 13 356 361 363 360
35 13 356 361 363 362
36 13 356 361 360 362
37 14 363 361 360 362
38 27 255 462 421 461
39 6 531 532 534 530
40 6 531 532 534 508
41 4 531 532 530 508
42 17 530 532 508 534
43 26 280 283 281 285
44 19 257 140 142 139
45 18 257 140 142 138
46 20 257 140 139 138
47 20 142 140 139 138
48 24 56 177 49 124
49 25 177 49 47 50
50 13 281 447 446 450
51 13 281 447 446 448
52 13 281 447 450 448
53 14 446 447 450 448
54 12 15 56 177 132
55 12 15 56 177 57
56 13 15 56 132 57
57 13 177 56 132 57
58 5 43 41 42 285
59 5 43 41 40 285
60 15 42 41 40 285
61 4 43 41 42 40
62 24 282 280 283 277
63 26 276 278 281 116
64 28 528 116 269 278
65 5 531 528 507 116
66 5 531 528 529 116
67 15 507 528 529 116
68 4 531 528 507 529
69 25 423 421 462 420
70 25 176 124 177 127
71 27 176 174 47 169
72 25 174 176 124 120
73 2 403 345 346 349
74 2 403 345 340 349
75 13 349 345 346 340
76 3 403 345 346 340
77 5 312 311 314 173
78 5 312 311 308 173
79 15 314 311 308 173
80 4 312 311 314 308
81 3 345 403 401 407
82 3 345 403 401 399
83 3 345 403 407 399
84 14 401 403 407 399
85 6 43 168 169 172
86 6 43 168 169 167
87 4 43 168 172 167
88 17 172 168 167 169
89 2 287 282 279 280
90 2 287 282 483 280
91 13 280 282 279 483
92 3 287 282 279 483
93 25 580 456 453 457
94 25 218 425 374 426
95 29 223 357 359 354
96 5 472 269 270 116
97 5 472 269 271 116
98 15 270 269 271 116
99 4 472 269 270 271
100 5 379 223 224 357
101 5 379 223 222 357
102 15 224 223 222 357
103 4 379 223 224 222
104 25 276 277 280 275
105 24 274 276 277 278
106 24 56 15 13 17
107 25 14 17 15 18
108 3 274 113 115 158
109 3 274 113 115 157
110 3 274 113 158 157
111 14 115 113 158 157
112 1 113 274 276 117
113 1 113 274 276 273
114 3 113 274 117 273
115 13 276 274 117 273
116 19 223 379 430 193
117 18 223 379 430 378
118 20 223 379 193 378
119 20 430 379 193 378
120 27 14 12 11 9
121 25 12 14 17 16
122 25 15 13 11 53
123 25 13 11 12 10
124 22 294 123 121 291
125 21 294 123 121 292
126 23 294 123 291 292
127 23 121 123 291 292
128 8 123 294 297 291
129 8 123 294 249 291
130 16 297 294 249 291
131 7 123 294 297 249
132 6 379 430 380 428
133 6 379 430 380 432
134 4 379 430 428 432
135 17 428 430 432 380
136 6 4 8 9 7
137 6 4 8 9 6
138 4 4 8 7 6
139 17 7 8 6 9
140 25 384 388 392 387
141 25 424 423 421 422
142 27 388 384 386 380
143 11 123 121 241 119
144 11 123 121 241 122
145 7 123 121 119 122
146 17 119 121 122 241
147 12 424 219 218 221
148 12 424 219 218 427
149 13 424 219 221 427
150 13 218 219 221 427
151 19 41 43 168 39
152 18 41 43 168 170
153 20 41 43 39 170
154 20 168 43 39 170
155 19 3 4 8 1
156 18 3 4 8 5
157 20 3 4 1 5
158 20 8 4 1 5
159 5 140 257 254 72
160 5 140 257 258 72
161 15 254 257 258 72
162 4 140 257 254 258
163 28 84 317 196 320
164 24 262 267 109 268
165 3 328 383 512 381
166 3 328 383 512 389
167 3 328 383 381 389
168 14 512 383 381 389
169 25 462 255 217 256
170 3 319 510 583 509
171 3 319 510 583 511
172 3 319 510 509 511
173 14 583 510 509 511
174 24 69 67 70 65
175 29 257 72 74 70
176 25 326 323 321 324
177 13 322 152 154 151
178 13 322 152 154 150
179 13 322 152 151 150
180 14 154 152 151 150
181 24 71 68 66 70
182 29 569 327 156 325
183 24 152 322 325 320
184 26 321 320 322 317
185 26 322 325 326 327
186 24 328 326 323 325
187 24 319 321 320 323
188 1 383 328 326 385
189 1 383 328 326 332
190 3 383 328 385 332
191 13 326 328 385 332
192 5 568 569 567 327
193 5 568 569 451 327
194 15 567 569 451 327
195 4 568 569 567 451
196 25 68 66 64 100
197 26 67 70 68 72
198 1 204 71 68 75
199 1 204 71 68 101
200 3 204 71 75 101
201 13 68 71 75 101
202 6 568 571 573 570
203 6 568 571 573 566
204 4 568 571 570 566
205 17 570 571 566 573
206 3 71 204 203 202
207 3 71 204 203 205
208 3 71 204 202 205
209 14 203 204 202 205
210 19 569 568 571 564
211 18 569 568 571 565
212 20 569 568 564 565
213 20 571 568 564 565
214 25 456 453 575 452
215 27 577 575 453 573
216 2 510 319 316 321
217 2 510 319 465 321
218 13 321 319 316 465
219 3 510 319 316 465
220 25 255 217 424 220
221 3 282 287 289 288
222 3 282 287 289 489
223 3 282 287 288 489
224 14 289 287 288 489
225 25 33 32 26 535
226 6 140 142 143 144
227 6 140 142 143 141
228 4 140 142 144 141
229 17 144 142 141 143
230 12 30 31 29 35
231 12 30 31 29 34
232 13 30 31 35 34
233 13 29 31 35 34
234 24 31 29 24 25
235 19 250 251 131 125
236 18 250 251 131 248
237 20 250 251 125 248
238 20 131 251 125 248
239 1 85 89 111 225
240 1 85 89 111 62
241 3 85 89 225 62
242 13 111 89 225 62
243 27 149 146 148 143
244 27 188 371 374 369
245 27 22 26 32 534
246 2 263 262 261 267
247 2 263 262 260 267
248 13 267 262 261 260
249 3 263 262 261 260
250 25 22 23 30 21
251 25 24 148 146 145
252 6 368 367 369 365
253 6 368 367 369 364
254 4 368 367 365 364
255 17 365 367 364 369
256 19 372 368 367 370
257 18 372 368 367 366
258 20 372 368 370 366
259 20 367 368 370 366
260 5 368 372 375 155
261 5 368 372 373 155
262 15 375 372 373 155
263 4 368 372 375 373
264 24 31 30 33 23
265 25 390 386 384 382
266 13 112 92 93 94
267 13 112 92 93 38
268 13 112 92 94 38
269 14 93 92 94 38
270 25 111 268 267 266
271 24 89 111 268 91
272 25 29 24 148 28
273 24 92 112 91 109
274 26 112 109 267 155
275 28 372 155 250 109
276 5 4 3 99 95
277 5 4 3 2 95
278 15 99 3 2 95
279 4 4 3 99 2
280 3 89 85 110 83
281 3 89 85 110 87
282 3 89 85 83 87
283 14 110 85 83 87
284 24 219 218 425 216
285 25 188 216 218 215
286 26 111 91 112 95
287 24 219 424 423 217
288 25 26 22 23 20
289 25 30 33 32 36
290 28 3 95 105 91
291 25 425 374 371 376
292 3 262 263 264 259
293 3 262 263 264 265
294 3 262 263 259 265
295 14 264 263 259 265
296 25 371 188 216 184
297 5 251 250 102 155
298 5 251 250 103 155
299 15 102 250 103 155
300 4 251 250 102 103
301 13 67 69 46 44
302 13 67 69 46 48
303 13 67 69 44 48
304 14 46 69 44 48
305 19 523 521 520 519
306 18 523 521 520 525
307 20 523 521 519 525
308 20 520 521 519 525
309 5 521 523 526 285
310 5 521 523 522 285
311 15 526 523 522 285
312 4 521 523 526 522
313 24 187 186 182 190
314 6 312 310 306 309
315 6 312 310 306 377
316 4 312 310 309 377
317 17 309 310 377 306
318 27 301 304 305 306
319 25 186 182 181 178
320 25 182 181 58 51
321 25 304 301 298 300
322 27 470 469 331 467
323 25 60 190 186 192
324 12 186 187 185 189
325 12 186 187 185 183
326 13 186 187 189 183
327 13 185 187 189 183
328 25 302 305 304 307
329 24 515 516 333 585
330 25 333 331 469 330
331 25 516 333 331 272
332 25 301 298 299 296
333 25 469 470 585 468
334 19 311 312 310 313
335 18 311 312 310 315
336 20 311 312 313 315
337 20 310 312 313 315
338 6 472 473 467 471
339 6 472 473 467 443
340 4 472 473 471 443
341 17 471 473 443 467
342 24 515 475 477 478
343 6 521 520 358 518
344 6 521 520 358 524
345 4 521 520 518 524
346 17 518 520 524 358
347 19 269 472 473 466
348 18 269 472 473 474
349 20 269 472 466 474
350 20 473 472 466 474
351 25 299 302 305 303
352 27 60 58 181 59
353 25 470 585 516 584
354 28 41 285 523 283
355 12 516 515 475 513
356 12 516 515 475 514
357 13 516 515 513 514
358 13 475 515 513 514
359 25 388 392 334 335
360 12 417 581 580 460
361 12 417 581 580 549
362 13 417 581 460 549
363 13 580 581 460 549
364 24 295 299 302 298
365 24 581 580 456 578
366 25 234 232 233 230
367 12 233 229 231 228
368 12 233 229 231 226
369 13 233 229 228 226
370 13 231 229 228 226
371 6 251 131 129 134
372 6 251 131 129 133
373 4 251 131 134 133
374 17 134 131 133 129
375 24 229 233 235 232
376 25 480 478 475 476
377 25 475 477 479 562
378 24 187 185 136 180
379 25 238 234 232 118
380 12 299 295 499 293
381 12 299 295 499 458
382 13 299 295 293 458
383 13 499 295 293 458
384 25 415 418 417 419
385 25 414 415 418 416
386 27 234 238 239 241
387 25 185 136 135 191
388 25 128 180 185 179
389 25 130 128 180 126
390 27 128 130 135 129
391 22 210 211 208 213
392 21 210 211 208 214
393 23 210 211 213 214
394 23 208 211 213 214
395 11 211 208 413 206
396 11 211 208 413 209
397 7 211 208 206 209
398 17 206 208 209 413
399 27 415 414 412 413
400 25 455 412 414 411
401 22 487 490 492 486
402 21 487 490 492 488
403 23 487 490 486 488
404 23 492 490 486 488
405 27 480 482 479 484
406 25 417 455 412 454
407 25 477 479 482 563
408 9 490 487 485 484
409 9 490 487 491 484
410 17 485 487 491 484
411 7 490 487 485 491
412 25 498 497 499 495
413 25 500 498 497 496
414 25 482 480 478 481
415 24 581 417 455 418
416 24 295 499 502 497
417 25 499 502 503 463
418 27 350 353 352 358
419 27 498 500 503 501
420 25 235 239 238 240
421 25 233 235 239 236
422 10 490 492 486 493
423 10 490 492 486 494
424 7 490 492 493 494
425 16 493 492 494 486
426 25 353 350 343 517
427 25 348 352 353 290
428 25 136 135 130 137
429 6 108 504 501 506
430 6 108 504 501 582
431 4 108 504 506 582
432 17 506 504 582 501
433 25 231 201 404 237
434 24 229 231 201 445
435 25 58 60 190 61
436 5 86 84 552 317
437 5 86 84 82 317
438 15 552 84 82 317
439 4 86 84 552 82
440 26 64 65 67 542
441 2 545 63 98 64
442 2 545 63 539 64
443 13 64 63 98 539
444 3 545 63 98 539
445 6 79 55 59 52
446 6 79 55 59 54
447 4 79 55 52 54
448 17 52 55 54 59
449 5 405 544 541 542
450 5 405 544 548 542
451 15 541 544 548 542
452 4 405 544 541 548
453 28 78 542 544 65
454 25 201 404 400 409
455 25 397 445 231 444
456 27 397 400 404 402
457 25 400 397 445 396
458 19 84 86 561 559
459 18 84 86 561 88
460 20 84 86 559 88
461 20 561 86 559 88
462 19 544 405 406 543
463 18 544 405 406 538
464 20 544 405 543 538
465 20 406 405 543 538
466 6 405 406 402 410
467 6 405 406 402 408
468 4 405 406 410 408
469 17 410 406 408 402
470 19 78 79 55 77
471 18 78 79 55 81
472 20 78 79 77 81
473 20 55 79 77 81
474 5 79 78 80 542
475 5 79 78 76 542
476 15 80 78 76 542
477 4 79 78 80 76
478 19 196 197 195 199
479 18 196 197 195 200
480 20 196 197 199 200
481 20 195 197 199 200
482 6 197 195 394 163
483 6 197 195 394 398
484 4 197 195 163 398
485 17 163 195 398 394
486 5 197 196 194 317
487 5 197 196 198 317
488 15 194 196 198 317
489 4 197 196 194 198
490 6 86 561 558 90
491 6 86 561 558 537
492 4 86 561 90 537
493 17 90 561 537 558
494 24 434 555 553 557
495 24 63 64 65 66
496 27 438 442 393 394
497 25 577 578 580 579
498 8 211 210 207 213
499 8 211 210 212 213
500 16 207 210 212 213
501 7 211 210 207 212
502 3 63 545 576 572
503 3 63 545 576 546
504 3 63 545 572 546
505 14 576 545 572 546
506 25 334 390 386 391
507 25 146 149 25 147
508 25 575 577 578 574
509 25 442 438 435 437
510 24 337 334 390 392
511 25 438 435 436 433
512 25 560 557 555 440
513 25 436 439 393 441
514 19 105 108 504 107
515 18 105 108 504 19
516 20 105 108 107 19
517 20 504 108 107 19
518 5 108 105 106 95
519 5 108 105 104 95
520 15 106 105 104 95
521 4 108 105 106 104
522 25 350 343 342 339
523 24 337 342 348 343
524 25 342 348 352 284
525 25 555 553 554 550
526 25 149 25 29 27
527 12 436 434 555 431
528 12 436 434 555 429
529 13 436 434 431 429
530 13 555 434 431 429
531 25 553 554 556 551
532 12 342 337 334 338
533 12 342 337 334 336
534 13 342 337 338 336
535 13 334 337 338 336
536 27 560 556 554 558
537 25 439 393 442 395
538 25 556 560 557 536
539 24 434 436 439 435
540 25 502 503 500 505
