LAMMPS data file via write_data, version 4 Jul 2026, timestep = 7012750, units = real

585 atoms
11 atom types
615 bonds
18 bond types
1090 angles
35 angle types
1568 dihedrals
48 dihedral types
540 impropers
30 improper types

1.4853204024662805 19.66845860752459 xlo xhi
1.4853204024662805 19.66845860752459 ylo yhi
1.4853204024662805 19.66845860752459 zlo zhi

Masses

1 12.01115
2 12.01115
3 12.01115
4 12.01115
5 1.00797
6 1.00797
7 1.00797
8 14.0067
9 15.9994
10 15.9994
11 15.9994

Pair Coeffs # lj/class2/coul/long

1 0.054 4.01
2 0.054 4.01
3 0.054 4.01
4 0.064 4.01
5 0.02 2.995
6 0.013 1.098
7 0.013 1.098
8 0.065 4.07
9 0.24 3.535
10 0.24 3.535
11 0.24 3.535

Bond Coeffs # class2

1 1.53 299.67 -501.77 679.81
2 1.53 299.67 -501.77 679.81
3 1.53 299.67 -501.77 679.81
4 1.501 321.902 -521.821 572.163
5 1.101 345 -691.89 844.6
6 1.457 365.805 -699.637 998.484
7 1.42 400.395 -835.195 1313.01
8 1.42 400.395 -835.195 1313.01
9 1.101 345 -691.89 844.6
10 1.42 400.395 -835.195 1313.01
11 1.101 345 -691.89 844.6
12 1.42 400.395 -835.195 1313.01
13 1.417 470.836 -627.618 1327.63
14 1.0982 372.825 -803.453 894.317
15 1.412 257.775 0 0
16 1.3768 428.88 -738.235 1114.97
17 1.006 466.74 -1073.6 1251.11
18 0.965 532.506 -1282.9 2004.77

Angle Coeffs # class2

1 108.4 43.9594 -8.3924 -9.3379
2 110.77 41.453 -10.604 5.129
3 112.67 39.516 -7.443 -9.5583
4 110.77 41.453 -10.604 5.129
5 111.27 54.5381 -8.3642 -13.0838
6 112.67 39.516 -7.443 -9.5583
7 110.77 41.453 -10.604 5.129
8 111.27 54.5381 -8.3642 -13.0838
9 120.05 44.7148 -22.7352 0
10 112.444 47.2337 -10.6612 -10.2062
11 109 80 0 0
12 110.954 50.8652 -4.4522 -10.0298
13 104.5 35.7454 -10.0067 -6.2729
14 102.969 38.9739 -6.2595 -8.171
15 110.77 41.453 -10.604 5.129
16 111.91 60.7147 -13.3366 -13.0785
17 111.27 54.5381 -8.3642 -13.0838
18 105.8 52.7061 -12.109 -9.8681
19 110.77 41.453 -10.604 5.129
20 111.27 54.5381 -8.3642 -13.0838
21 111.27 54.5381 -8.3642 -13.0838
22 111 44.3234 -9.4454 0
23 111 44.3234 -9.4454 0
24 118.9 61.0226 -34.9931 0
25 117.94 35.1558 -12.4682 0
26 120 102 0 0
27 123.42 73.6781 -21.6787 0
28 110 41.6 0 0
29 107.66 39.641 -12.921 -2.4318
30 110.62 51.3137 -6.7198 -2.6003
31 108.728 58.5446 -10.8088 -12.4006
32 108.728 58.5446 -10.8088 -12.4006
33 108.728 58.5446 -10.8088 -12.4006
34 108.728 58.5446 -10.8088 -12.4006
35 107.067 45.252 -7.5558 -9.512

BondBond Coeffs

1 0 1.53 1.501
2 3.3872 1.53 1.101
3 0 1.53 1.53
4 3.3872 1.53 1.101
5 11.4318 1.53 1.42
6 0 1.53 1.53
7 3.3872 1.53 1.101
8 11.4318 1.53 1.42
9 12.0676 1.501 1.417
10 -2.1113 1.457 1.457
11 0 1.457 1.412
12 -6.4168 1.457 1.006
13 -7.1131 1.42 1.42
14 0 1.42 1.3768
15 3.3872 1.53 1.101
16 4.6217 1.53 1.457
17 11.4318 1.53 1.42
18 -9.6879 1.42 0.965
19 3.3872 1.53 1.101
20 11.4318 1.53 1.42
21 11.4318 1.53 1.42
22 0 1.501 1.501
23 2.9168 1.501 1.101
24 68.2856 1.417 1.417
25 1.0795 1.417 1.0982
26 0 1.417 1.412
27 48.4754 1.417 1.3768
28 0 1.412 1.006
29 5.3316 1.101 1.101
30 12.426 1.101 1.457
31 23.1979 1.101 1.42
32 23.1979 1.101 1.42
33 23.1979 1.101 1.42
34 23.1979 1.101 1.42
35 -1.8749 1.006 1.006

BondAngle Coeffs

1 0 0 1.53 1.501
2 20.754 11.421 1.53 1.101
3 8.016 8.016 1.53 1.53
4 20.754 11.421 1.53 1.101
5 2.6868 20.4033 1.53 1.42
6 8.016 8.016 1.53 1.53
7 20.754 11.421 1.53 1.101
8 2.6868 20.4033 1.53 1.42
9 47.0579 31.0771 1.501 1.417
10 -7.2229 -7.2229 1.457 1.457
11 0 0 1.457 1.412
12 31.8096 20.5799 1.457 1.006
13 -2.8112 -2.8112 1.42 1.42
14 0 0 1.42 1.3768
15 20.754 11.421 1.53 1.101
16 6.0876 16.5702 1.53 1.457
17 2.6868 20.4033 1.53 1.42
18 28.58 18.9277 1.42 0.965
19 20.754 11.421 1.53 1.101
20 2.6868 20.4033 1.53 1.42
21 2.6868 20.4033 1.53 1.42
22 0 0 1.501 1.501
23 26.4608 11.7717 1.501 1.101
24 28.8708 28.8708 1.417 1.417
25 20.0033 24.2183 1.417 1.0982
26 0 0 1.417 1.412
27 58.479 107.681 1.417 1.3768
28 0 0 1.412 1.006
29 18.103 18.103 1.101 1.101
30 13.4582 42.4332 1.101 1.457
31 4.6189 55.327 1.101 1.42
32 4.6189 55.327 1.101 1.42
33 4.6189 55.327 1.101 1.42
34 4.6189 55.327 1.101 1.42
35 28.0322 28.0322 1.006 1.006

Dihedral Coeffs # class2

1 -0.2802 0 -0.0678 0 -0.0122 0
2 0 0 0.0316 0 -0.1681 0
3 0.1764 0 0.1766 0 -0.5206 0
4 0.7137 0 0.266 0 -0.2545 0
5 -0.6732 0 -0.4778 0 -0.167 0
6 0 0 0.0316 0 -0.1681 0
7 0.7137 0 0.266 0 -0.2545 0
8 0.7137 0 0.266 0 -0.2545 0
9 -0.5203 0 -0.3028 0 -0.345 0
10 0 0 4.4072 0 0 0
11 0 0 1.559 0 0 0
12 0 0 3 0 0 0
13 -0.1406 0 0.4168 0 0.015 0
14 0.1904 0 -0.1342 0 -0.246 0
15 0 0 2.25 0 0 0
16 0.5302 0 0 0 -0.3966 0
17 0 0 1.5 0 0 0
18 0 0 0 0 0.05 180
19 -1.1506 0 -0.6344 0 -0.1845 0
20 0 0 0 0 0.13 180
21 0 0 0 0 0.13 180
22 0.5302 0 0 0 -0.3966 0
23 -0.0228 0 0.028 0 -0.1863 0
24 -0.2802 0 -0.0678 0 -0.0122 0
25 -0.2801 0 -0.0678 0 -0.0122 0
26 8.3667 0 1.1932 0 0 0
27 0 0 3.9661 0 0 0
28 0 0 3 0 0 0
29 0 0 4.8498 0 0 0
30 0 0 2.25 0 0 0
31 0 0 0 0 0.05 180
32 0.9513 0 0.1155 0 0.072 0
33 -0.1432 0 0.0617 0 -0.1083 0
34 -0.1432 0 0.0617 0 -0.1083 0
35 -0.1435 0 0.253 0 -0.0905 0
36 -0.1432 0 0.0617 0 -0.1083 0
37 -0.1435 0 0.253 0 -0.0905 0
38 -0.5187 0 -0.4837 0 -0.1692 0
39 -0.2428 0 0.4065 0 -0.3079 0
40 -0.1435 0 0.253 0 -0.0905 0
41 0.1863 0 -0.4338 0 -0.2121 0
42 -0.1435 0 0.253 0 -0.0905 0
43 -0.1435 0 0.253 0 -0.0905 0
44 0 0 1.8769 0 0 0
45 0 0 1.7234 0 0 0
46 0 0 0 0 0.158 180
47 -0.182 0 -0.1084 0 -0.7047 0
48 -0.182 0 -0.1084 0 -0.7047 0

AngleAngleTorsion Coeffs

1 0 108.4 120.05
2 -16.164 112.67 110.77
3 -27.3953 112.67 111.91
4 -29.042 112.67 111.27
5 -12.1038 111.27 105.8
6 -16.164 112.67 110.77
7 -29.042 112.67 111.27
8 -29.042 112.67 111.27
9 -19.0059 111.27 104.5
10 -14.4097 120.05 118.9
11 4.4444 120.05 117.94
12 0 120.05 120
13 -24.3818 112.444 111.91
14 -12.5567 112.444 110.62
15 0 109 120
16 -16.4438 104.5 108.728
17 0 102.969 123.42
18 0 111.91 109
19 -7.5499 111.91 110.954
20 0 111.27 102.969
21 0 111.27 102.969
22 -16.4438 104.5 108.728
23 0 108.4 110.77
24 0 111 120.05
25 -5.8888 120.05 111
26 0 118.9 118.9
27 -4.8141 118.9 117.94
28 0 118.9 120
29 -21.0247 118.9 123.42
30 0 120 110
31 0 109 110.62
32 0 102.969 108.728
33 -12.564 110.77 110.77
34 -12.564 110.77 110.77
35 -20.2006 110.77 111.27
36 -12.564 110.77 110.77
37 -20.2006 110.77 111.27
38 -10.4258 110.62 110.954
39 -15.7572 110.77 111.91
40 -20.2006 110.77 111.27
41 -10.5093 108.728 105.8
42 -20.2006 110.77 111.27
43 -20.2006 110.77 111.27
44 0.3598 117.94 117.94
45 4.2296 117.94 123.42
46 0 111.91 111.27
47 -14.0484 111.27 111.27
48 -14.0484 111.27 111.27

EndBondTorsion Coeffs

1 0 0 0 0 0 0 1.53 1.417
2 0.2486 0.2422 -0.0925 0.0814 0.0591 0.2219 1.53 1.101
3 0.1032 0.5896 -0.4836 0.0579 -0.0043 -0.1906 1.53 1.457
4 -0.319 0.4411 -0.7174 1.1538 0.8409 -0.9138 1.53 1.42
5 -0.58 0.9004 0 0 0.5343 0.9025 1.53 0.965
6 0.2486 0.2422 -0.0925 0.0814 0.0591 0.2219 1.53 1.101
7 -0.319 0.4411 -0.7174 1.1538 0.8409 -0.9138 1.53 1.42
8 -0.319 0.4411 -0.7174 1.1538 0.8409 -0.9138 1.53 1.42
9 -0.2456 1.0517 -0.7795 0.4741 1.2635 0.5576 1.53 1.42
10 0 0.2421 0 0 -0.6918 0 1.501 1.417
11 0 -1.797 0 0 -0.4879 0 1.501 1.0982
12 0 0 0 0 0 0 1.501 1.412
13 -0.0128 -0.0495 -0.1079 0.0997 -0.0046 -0.2657 1.457 1.53
14 0.0628 0.0873 -0.0882 -0.5892 0.714 0.3505 1.457 1.101
15 0 0 0 0 0 0 1.457 1.417
16 -0.162 0.1564 -1.1408 -0.6054 1.3339 0.9648 1.42 1.101
17 0 0 0 0 0 0 1.42 1.417
18 0 0 0 0 0 0 1.53 1.412
19 -0.9466 0.9356 -0.5542 0.057 0.0625 0.4112 1.53 1.006
20 0 0 0 0 0 0 1.53 1.3768
21 0 0 0 0 0 0 1.53 1.3768
22 -0.162 0.1564 -1.1408 -0.6054 1.3339 0.9648 1.42 1.101
23 0 0 0 0 0 0 1.501 1.101
24 0 0 0 0 0 0 1.501 1.417
25 -0.5835 1.122 0.3978 1.3997 0.7756 0 1.417 1.101
26 -0.1185 6.3204 0 -0.1185 6.3204 0 1.417 1.417
27 0 -6.8958 0 0 -0.4669 0 1.417 1.0982
28 0 0 0 0 0 0 1.417 1.412
29 0 0.2655 0 0 4.8905 0 1.417 1.3768
30 0 0 0 0 0 0 1.417 1.006
31 0 0 0 0 0 0 1.412 1.101
32 0 0 0 0 0 0 1.3768 1.101
33 0.213 0.312 0.0777 0.213 0.312 0.0777 1.101 1.101
34 0.213 0.312 0.0777 0.213 0.312 0.0777 1.101 1.101
35 0.9681 0.9551 0.0436 0.5903 0.6669 0.8584 1.101 1.42
36 0.213 0.312 0.0777 0.213 0.312 0.0777 1.101 1.101
37 0.9681 0.9551 0.0436 0.5903 0.6669 0.8584 1.101 1.42
38 -1.1685 0.9266 -0.0993 0.085 0.3061 0.2104 1.101 1.006
39 0.196 0.7056 0.112 0.1022 0.209 0.6433 1.101 1.457
40 0.9681 0.9551 0.0436 0.5903 0.6669 0.8584 1.101 1.42
41 -1.7554 1.3145 0.2263 0.2493 0.6803 0 1.101 0.965
42 0.9681 0.9551 0.0436 0.5903 0.6669 0.8584 1.101 1.42
43 0.9681 0.9551 0.0436 0.5903 0.6669 0.8584 1.101 1.42
44 0 -0.689 0 0 -0.689 0 1.0982 1.0982
45 0 -1.5867 0 0 4.2641 0 1.0982 1.3768
46 0 0 0 0 0 0 1.457 1.42
47 1.0165 0.7553 -0.4609 1.0165 0.7553 -0.4609 1.42 1.42
48 1.0165 0.7553 -0.4609 1.0165 0.7553 -0.4609 1.42 1.42

MiddleBondTorsion Coeffs

1 0 0 0 1.501
2 -14.879 -3.6581 -0.3138 1.53
3 -15.4174 -7.3055 -1.0749 1.53
4 -21.8842 -7.6764 -0.6868 1.53
5 1.2472 0 0.7485 1.42
6 -14.879 -3.6581 -0.3138 1.53
7 -21.8842 -7.6764 -0.6868 1.53
8 -21.8842 -7.6764 -0.6868 1.53
9 -5.9288 -2.7007 -0.3175 1.42
10 0 9.1792 0 1.417
11 0 3.9421 0 1.417
12 0 0 0 1.417
13 -8.0036 -7.7321 -3.064 1.457
14 -6.4529 -6.8122 -1.1632 1.457
15 0 0 0 1.412
16 -6.8007 -4.6546 -1.4101 1.42
17 0 0 0 1.3768
18 0 0 0 1.457
19 -2.2208 0.5479 -0.3527 1.457
20 0 0 0 1.42
21 0 0 0 1.42
22 -6.8007 -4.6546 -1.4101 1.42
23 0 0 0 1.53
24 0 0 0 1.501
25 -5.5679 1.4083 0.301 1.501
26 27.5989 -2.312 0 1.417
27 0 -1.1521 0 1.417
28 0 0 0 1.417
29 0 4.8255 0 1.417
30 0 0 0 1.412
31 0 0 0 1.457
32 0 0 0 1.42
33 -14.261 -0.5322 -0.4864 1.53
34 -14.261 -0.5322 -0.4864 1.53
35 -16.7975 -1.2296 -0.275 1.53
36 -14.261 -0.5322 -0.4864 1.53
37 -16.7975 -1.2296 -0.275 1.53
38 -3.4611 1.6996 -0.6007 1.457
39 -10.4959 -0.7647 -0.0545 1.53
40 -16.7975 -1.2296 -0.275 1.53
41 0 0.9241 -0.5889 1.42
42 -16.7975 -1.2296 -0.275 1.53
43 -16.7975 -1.2296 -0.275 1.53
44 0 4.8228 0 1.417
45 0 5.5432 0 1.417
46 0 0 0 1.53
47 -17.2585 -3.6157 -0.8364 1.53
48 -17.2585 -3.6157 -0.8364 1.53

BondBond13 Coeffs

1 0 1.53 1.417
2 0 1.53 1.101
3 0 1.53 1.457
4 0 1.53 1.42
5 0 1.53 0.965
6 0 1.53 1.101
7 0 1.53 1.42
8 0 1.53 1.42
9 0 1.53 1.42
10 2.5085 1.501 1.417
11 0.8743 1.501 1.0982
12 0 1.501 1.412
13 0 1.457 1.53
14 0 1.457 1.101
15 0 1.457 1.417
16 0 1.42 1.101
17 0 1.42 1.417
18 0 1.53 1.412
19 0 1.53 1.006
20 0 1.53 1.3768
21 0 1.53 1.3768
22 0 1.42 1.101
23 0 1.501 1.101
24 0 1.501 1.417
25 -3.4826 1.417 1.101
26 53 1.417 1.417
27 -6.2741 1.417 1.0982
28 0 1.417 1.412
29 -2.2436 1.417 1.3768
30 0 1.417 1.006
31 0 1.412 1.101
32 0 1.3768 1.101
33 0 1.101 1.101
34 0 1.101 1.101
35 0 1.101 1.42
36 0 1.101 1.101
37 0 1.101 1.42
38 0 1.101 1.006
39 0 1.101 1.457
40 0 1.101 1.42
41 0 1.101 0.965
42 0 1.101 1.42
43 0 1.101 1.42
44 -1.7077 1.0982 1.0982
45 2.0517 1.0982 1.3768
46 0 1.457 1.42
47 0 1.42 1.42
48 0 1.42 1.42

AngleTorsion Coeffs

1 0 0 0 0 0 0 108.4 120.05
2 -0.2454 0 -0.1136 0.3113 0.4516 -0.1988 112.67 110.77
3 -1.9225 -1.345 0.221 2.0125 0.944 -2.7612 112.67 111.91
4 0.5623 -0.3041 -0.4015 0.9672 -0.7566 -1.2331 112.67 111.27
5 -3.5903 2.5225 0.4888 0.8726 -0.3577 0.3888 111.27 105.8
6 -0.2454 0 -0.1136 0.3113 0.4516 -0.1988 112.67 110.77
7 0.5623 -0.3041 -0.4015 0.9672 -0.7566 -1.2331 112.67 111.27
8 0.5623 -0.3041 -0.4015 0.9672 -0.7566 -1.2331 112.67 111.27
9 -2.7466 1.4877 -0.8955 0.5676 0.945 0.0703 111.27 104.5
10 0 -4.4683 0 0 3.8987 0 120.05 118.9
11 0 -0.1242 0 0 3.4601 0 120.05 117.94
12 0 0 0 0 0 0 120.05 120
13 1.2031 1.3645 -0.7071 -2.7883 1.5193 1.4796 112.444 111.91
14 -1.3582 0.1465 -0.5729 -2.6321 0.9353 -0.8398 112.444 110.62
15 0 0 0 0 0 0 109 120
16 -0.7777 0.434 -0.6653 -1.8234 1.6393 0.5144 104.5 108.728
17 0 0 0 0 0 0 102.969 123.42
18 0 0 0 0 0 0 111.91 109
19 -3.343 4.4558 -0.0346 0.2873 -0.8072 -0.096 111.91 110.954
20 0 0 0 0 0 0 111.27 102.969
21 0 0 0 0 0 0 111.27 102.969
22 -0.7777 0.434 -0.6653 -1.8234 1.6393 0.5144 104.5 108.728
23 0 0 0 0 0 0 108.4 110.77
24 0 0 0 0 0 0 111 120.05
25 0.2251 0.6548 0.1237 4.6266 0.1632 0.0461 120.05 111
26 1.9767 1.0239 0 1.9767 1.0239 0 118.9 118.9
27 0 2.5014 0 0 2.7147 0 118.9 117.94
28 0 0 0 0 0 0 118.9 120
29 0 10.0155 0 0 1.7404 0 118.9 123.42
30 0 0 0 0 0 0 120 110
31 0 0 0 0 0 0 109 110.62
32 0 0 0 0 0 0 102.969 108.728
33 -0.8085 0.5569 -0.2466 -0.8085 0.5569 -0.2466 110.77 110.77
34 -0.8085 0.5569 -0.2466 -0.8085 0.5569 -0.2466 110.77 110.77
35 2.3668 2.492 -1.0122 -0.1892 0.4918 0.7273 110.77 111.27
36 -0.8085 0.5569 -0.2466 -0.8085 0.5569 -0.2466 110.77 110.77
37 2.3668 2.492 -1.0122 -0.1892 0.4918 0.7273 110.77 111.27
38 -3.9582 2.0063 0.3213 -0.4294 -0.4442 -0.6141 110.62 110.954
39 0.5111 1.6328 -1.0155 -1.1075 0.282 0.8318 110.77 111.91
40 2.3668 2.492 -1.0122 -0.1892 0.4918 0.7273 110.77 111.27
41 -3.406 1.6396 0.0737 0 -0.281 -0.5944 108.728 105.8
42 2.3668 2.492 -1.0122 -0.1892 0.4918 0.7273 110.77 111.27
43 2.3668 2.492 -1.0122 -0.1892 0.4918 0.7273 110.77 111.27
44 0 2.4501 0 0 2.4501 0 117.94 117.94
45 0 1.8729 0 0 2.5706 0 117.94 123.42
46 0 0 0 0 0 0 111.91 111.27
47 0.5511 0.9737 -0.6673 0.5511 0.9737 -0.6673 111.27 111.27
48 0.5511 0.9737 -0.6673 0.5511 0.9737 -0.6673 111.27 111.27

Improper Coeffs # class2

1 0 0
2 0 0
3 0 0
4 0 0
5 0 0
6 0 0
7 0 0
8 0 0
9 0 0
10 0 0
11 0 0
12 0 0
13 0 0
14 0 0
15 0 0
16 0 0
17 0 0
18 0 0
19 0 0
20 0 0
21 0 0
22 0 0
23 0 0
24 7.8153 0
25 4.8912 0
26 0 0
27 13.0421 0
28 0 0
29 0 0
30 0 0

AngleAngle Coeffs

1 2.0403 -1.8202 1.0827 108.4 110.77 111
2 1.0827 -1.8202 2.0403 110.77 108.4 111
3 0.2738 -0.4825 0.2738 110.77 110.77 107.66
4 0.2738 -0.4825 0.2738 110.77 110.77 107.66
5 2.4286 0.5381 -2.5301 110.77 111.91 110.62
6 0.1689 2.5926 3.9177 111.27 110.77 108.728
7 0.2738 -0.4825 0.2738 110.77 110.77 107.66
8 3.9177 2.5926 0.1689 110.77 111.27 108.728
9 3.9177 2.5926 0.1689 110.77 111.27 108.728
10 0.1689 2.5926 3.9177 111.27 110.77 108.728
11 0.1689 2.5926 3.9177 111.27 110.77 108.728
12 0 0 0 111 111 111
13 2.3794 3.0118 2.3794 111 111 107.66
14 -0.3157 -0.3157 -0.3157 107.66 107.66 107.66
15 2.4321 2.4321 -3.5496 107.66 110.62 110.62
16 2.4259 2.4259 2.1283 107.66 108.728 108.728
17 2.4259 2.4259 2.1283 107.66 108.728 108.728
18 -1.3199 -1.3199 0.1184 112.67 110.77 110.77
19 -0.833 -0.833 -3.5744 112.67 111.27 111.27
20 0.1689 2.5926 3.9177 111.27 110.77 108.728
21 -1.3199 -1.3199 0.1184 112.67 110.77 110.77
22 -0.833 -0.833 -3.5744 112.67 111.27 111.27
23 0.1689 2.5926 3.9177 111.27 110.77 108.728
24 0 0 0 120.05 120.05 118.9
25 0 0 0 118.9 117.94 117.94
26 0 0 0 118.9 120 120
27 0 0 0 118.9 123.42 123.42
28 0 0 0 112.444 109 109
29 0 0 0 110.954 109 110
30 0 0 0 110 110 107.067

Atoms # full

351 1 4 0 8.29520637759174 6.075694259514215 8.326723874542342 0 1 0
344 1 4 -0.1268 8.884185808528994 7.792877054925181 6.8562040631872385 0 1 0
347 1 4 0 7.850461308556182 7.057264242796753 7.429828498931949 0 1 0
341 1 5 0.1268 8.662390392270698 8.649511809391694 6.248630887532122 0 1 0
165 1 1 -0.106 6.437504935334772 7.46571186542152 7.124925142084083 0 1 0
162 1 1 -0.159 5.725303319549966 6.808648370179616 5.956298257619855 0 1 0
166 1 5 0.053 6.528084967259858 8.5593878896114 6.685400166036892 0 1 0
164 1 5 0.053 5.747237230183654 7.517602448188932 7.949085027745614 0 1 0
173 1 8 -0.1654 7.299725965540111 5.534951207117776 9.333666489107502 0 1 0
244 1 1 -0.0233 6.22809121871621 4.785887252347843 8.54208370463553 0 1 0
281 1 4 0 2.977445006799038 6.857583017157922 2.7372585139578116 0 0 0
527 1 11 -0.5571 2.5579592355152156 5.794423674395582 5.906502414178267 1 0 1
531 1 2 0.08 2.8231293972405727 4.401431143662569 5.574126266988959 1 0 1
227 1 7 0.4241 2.711823471872987 6.356534732872707 5.177018517499883 0 0 0
167 1 5 0.053 7.981534895389673 9.678205950388845 3.4637390456724866 0 0 0
356 1 4 0 9.695466319294262 5.732120116705017 8.465478818826984 0 1 0
160 1 5 0.053 4.855623660214578 7.415562209705555 5.733412081957422 0 1 0
159 1 5 0.053 5.287595449492336 5.830531877507769 6.273633225970323 0 1 0
161 1 5 0.053 6.218286745886861 6.4924625991286895 5.051228553865446 0 1 0
47 1 4 -0.1268 8.04056723192021 7.109884217104063 3.4820636933684517 0 0 0
45 1 5 0.1268 8.010750796651672 7.827619906189736 4.307432486361044 0 0 0
247 1 2 0.08 5.7404891452391 3.4334385229182143 9.109831342738218 0 1 0
246 1 5 0.053 5.289511355994011 2.8405755886347306 8.26144727750759 0 1 0
245 1 5 0.053 6.664174812206699 4.585879736764301 7.57141949220829 0 1 0
252 1 1 0.027 6.838486715667066 2.5133768980851374 9.660880928010492 0 1 0
242 1 5 0.053 5.374766439286791 5.465680363741948 8.353625461905288 0 1 0
42 1 5 0.053 5.000450104471442 9.520211492918373 4.166926956797838 0 0 0
361 1 1 -0.159 10.001923097898182 4.656175538739619 9.524585695425108 0 1 0
532 1 1 0.027 2.534152478689718 3.6331150605529294 6.841206629342568 1 0 1
283 1 4 0 2.9489002382665195 8.271318181605984 2.8669630714050243 0 0 0
140 1 2 0.08 3.4061653332221558 9.619846174522012 9.239784513097966 1 -1 1
138 1 5 0.053 3.3941419392415257 9.000708990959907 8.302879387868664 1 -1 1
533 1 5 0.053 3.8632497558140826 4.403603981470761 5.391443560766688 1 0 1
177 1 4 0 8.90382693135983 5.041720585822667 2.5807925471316677 0 0 0
49 1 4 -0.1268 8.738591814344726 5.915791216341385 3.681253516217491 0 0 0
447 1 1 -0.159 4.220972572983834 6.1932105294407895 2.195878645953228 0 0 0
57 1 5 0.053 8.986991372763367 3.3093554165206225 3.69364132934814 0 0 0
314 1 5 0.053 6.916790219325456 7.544111186337857 9.846823389005113 0 0 0
278 1 4 0 1.9111572839881643 6.0190919921923385 3.1682516310776694 0 0 0
116 1 8 -0.1654 2.0902401304950335 4.547676373558148 3.0035480855295402 0 0 0
528 1 1 -0.0233 1.9676812839290396 3.874823901714128 4.294358614698298 1 0 1
389 2 5 0.053 6.4110777184046395 2.79185026894098 5.91088421656106 0 0 1
174 1 4 0.0265 7.55282709200755 7.4602163025258355 2.200197619763186 0 0 0
512 2 5 0.053 6.40760546913493 2.053892758073439 4.317177098661119 0 0 1
446 1 5 0.053 4.540523085683288 5.328996453694661 2.8981638602465463 0 0 0
41 1 1 -0.0233 4.784793354696678 10.082590398244076 3.323755368298313 0 0 0
258 1 5 0.053 5.4653820117370895 9.145330028331056 9.573027138324447 1 -1 1
530 1 5 0.053 3.1466162747909054 4.001791541089477 7.651448487332314 1 0 1
461 1 10 -0.1595 7.630572684831662 1.9187169034501532 8.574263362066652 0 1 0
168 1 1 0.027 7.3319829168005795 9.859515571475633 2.562669586239901 0 0 0
139 1 11 -0.5571 3.1154608865506255 8.750008403747646 10.388302608687237 1 -1 1
285 1 8 -0.1654 4.062851393344024 9.160911063350305 2.319833930348674 0 0 0
349 1 4 0 10.230428175557202 7.529951481446252 6.988917775978842 0 1 0
450 1 5 0.053 5.0610501289554986 6.92736675312479 2.182065121676314 0 0 0
535 1 5 0.1268 2.3241030278735253 2.599129625396676 9.192943671345482 1 0 1
50 1 5 0.1268 8.961931443358477 5.68983739089955 4.765318930014946 0 0 0
56 1 1 -0.106 9.481324729978624 3.6212242471294336 2.7722577376105937 0 0 0
401 1 5 0.053 10.194681940093517 9.58425049079528 4.563262139078439 0 1 0
529 1 5 0.053 2.2441392427954963 2.8173818506776014 4.204497124136544 1 0 1
43 1 2 0.08 6.162985496555411 10.76475887788465 2.8502780063099467 0 0 0
360 1 5 0.053 10.374193921051331 3.766689174535946 9.129809547860228 0 1 0
383 2 1 -0.159 6.8437494162226855 1.9728832806212102 5.332601864244447 0 0 1
257 1 1 -0.0233 4.859118301839189 10.063041457502605 9.486262814213484 1 -1 1
172 1 5 0.053 7.985837599994834 10.345747701587623 1.870580220035757 0 0 0
508 1 5 0.053 19.65187917060514 3.787929199872301 7.0713937262931275 0 0 1
234 1 4 -0.1268 17.381541516848284 4.03622714228461 10.442242947712723 -1 0 0
311 1 1 -0.0233 7.10575066072463 6.598484955538617 10.427168137933531 0 0 0
420 1 5 0.1268 9.767956310045037 1.864560525719919 6.979158626339754 0 1 0
280 1 4 0 1.8320661210474414 8.849362515387591 3.4108789060908924 0 0 0
282 1 1 -0.106 1.5582203908327843 10.331305904514572 3.646039090145373 0 0 0
457 2 5 0.1268 10.95804042876163 10.032498358850628 9.305741020954972 0 0 0
534 1 10 -0.1595 2.8821047986669894 2.2626375946091457 6.656328883873467 1 0 1
289 1 5 0.053 2.9747300692136767 10.679546778936755 5.207350618274768 0 0 0
362 1 5 0.053 9.090177770570634 4.293557292985789 10.048317514973776 0 1 0
459 1 5 0.053 7.485244069443289 3.0652295679462753 10.396144327832651 0 1 0
132 1 5 0.053 9.105980158013258 2.9375713711151885 2.063560924208005 0 0 0
169 1 10 -0.1595 6.986872753203343 8.652675543960381 1.930626154748513 0 0 0
270 1 5 0.053 18.34604763468389 4.355700662194355 1.9760061728550384 0 1 1
271 1 5 0.053 19.156777807012034 2.8611441755827904 2.1233633192801946 0 1 1
340 1 5 0.053 10.723373896047473 9.68779072165557 6.90422125300807 0 1 0
144 1 5 0.053 19.49116963719071 10.129863995686318 8.842329800329725 0 -1 1
269 1 1 -0.0233 19.395680150352135 3.92982128148271 1.9812594793023717 0 1 1
354 1 4 0 10.733217392548458 6.401764768065341 7.678189323260646 0 1 0
118 1 5 0.1268 17.515701764465234 4.719947608447461 9.552807978188 -1 0 0
387 1 5 0.1268 17.78673578198262 8.450366495924161 9.367671459358322 -1 0 0
403 1 1 -0.159 11.021595729165563 8.995251361042785 5.01641970639222 0 1 0
399 1 5 0.053 10.920589159804296 8.072569890453803 4.439882534311787 0 1 0
507 1 5 0.053 19.104446440073716 3.80806794693241 4.651891469235693 0 0 1
115 1 5 0.053 17.07244187604848 7.038885918953443 5.837076465069745 -1 0 0
277 1 4 -0.1268 18.952781040980298 8.032653437078146 3.7614482034962853 -1 0 0
276 1 4 0 18.921290329384178 6.617028283583354 3.574777546488722 -1 0 0
345 1 1 -0.106 11.03233854269925 8.75662701869392 6.509912891722104 0 1 0
157 1 5 0.053 16.53121718028127 5.330225005004708 5.804298817567281 -1 0 0
119 1 5 0.053 16.152433375704497 4.112457658933769 8.100353597125615 -1 0 0
346 1 5 0.053 12.015335782725446 8.721592869557963 7.020619853913371 0 1 0
357 1 8 -0.1654 12.165049689569818 5.85651955518201 7.537533393751994 0 1 0
158 1 5 0.053 18.220256143856723 5.744040224011343 6.2242543163861 -1 0 0
224 1 5 0.053 12.990304954561676 5.492667659193287 5.653199149329895 -1 0 0
223 1 1 -0.0233 12.831681793213171 6.347338944867505 6.30045289158535 -1 0 0
249 1 5 0.053 11.851101067952055 3.691844409241271 7.567531442431683 -1 0 0
275 1 5 0.1268 18.003279349200277 8.391026671104576 4.155146673993146 -1 0 0
432 1 5 0.053 13.811864801750662 8.922722541062788 7.4061365142365405 -1 0 0
291 1 11 -0.5571 13.881881578167873 2.4127771947364813 7.622376516971918 -1 0 0
15 1 4 0 10.920139177068632 3.56432369785562 2.9659179767733805 0 0 0
17 1 4 -0.1268 11.83987337882526 4.398223642366658 2.3732508930489513 0 0 0
113 1 1 -0.159 17.39185147136805 5.991218431077913 5.549270935250483 -1 0 0
117 1 5 0.053 17.673170269474234 4.8795180601099055 3.7826376184069375 -1 0 0
274 1 1 -0.106 17.60143650503948 5.907125805443491 3.998670014292267 -1 0 0
379 1 2 0.08 14.260287172263494 7.03291054888947 6.526366843639518 -1 0 0
273 1 5 0.053 16.763875044331083 6.361382693912301 3.510976494889256 -1 0 0
12 1 4 0.0265 13.743791382161612 3.417942134566375 3.5061656030336534 0 0 0
14 1 4 -0.1268 13.212013333982654 4.328313472971713 2.633324631374398 0 0 0
13 1 4 -0.1268 11.427413272325419 2.7947621875256172 3.9967481083621657 0 0 0
9 1 10 -0.1595 15.136969138246698 3.373211536434776 3.755516124989222 0 0 0
125 1 11 -0.5571 15.973920466510918 9.978759957353551 4.5438882340021305 0 0 0
11 1 4 -0.1268 12.812250975921922 2.6078818966996726 4.196456757584404 0 0 0
123 1 2 0.08 13.927248338426702 3.838266283734209 7.644849868340277 -1 0 0
193 1 11 -0.5571 14.669317001202836 7.6227333151625025 5.327106473120572 -1 0 0
297 1 5 0.053 12.343826427471752 4.473203988143524 9.010593018117458 -1 0 0
294 1 1 -0.0233 12.508040653455923 4.467188409075156 7.93638154980274 -1 0 0
16 1 5 0.1268 13.78948849614615 4.955561662137383 1.9695997957155589 0 0 0
430 1 1 0.027 14.358952217710527 8.01713955828016 7.682297827319579 -1 0 0
378 1 5 0.053 14.898684523234172 6.193603932937756 6.788263972900203 -1 0 0
428 1 5 0.053 13.827592496236393 7.572032987291607 8.483052411851823 -1 0 0
355 1 7 0.4241 15.498408416352074 8.122981103096606 5.559981224634676 0 1 0
222 1 5 0.053 12.182845688865992 6.980754884464736 5.678896009363912 -1 0 0
380 1 10 -0.1595 15.695228616192981 8.380093936293221 8.026669201035453 -1 0 0
292 1 5 0.053 14.167513732397778 4.107036506673216 6.596846039997659 -1 0 0
384 1 4 0.0265 15.813179930508445 9.143698140657136 9.225831309565919 -1 0 0
121 1 1 0.027 15.147533480168532 4.17200796594736 8.59729677612711 -1 0 0
122 1 5 0.053 15.076196391703165 5.241731277888823 8.789852757699547 -1 0 0
359 1 7 0.4241 14.350800114165862 2.0809940265267106 8.428758690952275 0 1 0
153 1 7 0.4241 16.130127047751806 10.73564203356095 5.105200948016845 0 0 0
248 1 5 0.053 14.356575798939945 10.33740610846516 3.385421178785245 0 0 0
251 1 2 0.08 15.49006207915827 10.44259542003829 3.3127370995426886 0 0 0
6 1 5 0.053 16.849597506432275 2.7504186727646758 4.825911149112974 0 0 0
8 1 1 0.027 15.885546510683488 2.3905530759903675 4.448069805576625 0 0 0
407 1 5 0.053 11.95309732231361 9.435901957334107 4.591745105306517 0 1 0
137 1 5 0.1268 13.37476103749996 8.544247669432025 2.5087367567983234 0 0 0
241 1 10 -0.1595 15.073072595497054 3.413566283553136 9.8087213019921 -1 0 0
53 1 5 0.1268 10.701377868959455 2.0893160261121015 4.525515150235025 0 0 0
388 1 4 -0.1268 17.035303758920875 9.140979818058526 9.87081417019804 -1 0 0
489 1 5 0.053 19.615528985006243 10.142599593704048 5.955182394076563 -1 0 0
382 1 5 0.1268 13.957737904362038 10.31907033823327 9.055132188237511 -1 0 0
386 1 4 -0.1268 14.870518768249614 10.150714525253631 9.633734553398343 -1 0 0
254 1 5 0.053 4.8307554518582805 10.461568295623294 10.49880480348614 1 -1 1
134 1 5 0.053 15.625316963688059 8.398912440333074 2.4266302747662776 0 0 0
131 1 1 0.027 15.87523071334743 9.422363033262533 2.1447185940643587 0 0 0
363 1 5 0.053 10.683176375560198 5.0779914880461 10.255554350036377 0 1 0
10 1 5 0.1268 13.210053436298395 1.764862269759579 4.821811626370881 0 0 0
7 1 5 0.053 15.299024465787252 2.1464061040153526 5.338296012056624 0 0 0
133 1 5 0.053 16.925775483156706 9.31339323317367 1.9632164535019685 0 0 0
5 1 5 0.053 16.618548700686553 1.834369686115458 2.654785180807825 0 0 0
191 1 5 0.1268 11.259713112265256 7.531362634499973 1.6243873935474618 0 0 0
188 1 4 -0.1268 14.1464927518124 15.339118569431273 7.799984870498822 0 0 0
381 2 5 0.053 7.92881817851353 1.9893928901975775 5.365467376389658 0 0 1
40 1 5 0.053 4.212932652315165 10.873501388155642 3.7206546550285213 0 0 0
462 1 4 0.0265 8.810293256290985 19.503618631399377 8.8993908635913 0 0 0
170 1 5 0.053 5.822037208494682 11.285426973031642 1.9066014568221064 0 0 0
142 1 1 0.027 2.222116039151799 10.674874267869527 9.045621058783073 1 -1 1
421 1 4 -0.1268 9.879745098584223 19.532686822734654 7.952190499236149 0 0 0
287 1 1 -0.159 1.9095250766636416 10.756320111827083 5.091164025071024 0 0 0
255 1 4 -0.1268 9.02589024528543 18.860316820796136 10.153422070674257 0 0 0
316 2 5 0.053 3.888584677005667 18.67192658231732 2.0986518488868398 0 -1 1
319 2 1 -0.106 3.8783056690233457 17.563012928895972 1.9891005271869275 0 -1 1
279 1 5 0.053 1.9312548214245764 11.00803762074486 2.853635789625859 0 0 0
546 1 5 0.053 4.512519423387778 17.226674301360653 8.374818393332038 0 0 0
48 1 5 0.053 7.854471297052152 11.290521125631823 9.88596578011553 0 0 0
74 1 6 0.2487 5.061879602595955 10.810782787752812 7.575077558863606 0 0 0
72 1 8 -0.3314 5.536958761825955 10.904849818134444 8.489007526965416 0 0 0
205 1 5 0.053 4.816976308931501 14.87081313232708 6.05976285805822 0 0 0
203 1 5 0.053 4.852301995968128 13.654454840180387 4.7976837861155 0 0 0
545 1 1 -0.159 5.032617529292355 17.34126896131692 9.329888482491262 0 0 0
64 1 4 0 4.980376950550481 14.822228979285903 9.924025966371852 0 0 0
332 2 5 0.053 5.6303266571027795 18.84987437661298 6.588035072502945 0 -1 1
510 2 1 -0.159 2.4646788342617567 17.104860952436283 2.4745242506138974 0 -1 1
324 2 5 0.1268 4.522285200275976 18.87079332637505 4.403893851851885 0 -1 1
323 2 4 -0.1268 5.191496379019316 17.952849833041867 4.135256097720696 0 -1 1
152 2 1 -0.159 7.875536562163908 14.75494357877208 3.12871391771896 0 -1 1
68 1 4 0 4.740020489156796 13.21346644430147 8.170734533770872 0 0 0
327 2 8 -0.3314 8.313929906613488 16.55441240345992 5.312610041107959 0 -1 1
322 2 4 0 6.890919372253278 15.820615767554592 3.5477498311248277 0 -1 1
320 2 4 0 5.769076458690542 16.061076636635022 2.7043950550878777 0 -1 1
325 2 4 0 7.117558372124792 16.64460204563158 4.63179257493818 0 -1 1
326 2 4 0 6.251428428747034 17.714893786864046 4.915957984993986 0 -1 1
321 2 4 0 4.937455251867367 17.16329219194657 2.9854800415397538 0 -1 1
451 2 5 0.053 8.039108947937946 14.582541404855272 5.859197929297937 0 0 0
328 2 1 -0.106 6.4914952929737755 18.780194593659957 5.945509494913083 0 -1 1
385 2 5 0.053 7.319757921256454 18.551893267013938 6.594018361884882 0 -1 1
569 2 1 -0.0233 8.26166593063299 15.517915881108394 6.370346384444121 0 0 0
156 2 6 0.2487 9.010802166015361 16.191406607688315 4.667687085905588 0 -1 1
100 1 5 0.1268 4.111270135700497 15.195493064997086 8.095694157074616 0 0 0
66 1 4 -0.1268 4.586703327997873 14.457430165029125 8.678138946564406 0 0 0
567 2 5 0.053 7.351108472406852 15.614208713562485 6.945108816072838 0 0 0
70 1 4 0 5.40150429830101 12.257267602217757 8.983384246564322 0 0 0
71 1 1 -0.106 4.223839158999844 12.941698916185075 6.76408343992451 0 0 0
566 2 5 0.053 8.296587933749578 15.057969211002378 9.003766947390337 0 0 0
571 2 1 0.027 9.174972067777183 14.562734896476538 8.536204702024547 0 0 0
204 1 1 -0.159 5.047051107504258 13.84408574330621 5.902297548338728 0 0 0
568 2 2 0.08 9.487496963951827 15.361548538952114 7.260963926994424 0 0 0
75 1 5 0.053 4.404623308397285 11.917655095483479 6.4479840638607575 0 0 0
570 2 5 0.053 8.952729587401004 13.581917607711494 8.145369724062371 0 0 0
101 1 5 0.053 3.126961774709617 13.208701914248609 6.7895285270545 0 0 0
154 2 5 0.053 8.724229120134929 15.25548930930246 2.684970752723082 0 -1 1
151 2 5 0.053 7.4524558745158815 14.011097216224954 2.4171167734360024 0 -1 1
150 2 5 0.053 8.16764721755351 14.081012276684689 3.9198538071066227 0 -1 1
202 1 5 0.053 6.102286652482488 13.627391510547511 6.045025379972844 0 0 0
572 1 5 0.053 4.8594808775475995 18.399239184692618 9.673341099201224 0 0 0
67 1 4 0 6.021591821358026 12.663638768964912 10.138740816794247 0 0 0
576 1 5 0.053 6.119097597253583 17.231353442829977 9.18514603277032 0 0 0
565 2 5 0.053 9.793563053193598 16.356242468220035 7.5865510747031095 0 0 0
39 1 11 -0.5571 6.527319580504441 11.63239253599295 3.834890448989582 0 0 0
26 1 4 0.0265 2.2402226542968298 19.569224964033083 7.470759005959198 1 -1 1
141 1 5 0.053 2.4926661172068183 11.23679103378819 8.103060645004888 1 -1 1
143 1 10 -0.1595 2.2199353626058316 11.60711031209587 10.144413365933767 1 -1 1
573 2 10 -0.1595 10.311440232550693 14.531356730247424 9.501935371059057 0 0 0
575 2 4 0.0265 10.440294906344628 13.25128601387587 10.109495633102929 0 0 0
564 2 11 -0.5571 10.609442472818936 14.818907185286832 6.479454266599554 0 0 0
449 1 7 0.4241 7.289115407216398 12.120641883283561 3.357930757066672 0 0 0
32 1 4 -0.1268 1.9617137938634275 1.6715864714394526 8.832730456045471 1 0 1
453 2 4 -0.1268 10.498642422126657 12.094647451260059 9.393009520224343 0 0 0
452 2 5 0.1268 10.588760245369265 12.061135012892187 8.269184648929777 0 0 0
511 2 5 0.053 2.207814280797562 16.084459914054985 2.3046994855250715 0 -1 1
217 1 4 -0.1268 10.276807460023536 18.359024960646067 10.419057044545044 0 0 0
63 1 1 -0.106 4.576273920331111 16.260601821349805 10.296128351501897 0 0 0
509 2 5 0.053 2.2839070850867937 17.322264474096706 3.5898153468651177 0 -1 1
288 1 5 0.053 1.6330846407743853 11.750068513432426 5.232886065301164 0 0 0
146 1 4 0.0265 1.6571245639297008 12.86810986449566 10.043798407843328 1 -1 1
18 1 5 0.1268 11.551530764754794 5.163717118032216 1.6080951096892198 0 0 0
456 2 4 -0.1268 10.705914100509874 10.864684516317837 9.984900234559905 0 0 0
20 1 5 0.1268 1.8898413624188493 18.00200990488178 5.894180812102915 1 -1 1
22 1 4 -0.1268 1.7873849099799972 18.349672539069964 6.921283944250679 1 -1 1
82 2 5 0.053 3.650076213150517 14.921323382535766 1.8282948536305335 0 0 1
3 1 1 -0.0233 15.04459787676173 18.543262803423033 3.0093802690692404 0 -1 0
364 1 5 0.053 14.028591248830436 11.59115768204875 6.53947679139022 0 0 0
264 1 5 0.053 12.77012661972102 11.666232138303487 1.8643626831006648 0 0 0
425 1 4 -0.1268 13.17569305419284 15.652369463206584 10.392697370640757 0 0 0
265 1 5 0.053 11.39654496175708 12.623042512555566 1.946203390320937 0 0 0
483 1 5 0.053 18.641500346490083 10.489066967701142 3.5469577243625623 -1 0 0
373 1 5 0.053 17.295796824591733 13.069327950447308 4.937758634038691 0 0 0
243 1 11 -0.5571 4.637313782802932 3.514573765660394 10.00195245459918 0 1 0
93 1 5 0.053 17.50201702496628 14.29240301142086 2.6174785119497774 0 0 0
155 1 8 -0.1654 15.3972754382568 12.860251936896377 4.028286406700779 0 0 0
87 1 5 0.053 11.072248223563344 16.756525717935247 4.187729506209227 0 0 0
110 1 5 0.053 10.397561776652394 17.845364513430006 3.0557608650491352 0 0 0
28 1 5 0.1268 17.961280238360153 14.859088268072323 8.094448254375656 0 -1 1
259 1 5 0.053 11.35719666997419 11.037589924847461 2.8230613485612137 0 0 0
89 1 1 -0.106 12.202227171011181 17.15851914899426 2.2552346194105852 0 0 0
99 1 5 0.053 14.209731996155968 19.12441078573149 2.6287162202409062 0 -1 0
266 1 5 0.1268 11.58069432457626 14.896654829906733 3.1503549316146175 0 0 0
2 1 5 0.053 14.661798812745321 18.090330852960918 3.9214632517659003 0 -1 0
112 1 4 0 15.447284711977378 15.108098469712186 2.9571660485023834 0 0 0
583 2 5 0.053 1.7079937295769698 17.714564215091762 1.974804122255465 0 -1 1
30 1 4 0 18.95054670766976 17.79368182053225 9.078928776292482 0 -1 1
268 1 4 -0.1268 12.669030004510539 15.0012977973711 3.1182750620810045 0 0 0
102 1 5 0.053 15.234483211078729 12.104863097330187 2.1700763427250407 0 0 0
262 1 1 -0.106 12.495528821846877 12.61492986475512 3.859643690845191 0 0 0
21 1 5 0.1268 18.757512868976654 16.54293982214502 7.3275182374187855 0 -1 1
38 1 5 0.053 17.460955625891 15.925933780752807 2.285896997607055 0 0 0
366 1 5 0.053 16.376041333345057 13.382892003525287 7.24700854089808 0 0 0
33 1 4 -0.1268 19.51103602322449 18.935200278061835 9.61786760800818 0 -1 1
263 1 1 -0.159 11.974499921703298 11.919404394350787 2.566144449643542 0 0 0
23 1 4 -0.1268 19.205878390826832 17.549503406226435 7.734475862425696 0 -1 1
225 1 5 0.053 12.682150269697646 18.03386741160005 1.8693268462541845 0 0 0
261 1 5 0.053 11.632648200776535 12.848794827283825 4.56281902617386 0 0 0
85 1 1 -0.159 11.321633084189035 17.551104869258253 3.4584910752967764 0 0 0
216 1 4 -0.1268 13.817257777348669 16.596439533373342 8.336651830686321 0 0 0
83 1 5 0.053 11.756254414046634 18.41705249955217 3.973824150246948 0 0 0
184 1 5 0.1268 14.38885710973635 15.125453455751419 6.810915113605027 0 0 0
24 1 4 -0.1268 18.579954295906923 14.551202315774828 8.897953088047126 0 -1 1
97 1 7 0.4241 17.51117799484654 17.993693593144677 3.459643838660539 0 0 0
367 1 1 0.027 14.379628517202011 12.623253548879244 6.844196621565432 0 0 0
422 1 5 0.1268 11.911845332399515 19.21511349654208 7.635179083609118 0 0 0
35 1 5 0.053 17.04166559458385 16.803190963167722 9.66004741484371 0 -1 1
374 1 4 -0.1268 13.563998725015681 14.401367574075541 9.947385732553379 0 0 0
267 1 4 0 13.348526181450243 13.865427383229818 3.4888733705207797 0 0 0
111 1 4 0 13.225253213679274 16.162426832596573 2.6794850178453324 0 0 0
103 1 5 0.053 16.927642346482365 11.958243637846929 2.770740053863837 0 0 0
4 1 2 0.08 16.171336955520836 19.439596744832784 3.4574681891202266 0 -1 0
29 1 4 0 18.748039520863685 15.449642954135452 10.010635006470036 0 -1 1
37 1 7 0.4241 16.456114393668244 11.11725406401006 7.53453814957558 0 0 0
219 1 1 -0.106 12.80903351486223 18.133904524994186 10.082504902628214 0 0 0
148 1 4 -0.1268 19.108477125707928 13.263298737812969 8.940545129369292 0 -1 1
370 1 11 -0.5571 16.607184266660063 11.436729729485142 6.646534518164128 0 0 0
95 1 8 -0.1654 15.393298071017112 17.389194025659624 2.1709434577105937 0 0 0
250 1 1 -0.0233 15.844170734468975 11.844970056221959 3.028760762409305 0 0 0
371 1 4 0.0265 14.014364614659065 14.266290131095325 8.643437110345662 0 0 0
260 1 5 0.053 13.080954962133998 12.003323139282157 4.447701555514269 0 0 0
368 1 2 0.08 15.902667745415073 12.751075174651461 6.532881713831037 0 0 0
215 1 5 0.1268 13.97580244991483 17.453984117814315 7.734010367949648 0 0 0
375 1 5 0.053 16.149841569383888 14.358431994548056 5.240161054521552 0 0 0
369 1 10 -0.1595 14.202020147973977 12.936479866694889 8.252660922403914 0 0 0
424 1 4 0 11.37395251435444 18.526475043263765 9.600086777568016 0 0 0
372 1 1 -0.0233 16.259733503712717 13.289237086973012 5.109553234367345 0 0 0
109 1 4 0 14.783578555035517 13.92631988884273 3.3834657757424003 0 0 0
365 1 5 0.053 13.704330555558196 13.261052247966548 6.2193251101471905 0 0 0
92 1 1 -0.159 16.94756318171654 15.17734939092602 2.897898444194616 0 0 0
145 1 5 0.1268 18.667679027193934 12.563630505111757 8.19935824091023 0 -1 1
31 1 1 -0.106 18.134139284024407 16.818698821175722 9.958170982907285 0 -1 1
1 1 11 -0.5571 17.23772907858182 18.67157351843298 4.076948263115339 0 -1 0
329 2 7 0.4241 11.264736533869797 14.516275388159281 7.064338890261189 0 -1 1
221 1 5 0.053 13.501687662367912 18.849988222193176 9.675433849209963 0 0 0
423 1 4 -0.1268 11.125187712655446 19.127892445250602 8.399183942993426 0 0 0
94 1 5 0.053 17.412138755440836 15.430963477258395 3.908112712675678 0 0 0
218 1 4 0 13.287039538099005 16.78374523875526 9.643842904532681 0 0 0
91 1 4 0 14.648060125186158 16.19077351728389 2.539664235189612 0 0 0
175 1 7 0.4241 4.698301760194882 4.377732644205374 10.501970556923121 0 1 0
238 1 4 0.0265 16.242796760738013 3.2590743192684046 10.560510485851369 -1 0 0
253 1 5 0.053 6.333079970449203 1.7081105819049398 10.21317312041274 0 1 0
539 1 5 0.053 3.463133080855483 16.23648855219648 10.451154915998586 0 0 0
376 1 5 0.1268 13.387295564523855 13.41681317308616 10.525574836194256 0 0 0
521 1 2 0.08 3.5500173898671474 8.750770109283444 18.076920101208756 0 0 0
186 1 4 0 9.158276094403355 8.752754516340893 16.957044612687575 0 0 -1
310 1 1 0.027 6.179852479063448 5.593707646401756 12.658956993290719 0 0 0
377 1 5 0.053 5.239193011997841 5.6498670059239124 13.240452865388857 0 0 0
306 1 10 -0.1595 7.300804587015635 5.871752556104913 13.465921625502896 0 0 0
304 1 4 0.0265 8.490014605196306 5.256480216924301 13.231147471349168 0 0 0
182 1 4 -0.1268 8.04231812006191 8.299670723398064 16.25373458808979 0 0 -1
178 1 5 0.1268 7.802044513811874 7.240256259055538 16.187525290547185 0 0 -1
181 1 4 -0.1268 7.076603782567286 9.213595006446656 15.699840851865412 0 0 -1
51 1 5 0.1268 6.196630803615286 8.6877111827465 15.207015212571491 0 0 -1
519 1 11 -0.5571 4.768226616222788 8.076440132423553 17.900601251799173 0 0 0
189 1 5 0.053 9.638441446367805 7.246215397294489 18.338842740174712 0 0 -1
286 1 7 0.4241 5.141836763165591 7.949536923794077 18.801718477208986 0 0 -1
301 1 4 -0.1268 8.5865702865459 3.985259142954381 12.733962650955858 0 0 0
469 1 4 0.0265 5.018589680759932 2.993087004602499 17.400830415024842 1 1 0
187 1 1 -0.106 10.119422606008238 7.7531585724125325 17.54002023715193 0 0 -1
305 1 4 -0.1268 9.677460449879979 5.922518165456737 13.63624765368093 0 0 0
307 1 5 0.1268 9.67385539246286 6.912281670664757 14.139370473988345 0 0 0
300 1 5 0.1268 7.7934561543650585 3.3586527792482608 12.489656539798801 0 0 0
331 1 4 -0.1268 5.4080288228950275 2.7606694181393205 16.028740729159658 1 1 0
330 1 5 0.1268 4.702102197205708 3.1928686028703304 15.253949574193905 1 1 0
333 1 4 -0.1268 6.527751928066735 2.0408828047621475 15.73124572018916 1 1 0
272 1 5 0.1268 6.733475062113381 1.8154045982653384 14.680559257386452 1 1 0
298 1 4 -0.1268 9.891088626541638 3.4769429491881847 12.550432126640167 0 0 0
237 1 5 0.1268 3.4654692589358866 2.2161349676968487 11.757839639894296 0 0 0
467 1 10 -0.1595 3.804976704140293 3.629699520395751 17.497690540294826 1 1 0
315 1 5 0.053 5.937193960308799 7.51364748689879 12.008315753076015 0 0 0
309 1 5 0.053 6.18127596776218 4.487488128077215 12.391359219811417 0 0 0
312 1 2 0.08 6.002766285228149 6.526714344795877 11.497693396768446 0 0 0
120 1 5 0.1268 7.306387601972125 6.799478840297521 18.323884754496596 0 0 -1
562 1 5 0.1268 9.406477868042607 3.3930458813422293 15.471461890168644 1 1 0
190 1 4 -0.1268 9.29536559395305 10.186382006905468 17.0505101601349 0 0 -1
470 1 4 -0.1268 5.87733118949813 2.510570654137681 18.38374336462803 1 1 0
475 1 4 0 9.8596310344022 1.7090656500464492 16.73352899603008 1 1 0
549 2 5 0.053 9.952542671445773 8.671268419080265 11.416327418537325 0 0 0
525 1 5 0.053 2.8102684884967264 8.005256508565301 18.32983644461428 0 0 0
520 1 1 0.027 3.009793035812658 9.417585339335012 16.789915292902094 0 0 0
460 2 5 0.053 10.018896212748901 9.322592737253945 12.98767073463067 0 0 0
474 1 5 0.053 2.0104511674879273 5.079250610644918 18.597485797326705 1 1 0
473 1 1 0.027 3.079469480422829 3.290898487362668 18.68750320782837 1 1 0
518 1 5 0.053 2.982661856546975 8.625590207318712 15.989953395402534 0 0 0
472 1 2 0.08 1.7468985993196775 4.011129929673588 18.764543932179713 1 1 0
471 1 5 0.053 2.9612170933814372 2.2107290722025796 18.809349199774232 1 1 0
516 1 4 0 7.412505158424862 1.6406587774627879 16.73304289866831 1 1 0
523 1 1 -0.0233 3.640327190769238 9.774127857397978 19.239787810210494 0 0 0
526 1 5 0.053 2.673368939459036 10.39352137851241 19.226794205428845 0 0 0
313 1 11 -0.5571 4.690362467086426 6.228389184559425 11.03052529314866 0 0 0
443 1 5 0.053 3.723117221480353 3.6323143139018392 19.528804861679298 1 1 0
127 1 5 0.1268 8.532012562013641 4.6781644572937715 18.694195896798824 0 0 -1
176 1 4 -0.1268 7.688948543604117 6.506724166537674 19.343375056894857 0 0 -1
124 1 4 -0.1268 8.413697139883851 5.386951919824615 19.513746504676497 0 0 -1
296 1 5 0.1268 9.985799779878654 2.512775151633843 12.106496440615606 0 0 0
212 2 5 0.053 1.7187507790210326 6.731138652644065 13.979946661619202 1 0 0
477 1 4 -0.1268 10.145531844542278 2.9358066186340253 16.14142714832157 1 1 0
231 1 4 0 2.177158636237895 1.7133989233180194 13.516862937735718 0 0 0
192 1 5 0.1268 10.13517563995904 10.611699790586455 17.581590006976462 0 0 -1
468 1 5 0.1268 5.657772613013034 2.7353316942394197 19.45932673765177 1 1 0
58 1 4 0.0265 7.246228779327485 10.600707436201244 15.855370102521213 0 0 -1
69 1 1 -0.159 7.1364927323841565 11.699724537234482 10.642992567933437 0 0 0
448 1 5 0.053 4.193290548929239 5.819284202270479 19.417997994043965 0 0 -1
62 1 5 0.053 11.575312495902397 16.690216297645993 19.643905312247533 0 0 -1
226 1 5 0.053 1.7623359093656876 3.848023575102765 13.2494880143077 0 0 0
114 1 7 0.4241 19.220212141632885 4.003667927461526 16.84055022866285 -1 0 -1
419 2 5 0.1268 11.915026791569783 7.4230969086311855 10.610295846235827 0 0 0
524 1 5 0.053 3.521519163204839 10.373488025613018 16.379642301768754 0 0 0
308 1 5 0.053 8.053774977177488 6.763968478978936 10.918739990944612 0 0 0
54 1 5 0.053 6.184802040768908 10.411241496818805 13.645398803668098 0 0 -1
36 1 5 0.1268 19.50425253467248 19.132994435010083 10.710821702607614 0 -1 1
441 2 5 0.1268 13.572327334986019 16.627100312434912 16.330676113094064 -1 0 0
183 1 5 0.053 10.270930189133036 7.037509307180014 16.74124149790368 0 0 -1
207 2 5 0.053 19.010975939653733 8.183518725016029 13.985194831045886 0 0 0
342 1 4 0 17.431187556313965 11.235592279277402 13.87305815084627 -1 0 0
581 2 1 -0.106 10.560697429136978 9.330726190949962 11.98678377906477 0 0 0
494 1 5 0.053 16.733168793580283 5.531916260319924 19.12380947245049 1 1 0
230 1 5 0.1268 19.36912498399724 4.214577657429458 11.079787803808603 -1 0 0
493 1 5 0.053 15.681632640990486 4.147225272132478 18.98396877135108 1 1 0
302 1 4 -0.1268 10.954184320701911 5.450842361014537 13.277892350020167 0 0 0
358 1 10 -0.1595 1.66522208402223 9.809545194051989 17.018611578558293 0 0 0
229 1 1 -0.106 19.40939721649457 2.904388957840222 13.455886101417038 -1 0 0
416 2 5 0.1268 14.246813931756648 6.569646194467242 11.087639502293602 0 0 0
466 1 11 -0.5571 19.056863494398748 3.5569372871514418 17.6969966606417 0 1 0
299 1 4 0 11.055706647607453 4.191768727268565 12.710512713701709 0 0 0
213 2 9 -0.266 18.46845107009075 6.7922578811263215 15.525313564900612 0 0 0
185 1 4 0 11.50362809826725 8.215367580618599 17.835839599822094 0 0 -1
563 1 5 0.1268 11.512615391069904 4.587286621353192 15.885169234096995 1 1 0
479 1 4 -0.1268 11.286927079843004 3.6429574067472785 16.37344710860652 1 1 0
136 1 4 -0.1268 11.963628949025404 8.111878012117366 19.122507306063838 0 0 -1
210 2 1 0.027 18.942133336086805 7.148926231084714 14.25373176375688 0 0 0
214 2 5 0.053 17.398919241535523 5.475718518974105 14.241765619670312 0 0 0
232 1 4 -0.1268 18.383685638769293 3.790603824590457 11.315402412134791 -1 0 0
233 1 4 0 18.26422094086886 2.860413913386987 12.407434003109534 -1 0 0
303 1 5 0.1268 11.797911456542021 6.022265881258111 13.791888531670253 0 0 0
295 1 1 -0.106 12.45674135820153 3.6469063466078158 12.346775038109984 0 0 0
293 1 5 0.053 12.310731918987065 3.0770324978518833 11.441146080207709 0 0 0
458 1 5 0.053 13.209368356535903 4.444887505284473 12.147998039299416 0 0 0
418 2 4 -0.1268 12.494207258662685 7.8158812996939036 11.402050373032916 0 0 0
415 2 4 -0.1268 13.855119158329183 7.399326906192531 11.630448759000654 0 0 0
485 1 5 0.053 13.401369748757876 5.254926096344521 16.10716034781469 1 1 0
180 1 4 -0.1268 12.293095070614871 8.955428248571305 17.000851757974146 0 0 -1
130 1 4 0.0265 14.005275649949196 9.193921573606318 18.639190569169322 0 0 -1
211 2 3 0.08 17.635353415618937 6.520013126115558 14.423856267438673 0 0 0
208 2 1 0.027 16.292453965696048 7.319456058421398 14.251395518870867 0 0 0
414 2 4 0.0265 14.543507302527951 7.837975210025447 12.712512342712428 0 0 0
413 2 10 -0.1595 15.734256018733149 7.255829175438773 12.947601933272557 0 0 0
209 2 5 0.053 15.616614315091216 6.834420929068029 14.994930368350872 0 0 0
412 2 4 -0.1268 13.91558739387867 8.7330180518391 13.654601095455925 0 0 0
490 1 3 0.08 15.096743661997598 5.718543818006559 17.622024007008882 1 1 0
482 1 4 0.0265 12.271217371199311 3.1448548146282596 17.22707349207058 1 1 0
411 2 5 0.1268 14.340498158133263 8.93246356101201 14.591486150685533 0 0 0
455 2 4 -0.1268 12.704563748983489 9.274292412119369 13.277215754651227 0 0 0
484 1 10 -0.1595 13.429836296542764 3.758257867821822 17.571064286721104 1 1 0
488 1 5 0.053 15.172843249972084 6.772348967143451 17.434749393339555 1 1 0
487 1 1 0.027 13.675998989572248 5.097605873029898 17.187812586828898 1 1 0
486 1 9 -0.266 16.137830585772555 4.8955208944762605 17.00521579360493 1 1 0
491 1 5 0.053 12.73308591105045 5.564997522366875 17.772223965882837 1 1 0
206 2 5 0.053 16.38364996582446 8.404257116372754 14.568266453376982 0 0 0
497 1 4 -0.1268 14.23943980988892 3.2555171733670347 14.006317695909754 0 0 0
495 1 5 0.1268 14.632216472071887 4.275494904534589 13.727593314899272 0 0 0
496 1 5 0.1268 15.996808224904521 2.8980284075006884 15.28383008148756 0 0 0
498 1 4 -0.1268 15.0789383435477 2.4594159739352994 14.821226643651595 0 0 0
417 2 4 0 11.998376340034406 8.822902568549651 12.223425067389716 0 0 0
499 1 4 0 13.11005022430483 2.7513693826499197 13.358522365960328 0 0 0
492 1 1 0.027 16.037075301546164 5.046199627119028 18.487487213151255 1 1 0
239 1 4 -0.1268 16.210940568460856 2.20357493309135 11.46859401708649 -1 0 0
179 1 5 0.1268 11.959182600843565 9.137007701225851 15.97562195681987 0 0 -1
128 1 4 -0.1268 13.593928041957703 9.344495650406284 17.30457025035441 0 0 -1
129 1 10 -0.1595 15.182284996498781 9.765975834365832 19.098599116570618 0 0 -1
228 1 5 0.053 18.936356519788575 3.135359842783436 14.49179935885336 -1 0 0
506 1 5 0.053 15.798943376252534 1.774448672488968 17.272262595246435 0 0 0
480 1 4 -0.1268 12.01709124020685 1.91104459398548 17.822758737215402 1 1 0
235 1 4 -0.1268 17.162693416829953 2.0822370255174865 12.483322657139714 -1 0 0
335 1 5 0.1268 18.344696070343964 10.124899937592954 11.299108215858535 -1 0 0
290 1 5 0.1268 17.32959391367125 10.514836129557185 17.180462222579564 -1 0 0
392 1 4 -0.1268 17.326661889856723 10.030680649759821 10.887506238807617 -1 0 0
481 1 5 0.1268 12.73357719883993 1.532118874290278 18.572120065835072 1 1 0
353 1 4 0.0265 19.093640325002987 10.279481914353372 15.938501140715136 -1 0 0
454 2 5 0.1268 12.180870652089943 10.018602002487093 13.95831013121731 0 0 0
434 2 1 -0.106 14.568617276610908 14.818596334415432 14.392029375514474 -1 0 0
126 1 5 0.1268 14.238908804787282 9.895286615376069 16.61663336052574 0 0 -1
135 1 4 -0.1268 13.121909757309949 8.645071209329416 19.58781134649059 0 0 -1
201 1 4 -0.1268 3.287865701518585 1.6401515599050374 12.6928496881845 0 0 0
439 2 4 -0.1268 13.025105022944112 15.716297088447575 16.23725991575936 -1 0 0
409 1 5 0.1268 5.047622960089523 18.80894172769017 12.042117152355816 0 -1 0
585 1 4 -0.1268 7.0471400755069915 1.8117021347148172 18.0635211979315 1 1 0
65 1 4 0 5.722192008870439 13.919551746292042 10.75488235815484 0 0 0
465 2 5 0.053 4.060978664503661 17.44405818734501 19.093408114441836 0 -1 0
522 1 5 0.053 4.376378151398033 10.53231521778453 18.945110674460977 0 0 0
513 1 5 0.053 8.699465880592859 18.883138938888884 15.292036353866152 1 0 0
515 1 1 -0.106 8.68092767518024 19.107113278977486 16.348368851561503 1 0 0
517 1 5 0.1268 2.5973395467336586 10.49728969725598 14.61672108731142 0 0 0
52 1 5 0.053 4.611457158281754 10.530303938921211 14.510048246511527 0 0 -1
584 1 5 0.1268 7.677592540611164 1.4907048818713733 18.876446451548844 1 1 0
60 1 4 -0.1268 8.384055483367291 11.044777751992942 16.47557400295782 0 0 -1
404 1 4 -0.1268 4.278602879606752 18.83172439246006 12.837704970184621 0 -1 0
445 1 4 -0.1268 2.091040083724058 18.826635886539123 14.443711897092337 0 -1 0
44 1 5 0.053 6.76611185326797 10.69181617861923 11.124780014382017 0 0 0
147 1 5 0.1268 2.241601684615374 13.395419630990727 12.094074917961366 1 -1 1
55 1 1 0.027 5.551408627142558 11.070698233457396 14.243576013832849 0 0 -1
59 1 10 -0.1595 6.218345982214185 11.493858347416008 15.443324355298554 0 0 -1
548 1 5 0.053 8.30055856516427 14.639218095049873 11.774830026456364 0 -1 0
514 1 5 0.053 8.772985258722453 18.09019310673733 16.718524576731365 1 0 0
544 1 1 -0.0233 7.3734784069920165 15.180038074244823 11.949267222163764 0 -1 0
542 1 8 -0.1654 6.176006953059241 14.33720022695355 12.027033984393213 0 0 0
61 1 5 0.1268 8.519465199138857 12.123008352742868 16.54285620167983 0 0 -1
199 2 11 -0.5571 6.847653024835968 14.810487541010492 16.36900575039926 -1 0 0
408 1 5 0.053 6.908444638350893 17.494822158815637 14.640262671984132 0 -1 0
400 1 4 0.0265 4.163706898944868 17.787779477789634 13.810184683672855 0 -1 0
402 1 10 -0.1595 5.150894328272123 16.792171388721247 13.823356695487018 0 -1 0
397 1 4 -0.1268 2.999039263252752 17.79604134673113 14.570538912158586 0 -1 0
396 1 5 0.1268 2.678146290091811 16.870987717211417 15.166751546809916 0 -1 0
559 2 11 -0.5571 4.2458585326470155 13.47985066584096 17.195863220752358 0 0 0
540 1 7 0.4241 3.895536118731825 13.750077832360281 13.514221880082825 0 0 0
86 2 2 0.08 3.8107802402557374 14.651398631752114 17.903046418849193 0 0 0
538 1 5 0.053 7.329721477001081 15.274887548691805 14.212956398272047 0 -1 0
405 1 2 0.08 7.472359463854979 15.947551570443254 13.367951476837897 0 -1 0
406 1 1 0.027 6.569521861695768 17.11468345519228 13.686279829399448 0 -1 0
88 2 5 0.053 4.147913819966892 15.543841154584552 17.289537469034805 0 0 0
79 1 2 0.08 5.169465499224097 12.25636132291588 13.34514674031517 0 0 -1
77 1 11 -0.5571 4.104740710269579 12.927683071684879 14.028354679426654 0 0 -1
76 1 5 0.053 6.314741196783049 13.778237009189302 14.00934393930063 0 0 -1
81 1 5 0.053 4.849755202444982 11.884682515102782 12.368342361394006 0 0 -1
78 1 1 -0.0233 6.288280072695281 13.285355903354564 13.039924365985392 0 0 -1
80 1 5 0.053 7.263166591998848 12.744032988348545 13.033160342690193 0 0 -1
197 2 2 0.08 7.471228447998968 14.908680924238013 17.710106550638734 -1 0 0
195 2 1 0.027 8.900880999135858 15.397012871949931 17.62030732512614 -1 0 0
318 2 7 0.4241 3.848806959155093 13.609244645192186 16.291163165509527 0 -1 0
163 2 5 0.053 8.887587390804864 15.809786656571896 16.647302250089897 -1 0 0
196 2 1 -0.0233 6.585057919158481 15.907100182153686 18.58971058054655 -1 0 0
194 2 5 0.053 5.992131994905927 16.467334751812075 17.890736744622735 -1 0 0
464 2 7 0.4241 6.149465034702816 14.104206931066482 16.561670017926183 0 -1 0
394 2 10 -0.1595 9.912499977176566 14.352447423823081 17.65463980019713 -1 0 0
410 1 5 0.053 6.675246918757693 17.947403988788864 12.972962121774 0 -1 0
543 1 11 -0.5571 8.877145353829173 16.367721593183564 13.498399549962839 0 -1 0
541 1 5 0.053 7.225235648963889 15.897628941004722 11.061615830414832 0 -1 0
398 2 5 0.053 9.17389414201149 16.205215900447016 18.329694748771686 -1 0 0
561 2 1 0.027 2.1736747787016037 14.747157616670703 17.717735821889363 0 0 0
200 2 5 0.053 7.42708943394296 13.937134225997168 18.13692342175539 -1 0 0
547 1 7 0.4241 9.162981711894314 16.184944403569915 14.436051994920664 0 0 0
90 2 5 0.053 1.73921261951581 13.821334373796798 18.00749494502527 0 0 0
198 2 5 0.053 7.169721825683569 16.634088851917706 19.09229651495791 -1 0 0
98 1 5 0.053 4.962500244155024 16.427170662689022 11.28954836225291 0 0 0
558 2 10 -0.1595 1.7731964269219307 15.030913595920918 16.356724302691326 0 0 0
284 1 5 0.1268 15.857415301095735 11.305799183619527 15.395402730709726 -1 0 0
27 1 5 0.1268 19.431809372706738 15.751722235044301 11.963706181441728 0 -1 1
149 1 4 -0.1268 1.8322377359948092 13.73139609841668 11.133510095654247 1 -1 1
84 2 1 -0.0233 4.4304995169204595 14.610189081984966 19.337158134133304 0 0 0
537 2 5 0.053 1.660774500870997 15.432533235305705 18.401285078182084 0 0 0
317 2 8 -0.1654 5.670543780437927 15.314365135326977 19.633484989605897 0 -1 0
46 1 5 0.053 7.868510347651637 12.309183339640311 11.216974420036356 0 0 0
552 2 5 0.053 4.609262807465491 13.528766264074974 19.61792250887045 0 0 0
478 1 4 -0.1268 10.868429856810069 19.369778118211393 17.54617364914391 1 0 0
352 1 4 -0.1268 17.722941368633023 10.558353254813618 16.16831776178236 -1 0 0
574 2 5 0.1268 10.515333933935551 13.981298748656458 12.20524598052792 0 0 0
577 2 4 -0.1268 10.491368856399564 13.12029478750631 11.522943883722995 0 0 0
504 1 1 0.027 16.217928941022066 19.00055145817521 16.960810713418134 0 -1 0
578 2 4 -0.1268 10.44615246690037 11.839146996398364 12.078110522981596 0 0 0
579 2 5 0.1268 10.30564402598624 11.734353488227665 13.210404165370337 0 0 0
104 1 5 0.053 15.030417096686737 16.6213500029574 18.42775681054141 0 -1 0
390 1 4 -0.1268 15.133948396280315 10.963585539857087 10.71629425932143 -1 0 0
240 1 5 0.1268 15.316298571153913 1.5361268874252525 11.563777308137949 -1 0 0
502 1 4 -0.1268 12.82219613976718 19.530537208792715 13.474553351132434 0 -1 0
551 2 5 0.1268 17.93282826335686 13.58448248163665 17.478225172907425 -1 0 0
555 2 4 0 15.909270965191212 14.901844137267288 15.068821178923622 -1 0 0
437 2 5 0.1268 10.791696809843174 12.629931291713923 15.923824033849625 -1 0 0
463 1 5 0.1268 11.812048040473092 19.315369629402433 13.124282159810958 0 -1 0
338 1 5 0.053 15.52748063475117 12.022390035002182 13.004951409210717 -1 0 0
236 1 5 0.1268 17.01198338512964 19.313184639270006 13.031040659099661 -1 -1 0
348 1 4 -0.1268 16.892970900947603 10.973247906776686 15.16726038645002 -1 0 0
350 1 4 -0.1268 19.657531377977115 10.600905031839295 14.669855728969637 -1 0 0
553 2 4 -0.1268 16.3138858517771 14.129626499675485 16.128170168267168 -1 0 0
34 1 5 0.053 18.12989685206299 17.191586152148247 10.967184592100244 0 -1 1
580 2 4 0 10.556581528910767 10.657775716170992 11.328447810099128 0 0 0
444 1 5 0.1268 19.43786444624979 18.861206373121533 15.224677284975982 -1 -1 0
442 2 4 0.0265 11.065183406183483 14.537977565781421 16.91589776730798 -1 0 0
550 2 5 0.1268 15.523183871552792 13.615530421264264 16.753064484063582 -1 0 0
582 1 5 0.053 17.213831476962753 19.138571690187646 16.44673873398877 0 -1 0
500 1 4 0.0265 14.703670777635507 19.306877766786357 15.058094541568952 0 -1 0
476 1 5 0.1268 10.612448049873096 18.407626567650887 18.074890290301674 1 0 0
395 2 5 0.1268 11.50835531372985 16.4772467464281 17.556687703466828 -1 0 0
438 2 4 -0.1268 11.424841988754238 13.490122446261465 16.02557358630466 -1 0 0
391 1 5 0.1268 14.300910316967023 11.6351189462257 10.974248432204366 -1 0 0
25 1 4 -0.1268 19.41891945422183 15.005717011677953 11.148275137761525 0 -1 1
19 1 5 0.053 17.245122603854043 18.663714951324515 18.84669894402745 0 -1 0
431 2 5 0.053 14.535413105891713 15.653961656312513 13.673006784998565 -1 0 0
560 2 4 -0.1268 18.21736289263916 15.677083139635423 14.761439927482092 -1 0 0
427 1 5 0.053 12.95752756872704 18.215139932595775 11.130612947894496 0 0 0
108 1 2 0.08 16.511162968540535 18.076353941375082 18.182229141870586 0 -1 0
433 2 5 0.1268 12.636450808435317 12.809694137177164 14.477962036075429 -1 0 0
505 1 5 0.1268 13.23786084883047 17.78993875451812 14.561241939044574 0 -1 0
429 2 5 0.053 14.554201763198456 13.910798786145698 13.768638397314927 -1 0 0
96 1 7 0.4241 17.043100620353982 16.44706170786215 17.09763992750674 0 0 -1
435 2 4 -0.1268 12.571163262288907 13.590413135351705 15.261225312371629 -1 0 0
343 1 4 -0.1268 18.827614794206447 11.059178176886192 13.652967322268356 -1 0 0
339 1 5 0.1268 19.259986589703857 11.448200478124896 12.737332198449737 -1 0 0
334 1 4 0 16.309074270716536 10.871481460421522 11.42746291320372 -1 0 0
106 1 5 0.053 14.531643394903613 18.407388605365405 18.691084569181996 0 -1 0
501 1 10 -0.1595 15.334537424000855 18.387137465843082 15.944849508063275 0 -1 0
107 1 11 -0.5571 17.439077663176736 17.05648664779943 17.752308949201925 0 -1 0
503 1 4 -0.1268 13.554172061518186 18.804288471423867 14.338039642548972 0 -1 0
556 2 4 0.0265 18.632483340144965 14.938023713559303 15.903068936859903 -1 0 0
105 1 1 -0.0233 15.287680317446465 17.622537448165282 18.93482913868978 0 -1 0
436 2 4 0 13.414685157882865 14.683446751809814 15.34714576334512 -1 0 0
536 2 5 0.1268 18.879891898988603 16.468146294023292 14.239529309786088 -1 0 0
426 1 5 0.1268 12.74666546741437 15.802866267759658 11.458096213901301 0 0 0
393 2 4 -0.1268 11.91346802447651 15.63808752826545 17.001329939627702 -1 0 0
440 2 5 0.1268 16.569445515079792 16.297538911535717 13.557797713837774 -1 0 0
337 1 1 -0.106 16.558993163973902 11.752780818508947 12.685430178830416 -1 0 0
557 2 4 -0.1268 16.8995459497884 15.653982505434891 14.432758342763929 -1 0 0
554 2 4 -0.1268 17.64572818764419 14.197503408325648 16.597096677043403 -1 0 0
336 1 5 0.053 16.994307091072947 12.800829141501534 12.459670436901764 -1 0 0
220 1 5 0.1268 10.366519697357832 17.97834966060507 11.429135431509563 0 0 0
73 1 7 0.4241 2.1251704198862544 8.81892534822769 10.684145833874737 0 0 0
256 1 5 0.1268 8.149440478787998 18.584163372038965 10.74856673451591 0 0 0
171 1 7 0.4241 4.210418992777578 7.024790320694129 10.671780226378722 0 1 0

Velocities

351 0.003894948469272507 0.005091388495908058 0.0016040439915538164
344 0.00393282568486052 -0.00027578103097067346 -0.002310905712207826
347 -0.0007847122183582481 0.004643518192242184 -0.009002334589042536
341 0.010175938833858277 -0.011916648445348045 0.018367463446520838
165 0.0024465698505893828 0.009101535677481596 0.0018342885157593856
162 0.00726994441160601 -0.004953507329305596 -0.0013167963879538544
166 -0.007900824689889067 -0.013164644789203211 0.02031528383323287
164 0.020570991575043853 -0.025186376807144077 -0.016716266075107535
173 0.00498231283546433 0.00026212666805530216 0.0024558004858143767
244 0.006154171495476328 -0.006603803947056823 -0.003071484723562283
281 -0.004321131588316259 0.006425449889242407 0.004349859419212889
527 0.004216776333023305 -0.00195522286108293 0.006194541928892756
531 -0.0020110754507105255 0.005637925491937617 0.005580863088112353
227 -0.0010344142158900255 0.0038551579233187124 0.02048263275979956
167 -0.007594844200626384 -0.008011064132492557 0.004997234778033835
356 0.0036816682138731942 0.0025050848368320666 -0.0037386174227079386
160 0.0014674198364451364 0.005807844700799974 0.008115842827471128
159 -0.00039122962687119394 0.021420410595860105 0.002084647913084743
161 0.011285062932542942 -0.03139675186479872 -0.012832542958211306
47 -0.011266877673568272 0.0036765746714821725 -0.004569318571092134
45 0.019735458270466143 0.0017727778925398854 -0.005364262752003867
247 -0.0031037309291798948 0.0027587407915042315 -0.0017371907203143026
246 0.0027881307576140785 0.000474281638841027 -0.007253826929560421
245 0.028288170640662746 -0.003790155113634471 -0.008506354863478097
252 -0.0012978339658518692 0.0010014892041462905 0.0013638315269493683
242 0.009699894746576525 -0.0222454948826624 -0.0040099484551726775
42 0.01671082353416709 -0.009811277277813748 0.004630854873154663
361 0.000922039080111496 -0.0024446480676053976 0.00906200707356368
532 -0.00740976147839243 0.00606460772495037 -0.0007052777824733014
283 -0.00715584559683173 -0.0025270843510396355 -0.004622310876513382
140 0.005197336748554965 0.0009168209528730542 0.003968673142967022
138 0.006201118429437633 -0.011573173855725772 -0.00021563757908823783
533 0.0005617396295872045 -0.00698134865571962 -0.0011002593537801947
177 -0.00034250783398798314 -0.00017319246051020852 0.003725613795188161
49 -0.005862254436566854 0.0030199915341723306 0.001619582854260158
447 0.003378741268800291 0.002388732876438923 0.0007248133665863726
57 0.009790611116527256 0.0036072191604026647 -0.024899746536772224
314 -0.032713096798614484 0.011093561480605673 0.001818792763910275
278 0.002615052148080916 0.0004304377921608091 -0.0016116473609129934
116 0.00372722918919749 -0.006543813059467357 0.00192831184298468
528 -0.004112624381185285 -6.87211348716277e-05 0.014081896638865147
389 0.011725533724374997 0.01046350461570414 -0.0005141841308252907
174 1.9013596281762738e-05 -0.003162395050955874 -0.0008775751929353663
512 -0.00824890766083919 -0.006620959573884517 -0.03851395211840475
446 -0.024363632573552577 0.03199711171602013 0.011702413810050643
41 0.00465828650331191 0.0068356532194126934 0.00037699898740794536
258 -0.016733358316540072 0.005419496212224657 -0.01522462443393782
530 0.01386833614632256 -0.005390176183234732 -0.0415256779138501
461 -0.0008586280816735407 0.0033302275288220767 0.0008481818179691827
168 -0.00500171669216582 -0.0037285728458127084 0.007620731139630601
139 0.0007291783329692762 -0.0018059249855187532 0.0023080135331856695
285 -0.0033664167415836613 -0.005286388718983923 0.004475273986135028
349 -0.003316712716564948 -0.0009088425080440645 -0.0006752274244254175
450 -0.012444149386308634 0.012127109527636213 0.00271662828297279
535 0.011685614273769445 0.015340111137535306 -0.003708281067056181
50 0.017895879302618628 0.037525571077851594 0.028225875796231457
56 -0.009325189012584927 0.0012761194411219522 0.0088749055595505
401 0.0065518846202224 0.0064612274212668816 0.006833805168193114
529 0.014080253333651548 0.026340134152917992 -0.004517125863941867
43 0.0016144716426150934 -0.0025854842900841692 0.0009303906737915271
360 0.01156201716890084 -0.0013118554369698568 -0.023845881644977522
383 -0.0028926846987856066 0.002697007171792021 -0.003776853868552488
257 0.0015445017246052467 0.0005438121396937489 -0.008229928095401915
172 0.0034507571662416013 0.0067143829941399185 -0.028366436280746334
508 -0.00994776749183338 -0.019548416493865694 -0.02801627236465928
234 0.007355031262941952 0.0030319472963993184 0.006354013563339437
311 -0.0034848111851654134 -0.0017104119988957714 0.0024159896987177186
420 -0.024955848849964327 -0.016536164989017253 0.015064301313801052
280 0.0018557491784289427 0.0005333697008283595 -0.009613449009232479
282 7.980348631402161e-05 0.006972510572325874 -0.00047924447511956607
457 -0.018729007439886435 -0.01579954366999727 0.017654932312817485
534 0.0018142575955203283 0.0023818168394093195 0.0014929504736849437
289 -0.03428244037134298 0.014129164945825699 -0.004625448974067324
362 0.008254266406983896 -0.028269091493312446 -0.006878224902958219
459 -0.011104822400339113 -0.016260195936764747 -0.004311439784954154
132 -0.029969050007322 -0.016869808589967852 0.0021856879891817313
169 -0.007881379188243566 0.002779598523181025 0.0026026409539769073
270 0.034060990682551036 0.004808752124987867 -0.03289558234027502
271 0.018922297904673417 0.0031536885973092567 0.01806828891863029
340 0.012571049226547497 -0.017106703707781095 0.01878767006164363
144 -0.010384608544509222 0.005951933593451698 -0.04757571159877168
269 -0.004934731884647076 -0.004611468595730353 0.011324490473438384
354 0.0062804971070187544 0.003929984393570857 0.0010901486997621538
118 0.011371172816576472 0.010823805154499459 0.021127824987657678
387 0.03186618989212621 -0.016331559431010435 0.01516265806619962
403 0.0022515757701534714 -0.003221993258977968 0.001167774141351374
399 -0.014591021407702262 0.02450552075873616 -0.005077010859315755
507 0.016346136939562363 0.009805354642384937 0.023077083346146623
115 0.002070705621152488 0.022218211630876523 -0.02058742301630882
277 -0.0005749042608258488 -0.0016814965217334338 0.0020029691378634735
276 0.002292803423742139 -0.007864963917763576 0.006028020919856077
345 0.011545815771564941 0.0014027035279299562 0.00610880400805941
157 0.0006719132596506289 -0.022236377033091476 -0.015050914019827052
119 -0.010799919818335155 -0.01459597754533666 -0.0176991136524144
346 -0.01680320214185356 0.017491574330437333 0.029976703815356973
357 -0.005796245071761206 0.0012147202125446068 0.004670988967169092
158 0.0014028588037354958 -0.01588324611498553 0.0015884197041878803
224 -0.008405483462066834 -0.027373013751225087 0.010069026966869074
223 0.0007958719106920857 0.002372672386075848 0.0005249989374790309
249 -0.033678699665002546 -0.007768152762087746 -0.01660349179739631
275 0.010358201305292278 -0.0059918262506838665 0.002204512276885155
432 -0.0023090298765050775 0.00044228434014064783 -0.012276475269153823
291 -0.004451103006710845 -0.0018375589981096938 0.006997674139006576
15 0.0018021412980101148 -0.00517402093417516 0.0020484880240661044
17 0.00785147550201119 -0.004463920965188378 0.0004949872678068181
113 -0.0056754560963776035 0.001562363504239465 0.0038286971056608614
117 -0.018770178815850615 -0.005493892913864422 -0.007998312290379964
274 -0.0019114600715351608 0.009255422596819008 -0.004727294663465357
379 0.002717541074740795 0.004304694459035373 -0.0005894827607661816
273 -0.020273015843401996 0.03917525038231116 -0.04036298355949012
12 -0.003257433353433737 -0.00771610451068742 0.007828035368194122
14 0.0015234855751177332 0.005772487417865149 -0.0038873257142242245
13 0.0012354131917950532 -0.0005971689670072102 0.0006567496436348447
9 0.004511404490793642 -0.0002755916477186279 0.0015643478503945573
125 -0.004051166934043124 0.0026645982327450253 0.002037835376307531
11 0.006796927879150019 -0.00300694999643337 0.0005766750366264068
123 -0.001983887392688951 0.0028074917453508592 0.001622519435459184
193 -0.0034894539500944896 -0.002908738162056231 -0.0009693990230326818
297 0.0025801231706049695 0.018583665650609506 0.032284839477972865
294 0.00034664617020268917 -7.037397020786323e-05 0.0010819705324868467
16 -0.020789868136791265 -0.009754751318609114 -0.014555171860986638
430 0.0062209948641654455 0.004181755571204403 8.143639842842534e-05
378 -0.006427712786164077 0.00953624396496878 -0.004147821422364919
428 0.022810287869025735 -0.013837364048665899 -0.008257370341106417
355 0.007286119379033631 0.0016437125421624368 -0.03691232708755727
222 -0.015129745665198095 -0.01103505061229246 0.013552429316412373
380 -0.0006582254928731132 0.005952506180244476 0.0036597816005033363
292 0.02064144219637857 0.01825185277005742 -0.011833607944516489
384 -0.0081007990779822 8.130296502274333e-05 -0.0037321479430379926
121 0.012314206177381546 -0.0018511738766497745 -0.004192773115932249
122 0.015088393936233613 -0.013366332778075729 0.01153010485728125
359 0.006911360979144798 0.02262837572914299 -0.00662563607587178
153 -0.022515043480158585 -0.005114684261818552 0.011911376485277706
248 0.014508045914697046 0.0069880110992896075 -0.017130041479454964
251 0.0017773141104873802 -0.004169597774518234 -0.002276439559121559
6 -0.03537117493793595 0.004396543910788089 -0.0009627622860175541
8 -0.004386743333604875 0.0021727371509747133 0.005502884473590846
407 -0.015267025791180354 -0.009873131547820624 0.010542557143490849
137 0.02688352379400164 0.028635746570885582 0.0033400427652200636
241 0.0024964248109769125 0.0025509745638639942 0.004603414903497119
53 -0.017933561932359347 -0.008922834843951526 -0.002438286764041732
388 0.0014190519368344771 -0.001493363847187241 0.00010213176177068386
489 0.0011201118019759382 0.004158883912744321 0.035639721382932275
382 0.009493434090428172 -0.021677187590234983 -0.0026647583800481264
386 -0.004243391559202602 -0.0037685598640405005 0.0015170559660187119
254 0.01732440611497744 -0.010466601553619451 -0.016348437738890154
134 0.012292363222558873 0.012521205578330682 -0.015063652857713794
131 -0.008618117410684654 -0.003452518439379582 0.005633834368217805
363 0.02736107453761753 -0.00015438186794385235 0.002105011357877521
10 0.0014964402231585053 0.006195079171577061 -0.00923865603250428
7 0.02751883479624653 -0.004267989118383048 -0.0010651985412411147
133 0.0012124800940990076 -0.014947304183349117 0.018990605759760738
5 -0.003272149804675171 -0.013647934861393679 -0.053058936623614605
191 0.019735905082766843 0.008978877363848805 0.015089911835656234
188 -0.00861645947353705 -0.005768712359568102 0.005582108255018734
381 -0.008770452558392169 -0.026775605062228498 -0.003192450606480556
40 -0.021003600774534198 -0.009996829147054305 -0.002100392578346574
462 0.004480830280191859 0.0020717301814415453 0.0077167929615431135
170 0.01892866672686222 0.02686752956101423 0.00247258840334195
142 -0.0008886395408299396 -0.00902196730021336 0.003313728429112099
421 -0.005098560156955932 -0.0008101073338400428 0.003302250660290934
287 -0.0022043211608100723 -0.004196056395059886 -0.002579514063672191
255 0.006942393733699776 0.007216686537303071 0.005282070106443637
316 -0.0089845360364276 0.0074780115482660425 0.010098385088225175
319 -0.00024928619033426884 -0.007666540310052839 -0.0052366502874807794
279 0.04116072821814875 0.012262806629970419 -0.011638471913695868
546 -0.0007118605707188789 0.002893233082687218 0.020210102555191196
48 -0.012753280216252248 -0.01572115123788262 0.02005315504645061
74 0.0026956771896318845 -0.029084239868328504 0.024464187011079965
72 0.002565770865238057 -0.005577894438178072 -0.00021292552665864105
205 0.008486120356461672 0.010529510675866497 0.010137654290901426
203 -0.003068383949202893 -0.00031561859571899116 0.008762356143497619
545 -0.0030303678473517816 -0.003130494894396594 -0.0022001405213338036
64 -0.005361135391060801 -0.000663415055313127 -0.009956099976784287
332 0.009489465079265907 -0.004005847490071791 0.010549603294046517
510 -0.00293714814887388 -0.0006417026551282331 -0.009780228402715693
324 -0.0067248899676522296 0.017721375941873653 0.0030249941906130215
323 0.002977731472284691 -0.007598379456356872 -0.0014429897844717551
152 -0.0026897208807288263 0.0029565767673456595 0.013710682283040168
68 0.0013918257848214372 -0.003395232155983254 0.00021795484120531325
327 0.0034655757330183503 0.0014230372655556192 -0.001458831355329955
322 0.0017197527681309332 0.007126223265667185 -0.0016546992082645223
320 0.008464892625398212 -0.0054500720948447426 0.003089432706861073
325 -0.0012251165130248499 0.001517503639494618 0.001135297384681442
326 0.0023679852463508494 0.002125283062756518 -0.00817745437789021
321 0.0020338960969463037 0.005471581388062403 0.005468320323934954
451 0.02041678346092053 -0.018925853654835505 -0.02218782069777475
328 0.006723729016268022 -0.0003912678435019103 0.006028260127359094
385 -0.009053116357116872 0.005626418819468504 0.0068084559077802595
569 -0.004134010792641183 0.005694425363758555 -0.0026096646643525515
156 0.0011996825469407614 0.01204447184681332 -0.0012710770463472431
100 -0.018716217582831852 0.01187051234902122 -0.0029240889465745453
66 0.001929720901331292 0.0038335458341363514 0.008046052465428997
567 0.04050669480330845 0.010921650471075975 -0.005703508143292545
70 0.0006379268693364743 0.005378702168319153 -0.0019669605091644647
71 0.0015137049540362153 -0.004351215812656431 0.0003689038926210981
566 0.004888169001381298 -0.024173695660067433 0.016983277612994965
571 0.00014801993365310347 -0.005123569570774528 0.0040681875451659385
204 -0.004231479577513933 0.010212811373239688 -0.005742027759089929
568 -0.001097514178387995 -0.0031915824903065927 0.004782841447118068
75 0.016796728056694743 0.009990140668021815 -0.023369922195010714
570 0.03093234520085949 0.034584449026493214 -0.0056549860902136775
101 -0.007450012744553838 -0.0029190651877683046 -0.00641826020611684
154 -0.02286487300219521 -0.017292167533219414 -0.005231684718492373
151 0.025296206570848724 0.0031394263605646444 0.021130030866819187
150 0.0042457022267482995 -0.011540371103310475 -0.005108537386406313
202 -0.011377843465262006 -0.006544361416535329 -0.01637804978947534
572 -0.0030549634103608746 -0.02324029910288382 0.02878031241219705
67 0.006906585989044542 0.0030306343791408467 0.0020608721927620243
576 0.0026122911386094586 -0.014554665929432272 0.005185249163600594
565 -0.005020696361727443 -0.01832550080045132 -0.018562819811089003
39 -0.0003854979916417181 -0.003968810115839591 -0.0025190839969340506
26 -0.004957117913256043 -0.0015099303789549386 0.0014645835294796055
141 0.016657728453512412 -0.004592889659251174 -0.0034012245925706384
143 -0.00855365830298469 0.0026963393516571885 0.0030084202748395425
573 0.003644983437401843 0.002492079288774685 0.005827251451479743
575 0.0018434001691027344 0.01113394509116924 -0.0068398872254596095
564 -0.0018084157042161284 -0.0006069211713997765 -0.0003257923189072903
449 -0.02957557816378608 0.019049562470439853 0.012692600547312869
32 -0.0022835873143252435 -0.0027884501989442353 0.0009597079295656676
453 0.0021007253324503657 0.0005037735600605278 -0.0010591009663920316
452 -0.0005025446174326481 0.007076895084575143 -0.014497135194215643
511 0.008516767802507584 -0.0027627205688030136 0.025237208723966252
217 -0.0035885308451804013 0.006385194729234188 0.002593498471026494
63 -0.007190491217824516 0.007942745909501107 -0.0008233178351090128
509 -0.021671915473175166 -0.0008583168869331021 -0.020072030088057104
288 -0.025178636229214124 0.010203798007999228 -0.018564665197840075
146 0.004366646679748082 0.007398390610041603 -1.167184297105259e-05
18 0.01751387318940757 0.012189114244127252 0.011921673176767088
456 0.0019045906812947635 0.0005549642678304791 0.0008077608947377005
20 0.020820910296270537 0.004702193083267645 -0.011113439961063641
22 -0.006356638771996571 -0.0005690368930337252 -0.005051189664666877
82 -0.039909150850809996 0.011560708566970586 -0.0009079614401714957
3 -0.0033359421786216445 0.002432193867355015 0.003608073399712589
364 0.01851396803840719 -0.034789207204633264 -0.0034906232584963207
264 0.018693127937217204 -0.014759325136602774 -0.01620642114982588
425 0.0030468485316672523 -0.008714052778683737 -0.002883082948456509
265 -0.002320418945722305 -0.011608933006905346 -0.004113218181126493
483 0.013459813888428838 -0.003480361290288666 0.006238342206366772
373 -0.009368903226251906 -0.015704092555090254 -0.014583007377822414
243 -0.0009426502198433641 0.0004601909519581577 0.00013747145677891253
93 0.006606477690912543 -0.005317232873485368 0.010687045617447988
155 -0.002547881032865448 0.0016895116735133582 -0.006819504285099624
87 0.0063042421674754665 0.007567356330058161 0.03312695499689432
110 0.0036832324516638806 0.02206816915911192 -0.02422968564285239
28 0.012557791292170275 0.0005603477938622366 0.01774951680498856
259 -0.04833161694011229 0.01238934675118898 -0.010280018279291073
89 0.0019470246498183217 -0.005472671902396255 0.006097571440999818
99 0.0044971021079077455 -0.005488208938076177 0.015005357600082214
266 -0.006487303170480457 0.010801631440336117 -0.002590603068898313
2 -0.020974366844519154 -0.011950027673948834 0.009381180117179814
112 -0.00558559909729276 0.0071081259205144605 -0.010670066445897144
583 -0.0015269839413338986 0.0036805427287547416 -0.005056400986140907
30 0.00030775263178862316 0.0021388477797535635 0.003165642579397965
268 -0.0011097471623038376 0.003359967709053475 0.0004438620415191216
102 -0.010823980678552938 -0.017429801089019006 0.010405589636933063
262 -0.0007226879347372807 -0.0012297191405945221 0.0004241951069158543
21 0.010239553283037117 0.006368264225471836 -0.0018317296834229875
38 0.016098887106623667 0.007464067204786625 0.008253678923353908
366 0.012485998370550935 0.003360386004420548 -0.05118634637483531
33 0.0021390581718672727 0.007162630008934276 0.0050039236840830085
263 -0.0043176352579592445 -0.007691204420130489 2.7261449448360902e-05
23 -0.001366294884059683 0.0032219271526354796 -0.006448315882289495
225 -0.005606160633295157 0.01449587898463141 -0.007120108942061731
261 -0.0035334361604014 0.007216942618450998 0.028701070432174233
85 0.0020285179522786926 -0.0003319002967372068 -0.0011330787854468287
216 -0.0022375209006181844 0.00032081244840281213 0.006628716359959115
83 -0.02312105810879272 -0.01281959583142048 -0.006723510185064145
184 0.014890333567705699 0.0006917276661295779 -0.010644430379776647
24 0.006605176110774816 0.0019728282653201615 -0.010108582849100246
97 -0.013208691501804757 -0.003295631902316367 0.012440994923095748
367 0.002157199058587958 0.00629468544282133 -0.0052321297130132815
422 0.030054601945953677 -0.005903871456529694 -0.01861885359762936
35 0.038838090948788796 0.0031543107816904533 0.015512862897625556
374 -0.0011968478859172961 -0.006769362452141459 0.0037910215735243676
267 -0.0009586091255790937 -0.006163225530892464 -0.0006480244908384569
111 0.0013645144979270458 -0.003743145660504436 0.002802074198414887
103 0.009072994359587581 -0.004465771379272811 -0.008877552847700252
4 -0.0011679278250461475 -0.007236340984743685 0.0026603783371415834
29 0.0025076077656608427 -0.0014222128351558834 -0.004245232590943377
37 0.01542849305149174 0.012310021747300613 0.012588160781113834
219 -0.0036665275368511787 -0.0006144538788793818 -0.0034453134687698157
148 -0.0037508081244722173 -0.0031572016765592454 -0.0009284242902404063
370 0.003601362707549528 -0.005191463708141955 0.004920440208908847
95 -0.0047062277530559755 -0.003960315301422289 -0.002376886428959967
250 -0.0014436749801789717 0.004291179547095328 -0.0030735289610054717
371 0.0015181864893234177 -0.0044550314630690735 -0.010686731092567393
260 -0.006190488490481393 -0.021561501068473325 -0.015391043995216666
368 -0.0051660196363180165 0.0034487251449142305 -0.006523709608893881
215 0.0026253848263545257 -0.023761445177501058 -0.0009987895493944036
375 0.010096575209008743 -0.010458997241060636 0.004953321006616737
369 0.009047021285947244 -1.6078704411175454e-05 0.0006157807595816635
424 -0.006628153625559662 -0.004166840573141106 -0.00131367428692953
372 0.0005001806593827736 0.0013783446566185504 -0.0034566124098505415
109 0.0006109010181373492 -0.0027852132774059037 -0.009387125078797279
365 -0.01629967416239989 0.020584134206478567 0.007517304195789277
92 -0.003439499318289191 0.00016026914578797904 -0.001589174524040566
145 -0.0005872246517468688 -0.013757094003808283 0.012385096480382569
31 -0.00336963862936901 -0.004043360986084256 -0.0011776481070815705
1 2.9763399044336192e-05 0.0025523317122147773 -0.006171606818349553
329 0.0055745281286435295 0.0032987479653580525 -0.017944314445341204
221 0.010589127829509007 -0.004669334867670634 0.01563397243076002
423 0.0008370814585128412 -0.002687707948950533 -0.0004017617380708809
94 0.0018027003455455967 0.04187080571370517 -0.037250878034094
218 0.006725425810521842 0.002694968996300228 -0.0005755955206741309
91 6.095422927904357e-05 0.005057178590734989 0.0016915429915546666
175 0.00689269371039957 -0.016219088511373093 -0.01918714423875891
238 0.007547199499773421 0.005517157121172909 -0.006872094901597653
253 0.006054187592933878 0.029092874727272934 -0.03537633836775549
539 0.01791331234345528 -0.018414051014905695 -0.015814890096202565
376 -0.011783672482159778 -0.01570755534767795 -0.003073969299385302
521 6.761038003116933e-05 -0.005098757247973271 -0.00936166927602815
186 0.0007417992455101952 -0.0031540892653812887 -0.004427477620187308
310 -0.00045094948818273715 0.0033887206589759467 0.005383773468696739
377 -0.009864899443074285 -0.011260616446296317 0.02480094313154989
306 -0.005121855993195861 -0.01255564162306237 0.0037159819942190276
304 -0.0021295015699493713 -0.003037263275952955 0.006823199630366474
182 -0.0017546702447349398 0.002233699434268092 -0.005388490846291685
178 -7.106943896454282e-05 -0.0420035392704119 0.005042412889622399
181 -0.0017292133172068886 -0.007515223050667641 -0.00908320807421633
51 -0.009426856945474049 0.012064571724600575 -0.0022297258396016977
519 -0.0005240332742997229 -0.001815451834101785 0.002203165428369728
189 -0.0012409048594386588 -0.020261670605287618 0.002179497833834494
286 -0.01373933446358504 0.00808370114046515 0.009375901062760242
301 0.0013743647134381322 -0.003762145300597649 -0.003974683543679419
469 0.0013183390882784837 -0.0065785130121267426 -0.001607164623647408
187 0.0014165425510350928 0.0022260877792405543 -0.006142109106532707
305 0.003562849449742245 -0.010394756636719344 0.004196519204139987
307 -0.01992518447447858 0.007647547820946147 0.024914784033893595
300 -0.003965021402839236 0.0036081271738989335 0.00734856807984576
331 -0.005902655319560988 0.0007564866526598759 0.0005790154884529362
330 0.00692601293239823 0.006423002402165558 0.001497962785809862
333 -0.0023213528165814926 -0.008356833039648754 -0.0012172441040947271
272 -0.0012592610217583762 -0.007746226044455483 0.0019071356476405845
298 -0.0016812065937795427 0.00519748347727239 0.0024050108175778235
237 0.008267289195861276 0.00379285741009212 -0.0002212804115404389
467 -0.0017912571047281679 -0.000675588716335547 -0.0010520633787453645
315 -0.010179813970211489 -0.008204969759803737 0.03035003508828864
309 -0.026390412032367826 -0.02881145962247119 -0.017013189725880215
312 -0.00031505291943143313 -0.00018732592219661756 -0.00414252760018629
120 -0.004447207572433798 0.018834829733560182 0.010643427334831125
562 -0.0034290356326979903 0.01143132734498797 0.012864994877237999
190 -0.002229155335177878 -0.0039311038396332276 0.003503350928461481
470 0.0025140490207893424 -0.00219309586233563 0.003140786067101734
475 3.0961408225512304e-05 0.0019303791940287706 -0.0017235362983512635
549 -0.012229037814157889 0.01574311528876066 0.015961300042359773
525 -0.006409432634572742 0.029892432943210645 -0.012415991846429258
520 0.005063688297816305 -0.005165270967588867 0.006214063602187554
460 -0.007499771745251593 0.019288665014030728 -0.007680858401809462
474 -0.010099414377311272 0.01712950791726461 -0.017006082685283204
473 -0.0022545016378163 -0.00016197160717357282 -0.0030644200231079413
518 -0.008256871477543233 0.009212593019017855 -0.02583554143766695
472 -0.00715814155735478 -0.0033401175211904086 -0.006748702009005578
471 -0.0055301891320526575 -0.002935132914388193 -0.0036970861797957152
516 0.0058822390636333495 0.005163555348775056 -0.0015430397898037876
523 -0.0009864141419406198 0.00187551668733665 0.003230125857018703
526 -0.021074450822869652 0.029100728022365494 0.003043324213728414
313 -0.0010413532979575682 -0.0012150894157011807 -0.00039378672123213275
443 -0.0053517699698311895 0.005757441231168183 -0.03355759025916962
127 0.032385186396981167 -0.020097169687344145 -0.007327878842133045
176 -0.0016534977866912851 -0.00394349438597695 -0.0023982350425128265
124 0.006281865678278153 -0.0014530583849338852 0.002482254178805125
296 0.009485073267426527 0.019581692545141156 -0.004697177957216999
212 -0.01609355763874217 -2.8843645057798295e-05 0.006452163702089443
477 -0.004737169808188322 0.005373372887683269 0.002715902478590219
231 -0.0038700989472477258 -0.0026404891777404888 -0.0018647832778248992
192 0.010424473401448399 -0.01141666503785777 -0.006867704928818463
468 0.018933776725086296 -0.008367216262999367 0.00970590465882166
58 0.005765886172126928 -0.0046228878011199855 0.004439829505447274
69 -0.0034495953714245367 0.0015077505582369315 0.0025372769619030336
448 -0.005240238358622726 0.018136273370583746 -0.008123620246518252
62 -0.0169654058006714 -0.011898937253248087 0.0029655732756134665
226 -0.015493703544098132 -0.007553344947309849 -0.02071011411436468
114 -0.003708045961293726 -0.019252431849075907 0.032198283956434995
419 0.008997296437899623 0.0067876470139773435 -0.007997883067185897
524 -0.011580313673680023 -0.009506091506298019 0.009947490924432627
308 -0.011242238143286315 0.006161380088267439 -0.00496070091282497
54 -0.0033135831213363135 0.033553817974690876 -0.004956966493293794
36 0.006645181514278577 0.02476467620790604 0.015213159742296506
441 0.005520410622090836 -0.003787486019528459 0.015227353277546192
183 -0.002090395698880832 0.0021443443476116346 -0.033396020442648555
207 0.015416480995039063 0.020655836143587493 -0.024436981164426094
342 0.004670344913101356 0.003268501638552222 -0.007486684221651735
581 0.011306687172008587 0.004287109779513904 0.00019978132048968444
494 0.010922459090594139 0.007811683686068983 -0.002962390578403103
230 -0.010851990361102142 -0.014702631426109815 -0.004114541207832723
493 -0.0047721123140350855 -0.0027038914226070014 -0.0027306677804489576
302 -0.002705030938128841 0.00578626762491263 -0.0020602436903026395
358 -0.0023447652828948984 -0.0007094258339178821 -0.004927118906368865
229 0.00032387105369481 0.009408152177558932 0.0068781951344309795
416 -0.012830467705115612 -0.00037661906761123884 -0.015096695212729978
466 -0.0012835275895463336 -0.00303906488416517 0.0005053497168786683
299 -0.0025844914532227375 0.002692194322887502 0.010468187244524831
213 -0.00473579228652142 -0.0005450225991211044 0.005503602229704819
185 0.005226150063436846 0.001424371530731521 -0.002943264649774428
563 0.019839473529043878 -0.021961988519906064 -0.022020469058653163
479 0.0007298954010781208 0.0014986585888063415 0.003811873036211397
136 -0.0039471020356010135 0.0023466836490670276 0.010075347683310911
210 0.0015960750285142502 0.0022063071512274167 0.009975035462378656
214 0.017553494148792637 0.006157879049535883 -0.02357260527412197
232 0.00874456454322669 0.001164779685864617 0.0014520567456227853
233 -0.007539796148405214 -0.008177507168046052 0.0005825737764402221
303 0.022732104807297523 -0.010848797685118282 0.03030128553756969
295 0.0022952265101863338 0.00040250545108199293 0.0015907686697309883
293 0.010369887450845914 -0.005159122369908748 0.014084359331423357
458 -0.014087322256735514 0.006817873867974091 -0.046529570506898946
418 0.007922607896819539 0.0007069565769786544 -0.009906087961818435
415 -0.0038217204479294976 -0.0002574589409942655 -0.006009356970502775
485 0.017236005888951245 -0.01699593475518219 0.01670780268415536
180 -0.0003185305115867184 -0.004726168731165736 -0.0037177897800760615
130 0.0029593945248115364 -0.001722366138704234 -0.00944245326168786
211 -0.002302361647064537 -0.0023847783096364174 0.0062546154563237364
208 -0.006775591511053593 0.0037005058681036512 0.0017755433896013103
414 0.00805531690182025 0.0023030227377283377 -0.0020606517507119216
413 -0.005999908241897424 0.0023795856855667054 -0.002243241064318195
209 -0.009709147525402962 -0.01323906353331798 0.000937377235070205
412 -0.0015180281038508247 0.002144304973650243 0.004979296630686829
490 0.0010194830473622862 0.005955431829275322 -0.004318242988210895
482 -0.0042541316143483434 -0.0008125312860046697 -0.00048005556766634753
411 0.005157952098914037 -0.009196421571845 0.00372062071203669
455 -0.004278232220125958 -0.00733475416812506 0.004228556058507392
484 -0.005681329534678037 -0.000540190872515359 0.00166242837023632
488 0.015086408830516844 -0.017727773534138756 -0.016822618395989114
487 -0.004139822214527639 -0.007705465351750252 -0.0012014674229903987
486 0.0023966371895757636 0.00017219047967170637 -0.006557553812890053
491 -0.016755488241194546 0.022744336498473308 -0.010024475710924102
206 0.014160960074358075 -0.02457670421273103 -0.01582803041934386
497 0.000597785549020036 -0.007638930940858223 -0.003272533553074846
495 -0.011958698785158022 0.011670957345110313 -0.015315045068822522
496 -0.008392095811083177 0.028298958731010446 0.01412914615471201
498 -0.0012433822805364557 -0.0013509898707413238 0.0053951989971455895
417 -0.0033471793535620594 -0.005626407524815201 -0.001172180070918803
499 -0.006418749573823723 -0.004573691564233013 0.001776062999234182
492 0.007385307021167981 0.002246096322861941 -0.00359605942056659
239 -0.0030565869748538405 0.0012588472669130936 -0.0009561651591750953
179 -0.02656008114193457 -0.007550628347557303 -0.014277544421444258
128 -0.000574668350435344 0.0037341373836936283 0.011968520911341004
129 0.004268799381547526 -0.0016755973569769552 0.0002740913247580068
228 0.017809455167748227 0.009733304061373887 -0.018928736147953738
506 -0.0051982235488916015 0.015875906824362032 0.02575586599582986
480 -0.0025487517509266847 -0.005350296885822232 -0.0038712178631558638
235 -0.0006483960320113614 0.00025469528249670755 0.0018954060865204222
335 -0.01407008882278853 0.001188845036618541 0.019881877225424317
290 -0.018020689167723744 -0.008088784878352335 0.00925783218004529
392 -0.0009170193744301452 0.007480255338668707 0.002154955518526571
481 -0.018459152452654254 -0.007773260561558565 0.001445613166136784
353 -0.00030873936591635146 -0.0006296208895481944 0.009274210315692926
454 -0.01615860552634394 0.0010486782861228619 -0.0014787942765500403
434 0.0075983119644046256 0.005020279775647017 0.002747218199881993
126 0.014770912502754164 -0.05133826184925368 0.003058189379553029
135 -0.004811871691350481 0.009470901138090553 -0.0005914647275510446
201 0.0070009927154126485 0.008794385324225816 -0.010541194728547539
439 0.0032378305530590297 0.00425018968545804 0.0063650666328163175
409 -0.012547640589990132 -0.009464100070126913 0.015404740597703068
585 0.0022445585619817023 0.007433621597213375 0.0021196312836598828
65 0.00020975548063370683 -0.008835315281113747 -0.0030982666441725557
465 0.012197076652266409 -0.011869672772589936 0.01569295556805884
522 -0.015460739469711318 -0.012242591716537547 -0.013614616031928874
513 -0.01855044814293442 0.0035130221646842616 -0.0015300860045279283
515 0.0031603420640376493 0.0020535665862710974 0.0007113820204346545
517 0.036784645325371096 -0.008177773706436202 -0.0004287236330057019
52 0.025912773132372516 -0.014407395774975884 -0.009834254461708979
584 0.0045247788135871735 0.0029786436316926756 0.013160863583310275
60 0.00722479930241619 0.003812739198184985 0.0027664636986961698
404 0.015284817322181305 -0.009415684745559025 -0.0005566713204782316
445 -0.00031727815144505804 -0.007852584094427458 0.002116963289206552
44 -0.02123314574909681 -0.01688219962131317 -0.013496031864807622
147 0.006100363232473741 0.004298579977450487 0.005653616693744745
55 -0.0027408539539817414 -0.007141802073162416 -0.008197418164414385
59 -0.0014181943515642374 -0.0005713214062132256 0.004302669941077681
548 -0.009776744613482399 0.01694575128055674 -0.011521347143723973
514 0.021299714429922754 0.015414493407103236 0.03585887251190812
544 0.0020868389891550107 -0.004231430542079409 -0.007579831895325512
542 -0.006989098582700619 0.00020891518948595126 0.0006194846776635683
61 0.005264120061229938 -0.009520796236832803 -0.003328921035395986
199 -0.0005692577052256464 0.006352061341512754 0.0006037570804372719
408 0.0110266674356685 -0.006224479625511547 -0.012974817286197125
400 -0.0007069551110674961 -0.0035310953651229377 -0.0010069848697267457
402 0.0016174922537272628 0.006820566877640626 -0.0073966804228261206
397 0.004542212231288093 0.001280389065082172 -0.0015277389613680033
396 0.014752189080801779 -0.0015916400026943823 0.005391993846756902
559 -0.0005213456802825721 0.0011197448754281076 -0.002735022341839468
540 -0.026110009951754845 -0.022851781681146856 0.040979521813308266
86 -0.00024401129804423673 0.002383080288912471 -0.0002011400259360278
538 0.007542812983467148 0.01905061619572734 -0.013126846792039869
405 -0.0006439755625525273 -0.0035098299757201643 0.0002466859939828362
406 -0.0009369391182712247 0.004797201998532801 -0.007778995575567438
88 -0.003584759912390213 0.01547694566970304 -0.01391240178254356
79 0.00496990727279348 0.002281073517066332 0.0021855280123146805
77 -5.253580933601177e-05 -0.00935866159023281 -0.0014806823512701186
76 0.01976919586471149 0.011476052896990942 -0.0007476765925285066
81 0.0162177385036757 0.0016775019227826611 -0.01739637430927808
78 -0.0044995336887811415 0.0005956431185357537 -0.000927993620581336
80 0.0071780093588456745 0.0019523824584684823 0.0013038584613604336
197 -0.002186145507923524 -0.0012537361581224928 0.0027342908375521426
195 -0.005362488984207365 0.0029370152962380235 -0.0020864287573802128
318 -0.03511044246746908 -0.007914656503203315 0.0046232976264871705
163 -0.019639221242067996 0.00011533744030409942 -0.007093786698911063
196 0.006426316982350336 0.009669718443981538 0.005612766252485226
194 -0.008525579909614401 0.011226783930824583 -0.009447820530941524
464 -0.01372099400158169 -0.010200364701946917 0.012710166238774469
394 0.0016740880041860257 0.0016725633186321833 -0.007736587067804243
410 -0.014086164004086231 0.009381136126922757 0.022827442169500414
543 -0.0013291791568721405 0.0013739478967071852 0.001155447953144725
541 0.004656863654380126 -0.009260824591984863 0.020805385321072692
398 -0.008868316436460506 -0.017845822692805092 0.006395199633811264
561 -0.0005548906963648637 -0.001170577453945318 0.003307516013185083
200 0.009820028104296484 0.013496676180585768 0.0006904777156966074
547 0.006953240456002007 -0.002026573614498333 -0.022094783440276905
90 0.0002578437371201836 0.022069257691332615 0.007792712008453838
198 -0.004698497442828844 0.02469819062682517 0.006015659002638217
98 -0.0008016309915253515 -0.017264574690750534 0.003657386561646489
558 0.004574845740023119 0.0019021316621144304 -0.006229749268669966
284 -0.000720665112216427 -0.009935644048655016 -0.021621997062761873
27 0.008876421389939913 -0.00419250284421998 -0.011857239964981663
149 0.006536448256131326 -0.006201034830977303 -0.000484178172358738
84 -9.58886658811361e-05 0.003875991582416066 -0.00010631774495488407
537 0.0005115239986890563 0.0059584199107402145 0.012157015260038954
317 -0.0005699049374732959 -0.004699830542195463 0.0026270365263441997
46 -0.02912858339532899 0.014401130842351305 -0.0013683478585722311
552 -0.003715982918193196 0.011102351841726176 0.018145039676652274
478 -0.0039036421377368117 0.0029646648100735847 -0.0037363672977473563
352 0.0008335300558890375 0.0026687610350019627 3.337888049331797e-05
574 -0.005046803083926295 -0.021546125061369298 -0.02218391602469049
577 -0.0038050263948872466 0.0007151054310123449 -0.00038466418029096304
504 -0.0030027041768153117 0.00013074346676522365 0.004621930018511146
578 -0.001947962734725398 0.0006829903032842337 -0.0012923440230615106
579 0.001400991642985351 -0.008989178252562706 0.022742956165901676
104 0.004970348312668785 -0.0016067798958543686 0.008213713999741863
390 0.00628937721812728 1.748759745881454e-05 -0.006039693058101763
240 -0.0026952724971032586 -0.023545721469418242 0.00991496414754259
502 0.0037284325965980633 -0.0011551492791124934 -0.000957303656635476
551 0.0030097789649774025 0.0012132862786979905 0.0012319745915067414
555 -0.0018512986067148953 0.004691070366332913 0.002924631109459323
437 -0.005878304074401699 0.017811964538718063 0.0006986322644389521
463 0.01108815380421604 0.0046399461202285735 0.01107137373189586
338 -0.0019461840566580397 0.016335465691759362 -0.0018866998882518192
236 -0.015270927427596259 0.013049591757807684 0.00013722857843553675
348 -0.0019999125512122646 -0.0065283641118811 0.003913294082326085
350 0.003714057504226689 -0.0018794613601641101 -0.003721628344010233
553 0.003661593573324114 -0.00529959545536589 -0.00509411344979761
34 -0.02479370713279373 0.010025398331537804 0.003242062787154397
580 -0.003235865744915205 0.003401719007074327 0.0022483368141290924
444 -0.006785002775890173 0.020844526421830812 0.002017191296867938
442 0.004587676098247232 -0.0029713591937254725 0.00014807724103490475
550 -0.02249196942679797 0.005521478472833524 -0.03132969315486689
582 0.006265639175779115 0.0072800624578156755 0.011353516569855057
500 -0.000882565207523323 0.010524983036069838 0.003908408607048696
476 -0.02045903887873001 -0.020439277680131304 -0.012201649148530553
395 -0.011383306928035566 0.021888053096270975 -0.007999220556226119
438 -0.002913644681016892 0.004464764553880823 0.00027372373444313914
391 -0.002800996086555279 -0.007761710970709832 -0.01971439186107628
25 -0.005540673362314171 8.591548400309609e-05 0.004884797978630348
19 -0.016997907126338814 0.012577989462009597 0.011966867226535621
431 0.03395602878916969 0.002594797952924978 0.01110446736875155
560 -0.003944493334486106 -0.00035577634251835735 -0.003960870990131231
427 0.000903254028934398 -0.003325419136115226 -0.018676294121031726
108 0.00085860200395272 -0.0037332638088000674 0.0024385371082212915
433 0.008741283162321176 -0.006705549250101795 0.004620842308132988
505 -0.022195434942231966 -0.003613811213817431 -0.012773664930309013
429 -0.0020194306754414185 0.011539475431897917 -0.012002239731373019
96 0.002758002680726678 0.0003379608400348733 0.01375305748946955
435 -0.003270034251044539 -0.010633223421030987 0.005734632328413129
343 0.00363056311895546 0.003584493327896406 -0.0013068189166387093
339 -0.016005742452185584 0.000735442342029284 -0.024361833618380232
334 -0.0005020527786392612 -0.005595561732285718 -0.009330067272071096
106 -0.010640185642380626 -0.008299312286163405 0.005587915527032657
501 0.005571499180013786 0.00553749816732687 -0.002217260732650825
107 -0.00314096710258418 -0.0001542739267712853 0.0017380785590036037
503 5.6956576906055474e-05 0.003880830177699901 -0.0043719043087513095
556 0.005249049698975975 0.009717277472090634 -0.005377526935382485
105 0.0010839573884926642 0.0027214964821652907 0.0022053838177748682
436 0.00521651450029697 -0.005873086947414868 -0.001492004177387794
536 0.012943233644028574 -0.02345087543854672 0.008963404662271295
426 0.01132351719922373 0.00020775877414802978 0.02569794243137246
393 0.0011868262936878548 -0.0011056709923011894 -0.0025751427178223214
440 4.364675186774363e-05 0.0003704200371912915 -0.0023871647736360565
337 -0.00028850784037097986 -0.0033757875131368268 0.0007170067159121599
557 0.001348230541272957 -0.0002468444101693507 -0.0024996291857158114
554 0.004069866924901167 0.005279353664413644 -0.0016070917523678713
336 -0.007429393798500433 -0.006044128163797004 0.0013345699360960213
220 0.0031133073030952464 0.008445799317681201 -0.0029001562372772947
73 0.00329087768245906 -0.0007011760896144586 -0.009397404734532802
256 -0.00770798473753469 0.02754963274145416 -0.0014047777688886692
171 0.014186429041376774 -0.011685762239027212 -0.013289936949958206

Bonds

1 15 351 173
2 13 344 349
3 14 344 341
4 13 347 344
5 13 347 351
6 4 165 347
7 5 165 164
8 5 165 166
9 1 162 165
10 5 162 160
11 5 162 161
12 5 162 159
13 2 244 247
14 6 244 173
15 5 244 242
16 5 244 245
17 13 281 278
18 10 531 527
19 9 531 533
20 18 227 527
21 13 356 351
22 13 47 174
23 14 47 45
24 10 247 243
25 9 247 246
26 8 252 461
27 2 252 247
28 5 252 459
29 5 252 253
30 4 361 356
31 5 361 363
32 5 361 360
33 5 361 362
34 8 532 534
35 2 532 531
36 5 532 530
37 5 532 508
38 13 283 281
39 15 283 285
40 10 140 139
41 9 140 138
42 13 177 49
43 13 177 124
44 13 49 47
45 14 49 50
46 4 447 281
47 5 447 446
48 5 447 450
49 5 447 448
50 15 278 116
51 2 528 531
52 6 528 116
53 5 528 507
54 5 528 529
55 16 174 169
56 13 174 176
57 2 41 43
58 6 41 285
59 5 41 42
60 5 41 40
61 8 168 169
62 2 168 43
63 5 168 172
64 5 168 167
65 13 349 354
66 4 56 15
67 4 56 177
68 5 56 132
69 5 56 57
70 10 43 39
71 9 43 170
72 1 383 328
73 5 383 512
74 5 383 381
75 5 383 389
76 6 257 72
77 2 257 140
78 5 257 254
79 5 257 258
80 13 234 232
81 14 234 118
82 6 311 173
83 2 311 312
84 5 311 314
85 5 311 308
86 13 280 283
87 4 282 280
88 1 282 287
89 5 282 279
90 5 282 483
91 6 269 116
92 2 269 472
93 5 269 270
94 5 269 271
95 13 354 356
96 15 354 357
97 5 403 401
98 5 403 407
99 5 403 399
100 13 277 280
101 14 277 275
102 13 276 277
103 13 276 278
104 4 345 349
105 1 345 403
106 5 345 346
107 5 345 340
108 2 223 379
109 6 223 357
110 5 223 222
111 5 223 224
112 13 15 13
113 13 17 15
114 14 17 18
115 1 113 274
116 5 113 115
117 5 113 158
118 5 113 157
119 4 274 276
120 5 274 117
121 5 274 273
122 10 379 193
123 9 379 378
124 16 12 9
125 13 12 14
126 13 12 11
127 13 14 17
128 14 14 16
129 13 13 11
130 14 13 53
131 14 11 10
132 10 123 291
133 9 123 292
134 6 294 357
135 2 294 123
136 5 294 249
137 5 294 297
138 8 430 380
139 2 430 379
140 5 430 428
141 5 430 432
142 18 355 193
143 16 384 380
144 13 384 388
145 8 121 241
146 2 121 123
147 5 121 119
148 5 121 122
149 18 359 291
150 18 153 125
151 10 251 125
152 9 251 248
153 8 8 9
154 2 8 4
155 5 8 7
156 5 8 6
157 13 388 392
158 14 388 387
159 13 386 384
160 14 386 382
161 8 131 129
162 2 131 251
163 5 131 134
164 5 131 133
165 13 188 216
166 14 188 184
167 16 462 461
168 13 462 255
169 13 462 421
170 8 142 143
171 2 142 140
172 5 142 144
173 5 142 141
174 14 421 420
175 5 287 289
176 5 287 288
177 5 287 489
178 13 255 217
179 14 255 256
180 4 319 321
181 1 319 510
182 5 319 316
183 5 319 465
184 17 74 72
185 5 545 576
186 5 545 572
187 5 545 546
188 13 64 65
189 5 510 583
190 5 510 509
191 5 510 511
192 13 323 321
193 14 323 324
194 4 152 322
195 5 152 154
196 5 152 151
197 5 152 150
198 13 68 66
199 13 68 70
200 13 322 325
201 13 320 322
202 15 320 317
203 15 325 327
204 13 326 323
205 13 326 325
206 13 321 320
207 4 328 326
208 5 328 385
209 5 328 332
210 6 569 327
211 2 569 568
212 5 569 567
213 5 569 451
214 17 156 327
215 13 66 64
216 14 66 100
217 15 70 72
218 4 71 68
219 5 71 75
220 5 71 101
221 8 571 573
222 2 571 568
223 5 571 570
224 5 571 566
225 1 204 71
226 5 204 203
227 5 204 202
228 5 204 205
229 10 568 564
230 9 568 565
231 13 67 70
232 16 26 534
233 13 26 22
234 13 26 32
235 16 575 573
236 13 575 577
237 18 449 39
238 14 32 535
239 13 453 575
240 14 453 452
241 13 217 424
242 14 217 220
243 4 63 64
244 1 63 545
245 5 63 98
246 5 63 539
247 16 146 143
248 13 146 149
249 13 456 453
250 14 456 457
251 13 22 23
252 14 22 20
253 2 3 4
254 6 3 95
255 5 3 99
256 5 3 2
257 13 425 374
258 14 425 426
259 4 89 111
260 5 89 225
261 5 89 62
262 13 112 91
263 13 30 33
264 13 268 267
265 14 268 266
266 4 262 267
267 1 262 263
268 5 262 261
269 5 262 260
270 13 33 32
271 14 33 36
272 5 263 264
273 5 263 259
274 5 263 265
275 13 23 30
276 14 23 21
277 1 85 89
278 5 85 110
279 5 85 83
280 5 85 87
281 14 216 215
282 13 24 148
283 14 24 28
284 18 97 1
285 8 367 369
286 2 367 368
287 5 367 365
288 5 367 364
289 13 374 371
290 14 374 376
291 13 267 109
292 13 111 268
293 13 111 91
294 10 4 1
295 9 4 5
296 13 29 24
297 13 29 25
298 18 37 370
299 4 219 424
300 4 219 218
301 5 219 221
302 5 219 427
303 13 148 146
304 14 148 145
305 6 250 155
306 2 250 251
307 5 250 102
308 5 250 103
309 16 371 369
310 13 371 188
311 10 368 370
312 9 368 366
313 13 424 423
314 2 372 368
315 6 372 155
316 5 372 375
317 5 372 373
318 13 109 112
319 15 109 155
320 4 92 112
321 5 92 93
322 5 92 94
323 5 92 38
324 4 31 30
325 4 31 29
326 5 31 35
327 5 31 34
328 18 329 564
329 13 423 421
330 14 423 422
331 13 218 425
332 13 218 216
333 15 91 95
334 18 175 243
335 16 238 241
336 13 238 234
337 13 238 239
338 10 521 519
339 9 521 525
340 13 186 182
341 8 310 306
342 2 310 312
343 5 310 309
344 5 310 377
345 16 304 306
346 13 304 301
347 13 304 305
348 13 182 181
349 14 182 178
350 14 181 51
351 18 286 519
352 13 301 298
353 14 301 300
354 16 469 467
355 13 469 470
356 13 469 331
357 4 187 186
358 4 187 185
359 5 187 189
360 5 187 183
361 14 305 307
362 14 331 330
363 13 333 331
364 14 333 272
365 13 298 299
366 14 298 296
367 10 312 313
368 9 312 315
369 13 190 186
370 14 190 192
371 13 470 585
372 14 470 468
373 13 475 477
374 13 475 478
375 8 520 358
376 2 520 521
377 5 520 518
378 5 520 524
379 8 473 467
380 2 473 472
381 5 473 471
382 5 473 443
383 10 472 466
384 9 472 474
385 13 516 333
386 6 523 285
387 2 523 521
388 5 523 526
389 5 523 522
390 13 176 124
391 14 176 120
392 14 124 127
393 13 477 479
394 14 477 562
395 13 231 201
396 13 231 445
397 16 58 59
398 13 58 60
399 13 58 181
400 4 69 67
401 5 69 46
402 5 69 44
403 5 69 48
404 18 114 466
405 13 342 348
406 4 581 417
407 4 581 580
408 5 581 460
409 5 581 549
410 13 302 305
411 14 302 303
412 4 229 233
413 4 229 231
414 5 229 228
415 5 229 226
416 13 299 302
417 13 185 136
418 13 185 180
419 13 479 482
420 14 479 563
421 13 136 135
422 14 136 191
423 7 210 213
424 3 210 211
425 5 210 207
426 5 210 212
427 13 232 233
428 14 232 230
429 13 233 235
430 4 295 299
431 4 295 499
432 5 295 293
433 5 295 458
434 13 418 417
435 14 418 419
436 13 415 418
437 14 415 416
438 14 180 179
439 16 130 129
440 13 130 128
441 12 211 213
442 11 211 214
443 3 208 211
444 8 208 413
445 5 208 206
446 5 208 209
447 16 414 413
448 13 414 415
449 13 414 412
450 14 412 411
451 12 490 486
452 11 490 488
453 16 482 484
454 13 482 480
455 13 455 412
456 14 455 454
457 8 487 484
458 3 487 490
459 5 487 485
460 5 487 491
461 14 497 495
462 13 498 497
463 14 498 496
464 13 417 455
465 13 499 502
466 13 499 497
467 3 492 490
468 7 492 486
469 5 492 493
470 5 492 494
471 14 239 240
472 13 128 180
473 14 128 126
474 13 480 478
475 14 480 481
476 13 235 239
477 14 235 236
478 14 392 335
479 16 353 358
480 13 353 350
481 13 353 352
482 4 434 436
483 4 434 555
484 5 434 431
485 5 434 429
486 13 135 130
487 14 135 137
488 13 201 404
489 14 201 237
490 13 439 393
491 14 439 441
492 13 585 516
493 14 585 584
494 13 65 67
495 15 65 542
496 4 515 516
497 4 515 475
498 5 515 513
499 5 515 514
500 13 60 190
501 14 60 61
502 13 404 400
503 14 404 409
504 14 445 444
505 8 55 59
506 2 55 79
507 5 55 52
508 5 55 54
509 6 544 542
510 2 544 405
511 5 544 541
512 5 544 548
513 16 400 402
514 13 400 397
515 13 397 445
516 14 397 396
517 18 540 77
518 10 86 559
519 9 86 88
520 10 405 543
521 9 405 538
522 8 406 402
523 2 406 405
524 5 406 410
525 5 406 408
526 10 79 77
527 9 79 81
528 2 78 79
529 6 78 542
530 5 78 80
531 5 78 76
532 10 197 199
533 9 197 200
534 8 195 394
535 2 195 197
536 5 195 163
537 5 195 398
538 18 318 559
539 6 196 317
540 2 196 197
541 5 196 194
542 5 196 198
543 18 464 199
544 8 561 558
545 2 561 86
546 5 561 90
547 5 561 537
548 18 547 543
549 13 149 25
550 14 149 147
551 2 84 86
552 6 84 317
553 5 84 552
554 5 84 82
555 14 478 476
556 14 352 290
557 13 577 578
558 14 577 574
559 8 504 501
560 2 504 108
561 5 504 506
562 5 504 582
563 14 578 579
564 13 390 386
565 14 390 391
566 13 502 503
567 14 502 463
568 13 555 553
569 13 555 557
570 13 348 352
571 14 348 284
572 13 350 343
573 14 350 517
574 13 553 554
575 14 553 550
576 13 580 456
577 13 580 578
578 16 442 394
579 13 442 438
580 13 442 393
581 16 500 501
582 13 500 498
583 13 438 435
584 14 438 437
585 14 25 27
586 13 560 557
587 14 560 536
588 10 108 107
589 9 108 19
590 18 96 107
591 13 435 436
592 14 435 433
593 13 343 342
594 14 343 339
595 13 334 390
596 13 334 392
597 13 503 500
598 14 503 505
599 16 556 558
600 13 556 560
601 6 105 95
602 2 105 108
603 5 105 106
604 5 105 104
605 13 436 439
606 14 393 395
607 4 337 342
608 4 337 334
609 5 337 338
610 5 337 336
611 14 557 440
612 13 554 556
613 14 554 551
614 18 73 139
615 18 171 313

Angles

1 24 347 351 356
2 26 347 351 173
3 26 356 351 173
4 24 347 344 349
5 25 347 344 341
6 25 349 344 341
7 9 165 347 344
8 9 165 347 351
9 24 344 347 351
10 1 162 165 347
11 2 162 165 164
12 2 162 165 166
13 23 347 165 164
14 29 164 165 166
15 23 347 165 166
16 2 165 162 160
17 29 160 162 161
18 29 160 162 159
19 2 165 162 161
20 29 161 162 159
21 2 165 162 159
22 11 244 173 351
23 11 311 173 351
24 10 244 173 311
25 16 247 244 173
26 30 242 244 173
27 30 245 244 173
28 15 247 244 242
29 29 242 244 245
30 15 247 244 245
31 9 447 281 283
32 24 283 281 278
33 9 447 281 278
34 18 531 527 227
35 3 528 531 532
36 5 528 531 527
37 4 528 531 533
38 4 532 531 533
39 33 533 531 527
40 5 532 531 527
41 9 361 356 354
42 24 354 356 351
43 9 361 356 351
44 24 49 47 174
45 25 49 47 45
46 25 174 47 45
47 3 244 247 252
48 5 244 247 243
49 4 244 247 246
50 4 252 247 246
51 33 246 247 243
52 5 252 247 243
53 17 247 252 461
54 15 247 252 459
55 15 247 252 253
56 32 459 252 461
57 29 459 252 253
58 32 253 252 461
59 23 356 361 363
60 23 356 361 360
61 23 356 361 362
62 29 363 361 360
63 29 363 361 362
64 29 360 361 362
65 17 531 532 534
66 15 531 532 530
67 15 531 532 508
68 32 530 532 534
69 29 530 532 508
70 32 508 532 534
71 24 280 283 281
72 26 280 283 285
73 26 281 283 285
74 3 257 140 142
75 5 257 140 139
76 4 257 140 138
77 4 142 140 138
78 33 138 140 139
79 5 142 140 139
80 9 56 177 49
81 9 56 177 124
82 24 49 177 124
83 24 177 49 47
84 25 177 49 50
85 25 47 49 50
86 23 281 447 446
87 23 281 447 450
88 23 281 447 448
89 29 446 447 450
90 29 446 447 448
91 29 450 447 448
92 24 276 278 281
93 26 276 278 116
94 26 281 278 116
95 11 528 116 278
96 11 269 116 278
97 10 528 116 269
98 16 531 528 116
99 30 507 528 116
100 30 529 528 116
101 15 531 528 507
102 29 507 528 529
103 15 531 528 529
104 27 47 174 169
105 24 47 174 176
106 27 176 174 169
107 16 43 41 285
108 30 42 41 285
109 30 40 41 285
110 15 43 41 42
111 29 42 41 40
112 15 43 41 40
113 14 252 461 462
114 17 43 168 169
115 15 43 168 172
116 15 43 168 167
117 32 172 168 169
118 29 172 168 167
119 32 167 168 169
120 18 140 139 73
121 11 41 285 283
122 11 523 285 283
123 10 41 285 523
124 9 345 349 344
125 24 344 349 354
126 9 345 349 354
127 22 15 56 177
128 23 15 56 132
129 23 15 56 57
130 23 177 56 132
131 29 132 56 57
132 23 177 56 57
133 3 41 43 168
134 5 41 43 39
135 4 41 43 170
136 4 168 43 170
137 33 170 43 39
138 5 168 43 39
139 2 328 383 512
140 29 512 383 381
141 29 512 383 389
142 2 328 383 381
143 29 381 383 389
144 2 328 383 389
145 16 140 257 72
146 30 254 257 72
147 30 258 257 72
148 15 140 257 254
149 29 254 257 258
150 15 140 257 258
151 24 238 234 232
152 25 238 234 118
153 25 232 234 118
154 16 312 311 173
155 30 314 311 173
156 30 308 311 173
157 15 312 311 314
158 29 314 311 308
159 15 312 311 308
160 9 282 280 277
161 24 277 280 283
162 9 282 280 283
163 1 287 282 280
164 23 280 282 279
165 23 280 282 483
166 2 287 282 279
167 29 279 282 483
168 2 287 282 483
169 14 532 534 26
170 14 168 169 174
171 16 472 269 116
172 30 270 269 116
173 30 271 269 116
174 15 472 269 270
175 29 270 269 271
176 15 472 269 271
177 24 349 354 356
178 26 349 354 357
179 26 356 354 357
180 2 345 403 401
181 2 345 403 407
182 2 345 403 399
183 29 401 403 407
184 29 401 403 399
185 29 407 403 399
186 24 276 277 280
187 25 276 277 275
188 25 280 277 275
189 9 274 276 277
190 9 274 276 278
191 24 277 276 278
192 1 403 345 349
193 23 349 345 346
194 23 349 345 340
195 2 403 345 346
196 29 346 345 340
197 2 403 345 340
198 11 223 357 354
199 11 294 357 354
200 10 223 357 294
201 16 379 223 357
202 30 222 223 357
203 30 224 223 357
204 15 379 223 222
205 29 222 223 224
206 15 379 223 224
207 18 123 291 359
208 9 56 15 17
209 24 17 15 13
210 9 56 15 13
211 24 14 17 15
212 25 14 17 18
213 25 15 17 18
214 2 274 113 115
215 29 115 113 158
216 29 115 113 157
217 2 274 113 158
218 29 158 113 157
219 2 274 113 157
220 1 113 274 276
221 2 113 274 117
222 2 113 274 273
223 23 276 274 117
224 29 117 274 273
225 23 276 274 273
226 3 223 379 430
227 5 223 379 193
228 4 223 379 378
229 4 430 379 378
230 33 378 379 193
231 5 430 379 193
232 27 14 12 9
233 27 11 12 9
234 24 14 12 11
235 24 12 14 17
236 25 12 14 16
237 25 17 14 16
238 24 15 13 11
239 25 15 13 53
240 25 11 13 53
241 14 8 9 12
242 18 251 125 153
243 24 12 11 13
244 25 12 11 10
245 25 13 11 10
246 3 294 123 121
247 5 294 123 291
248 4 294 123 292
249 4 121 123 292
250 33 292 123 291
251 5 121 123 291
252 18 379 193 355
253 16 123 294 357
254 30 249 294 357
255 30 297 294 357
256 15 123 294 249
257 29 249 294 297
258 15 123 294 297
259 17 379 430 380
260 15 379 430 428
261 15 379 430 432
262 32 428 430 380
263 29 428 430 432
264 32 432 430 380
265 14 430 380 384
266 27 386 384 380
267 24 386 384 388
268 27 388 384 380
269 17 123 121 241
270 15 123 121 119
271 15 123 121 122
272 32 119 121 241
273 29 119 121 122
274 32 122 121 241
275 3 250 251 131
276 5 250 251 125
277 4 250 251 248
278 4 131 251 248
279 33 248 251 125
280 5 131 251 125
281 17 4 8 9
282 15 4 8 7
283 15 4 8 6
284 32 7 8 9
285 29 7 8 6
286 32 6 8 9
287 14 121 241 238
288 24 384 388 392
289 25 384 388 387
290 25 392 388 387
291 24 390 386 384
292 25 390 386 382
293 25 384 386 382
294 17 251 131 129
295 15 251 131 134
296 15 251 131 133
297 32 134 131 129
298 29 134 131 133
299 32 133 131 129
300 24 371 188 216
301 25 371 188 184
302 25 216 188 184
303 27 255 462 461
304 27 421 462 461
305 24 255 462 421
306 17 140 142 143
307 15 140 142 144
308 15 140 142 141
309 32 144 142 143
310 29 144 142 141
311 32 141 142 143
312 24 462 421 423
313 25 462 421 420
314 25 423 421 420
315 2 282 287 289
316 2 282 287 288
317 2 282 287 489
318 29 289 287 288
319 29 289 287 489
320 29 288 287 489
321 24 462 255 217
322 25 462 255 256
323 25 217 255 256
324 1 510 319 321
325 23 321 319 316
326 23 321 319 465
327 2 510 319 316
328 29 316 319 465
329 2 510 319 465
330 11 257 72 70
331 28 70 72 74
332 12 257 72 74
333 2 63 545 576
334 2 63 545 572
335 2 63 545 546
336 29 576 545 572
337 29 576 545 546
338 29 572 545 546
339 9 63 64 66
340 24 66 64 65
341 9 63 64 65
342 2 319 510 583
343 2 319 510 509
344 2 319 510 511
345 29 583 510 509
346 29 583 510 511
347 29 509 510 511
348 24 326 323 321
349 25 326 323 324
350 25 321 323 324
351 23 322 152 154
352 23 322 152 151
353 23 322 152 150
354 29 154 152 151
355 29 154 152 150
356 29 151 152 150
357 9 71 68 66
358 9 71 68 70
359 24 66 68 70
360 11 569 327 325
361 28 325 327 156
362 12 569 327 156
363 9 152 322 320
364 24 320 322 325
365 9 152 322 325
366 24 321 320 322
367 26 321 320 317
368 26 322 320 317
369 24 326 325 322
370 26 326 325 327
371 26 322 325 327
372 9 328 326 323
373 9 328 326 325
374 24 323 326 325
375 9 319 321 323
376 24 323 321 320
377 9 319 321 320
378 1 383 328 326
379 2 383 328 385
380 2 383 328 332
381 23 326 328 385
382 29 385 328 332
383 23 326 328 332
384 16 568 569 327
385 30 567 569 327
386 30 451 569 327
387 15 568 569 567
388 29 567 569 451
389 15 568 569 451
390 24 68 66 64
391 25 68 66 100
392 25 64 66 100
393 24 68 70 67
394 26 68 70 72
395 26 67 70 72
396 1 204 71 68
397 2 204 71 75
398 2 204 71 101
399 23 68 71 75
400 29 75 71 101
401 23 68 71 101
402 17 568 571 573
403 15 568 571 570
404 15 568 571 566
405 32 570 571 573
406 29 570 571 566
407 32 566 571 573
408 2 71 204 203
409 29 203 204 202
410 29 203 204 205
411 2 71 204 202
412 29 202 204 205
413 2 71 204 205
414 3 569 568 571
415 5 569 568 564
416 4 569 568 565
417 4 571 568 565
418 33 565 568 564
419 5 571 568 564
420 9 69 67 65
421 24 65 67 70
422 9 69 67 70
423 18 43 39 449
424 27 22 26 534
425 27 32 26 534
426 24 22 26 32
427 14 142 143 146
428 14 571 573 575
429 27 453 575 573
430 24 453 575 577
431 27 577 575 573
432 18 568 564 329
433 24 26 32 33
434 25 26 32 535
435 25 33 32 535
436 24 456 453 575
437 25 456 453 452
438 25 575 453 452
439 24 255 217 424
440 25 255 217 220
441 25 424 217 220
442 1 545 63 64
443 23 64 63 98
444 23 64 63 539
445 2 545 63 98
446 29 98 63 539
447 2 545 63 539
448 27 148 146 143
449 24 148 146 149
450 27 149 146 143
451 24 580 456 453
452 25 580 456 457
453 25 453 456 457
454 24 26 22 23
455 25 26 22 20
456 25 23 22 20
457 16 4 3 95
458 30 99 3 95
459 30 2 3 95
460 15 4 3 99
461 29 99 3 2
462 15 4 3 2
463 24 218 425 374
464 25 218 425 426
465 25 374 425 426
466 18 247 243 175
467 11 372 155 109
468 11 250 155 109
469 10 372 155 250
470 1 85 89 111
471 2 85 89 225
472 2 85 89 62
473 23 111 89 225
474 29 225 89 62
475 23 111 89 62
476 9 92 112 109
477 24 109 112 91
478 9 92 112 91
479 9 31 30 23
480 24 23 30 33
481 9 31 30 33
482 24 111 268 267
483 25 111 268 266
484 25 267 268 266
485 1 263 262 267
486 23 267 262 261
487 23 267 262 260
488 2 263 262 261
489 29 261 262 260
490 2 263 262 260
491 24 30 33 32
492 25 30 33 36
493 25 32 33 36
494 2 262 263 264
495 2 262 263 259
496 2 262 263 265
497 29 264 263 259
498 29 264 263 265
499 29 259 263 265
500 24 22 23 30
501 25 22 23 21
502 25 30 23 21
503 2 89 85 110
504 29 110 85 83
505 29 110 85 87
506 2 89 85 83
507 29 83 85 87
508 2 89 85 87
509 24 218 216 188
510 25 218 216 215
511 25 188 216 215
512 24 29 24 148
513 25 29 24 28
514 25 148 24 28
515 17 368 367 369
516 15 368 367 365
517 15 368 367 364
518 32 365 367 369
519 29 365 367 364
520 32 364 367 369
521 24 425 374 371
522 25 425 374 376
523 25 371 374 376
524 9 262 267 268
525 24 268 267 109
526 9 262 267 109
527 9 89 111 268
528 9 89 111 91
529 24 268 111 91
530 3 3 4 8
531 5 3 4 1
532 4 3 4 5
533 4 8 4 5
534 33 5 4 1
535 5 8 4 1
536 9 31 29 24
537 9 31 29 25
538 24 24 29 25
539 22 424 219 218
540 23 424 219 221
541 23 424 219 427
542 23 218 219 221
543 29 221 219 427
544 23 218 219 427
545 24 24 148 146
546 25 24 148 145
547 25 146 148 145
548 18 368 370 37
549 11 3 95 91
550 11 105 95 91
551 10 3 95 105
552 16 251 250 155
553 30 102 250 155
554 30 103 250 155
555 15 251 250 102
556 29 102 250 103
557 15 251 250 103
558 27 374 371 369
559 24 374 371 188
560 27 188 371 369
561 3 372 368 367
562 5 372 368 370
563 4 372 368 366
564 4 367 368 366
565 33 366 368 370
566 5 367 368 370
567 14 367 369 371
568 9 219 424 217
569 24 217 424 423
570 9 219 424 423
571 16 368 372 155
572 30 375 372 155
573 30 373 372 155
574 15 368 372 375
575 29 375 372 373
576 15 368 372 373
577 24 267 109 112
578 26 112 109 155
579 26 267 109 155
580 23 112 92 93
581 23 112 92 94
582 23 112 92 38
583 29 93 92 94
584 29 93 92 38
585 29 94 92 38
586 22 30 31 29
587 23 30 31 35
588 23 30 31 34
589 23 29 31 35
590 29 35 31 34
591 23 29 31 34
592 18 4 1 97
593 24 424 423 421
594 25 424 423 422
595 25 421 423 422
596 9 219 218 425
597 9 219 218 216
598 24 425 218 216
599 24 111 91 112
600 26 111 91 95
601 26 112 91 95
602 27 234 238 241
603 27 239 238 241
604 24 234 238 239
605 3 523 521 520
606 5 523 521 519
607 4 523 521 525
608 4 520 521 525
609 33 525 521 519
610 5 520 521 519
611 9 187 186 190
612 24 190 186 182
613 9 187 186 182
614 17 312 310 306
615 15 312 310 309
616 15 312 310 377
617 32 309 310 306
618 29 309 310 377
619 32 377 310 306
620 14 310 306 304
621 27 301 304 306
622 27 305 304 306
623 24 301 304 305
624 24 186 182 181
625 25 186 182 178
626 25 181 182 178
627 24 58 181 182
628 25 58 181 51
629 25 182 181 51
630 18 521 519 286
631 24 304 301 298
632 25 304 301 300
633 25 298 301 300
634 27 470 469 467
635 27 331 469 467
636 24 470 469 331
637 22 186 187 185
638 23 186 187 189
639 23 186 187 183
640 23 185 187 189
641 29 189 187 183
642 23 185 187 183
643 24 304 305 302
644 25 304 305 307
645 25 302 305 307
646 24 469 331 333
647 25 469 331 330
648 25 333 331 330
649 24 516 333 331
650 25 516 333 272
651 25 331 333 272
652 24 301 298 299
653 25 301 298 296
654 25 299 298 296
655 14 473 467 469
656 3 311 312 310
657 5 311 312 313
658 4 311 312 315
659 4 310 312 315
660 33 315 312 313
661 5 310 312 313
662 24 60 190 186
663 25 60 190 192
664 25 186 190 192
665 24 469 470 585
666 25 469 470 468
667 25 585 470 468
668 9 515 475 477
669 9 515 475 478
670 24 477 475 478
671 17 521 520 358
672 15 521 520 518
673 15 521 520 524
674 32 518 520 358
675 29 518 520 524
676 32 524 520 358
677 17 472 473 467
678 15 472 473 471
679 15 472 473 443
680 32 471 473 467
681 29 471 473 443
682 32 443 473 467
683 3 269 472 473
684 5 269 472 466
685 4 269 472 474
686 4 473 472 474
687 33 474 472 466
688 5 473 472 466
689 9 515 516 585
690 24 585 516 333
691 9 515 516 333
692 16 521 523 285
693 30 526 523 285
694 30 522 523 285
695 15 521 523 526
696 29 526 523 522
697 15 521 523 522
698 18 312 313 171
699 24 174 176 124
700 25 174 176 120
701 25 124 176 120
702 24 177 124 176
703 25 177 124 127
704 25 176 124 127
705 24 475 477 479
706 25 475 477 562
707 25 479 477 562
708 9 229 231 201
709 9 229 231 445
710 24 201 231 445
711 27 60 58 59
712 27 181 58 59
713 24 60 58 181
714 23 67 69 46
715 23 67 69 44
716 23 67 69 48
717 29 46 69 44
718 29 46 69 48
719 29 44 69 48
720 9 337 342 343
721 24 343 342 348
722 9 337 342 348
723 22 417 581 580
724 23 417 581 460
725 23 417 581 549
726 23 580 581 460
727 29 460 581 549
728 23 580 581 549
729 24 299 302 305
730 25 299 302 303
731 25 305 302 303
732 14 520 358 353
733 22 233 229 231
734 23 233 229 228
735 23 233 229 226
736 23 231 229 228
737 29 228 229 226
738 23 231 229 226
739 18 472 466 114
740 9 295 299 298
741 24 298 299 302
742 9 295 299 302
743 13 210 213 211
744 9 187 185 136
745 9 187 185 180
746 24 136 185 180
747 24 477 479 482
748 25 477 479 563
749 25 482 479 563
750 24 185 136 135
751 25 185 136 191
752 25 135 136 191
753 31 207 210 213
754 19 211 210 207
755 29 207 210 212
756 31 212 210 213
757 19 211 210 212
758 20 211 210 213
759 24 234 232 233
760 25 234 232 230
761 25 233 232 230
762 9 229 233 232
763 24 232 233 235
764 9 229 233 235
765 22 299 295 499
766 23 299 295 293
767 23 299 295 458
768 23 499 295 293
769 29 293 295 458
770 23 499 295 458
771 24 415 418 417
772 25 415 418 419
773 25 417 418 419
774 24 414 415 418
775 25 414 415 416
776 25 418 415 416
777 24 185 180 128
778 25 185 180 179
779 25 128 180 179
780 27 135 130 129
781 24 135 130 128
782 27 128 130 129
783 6 210 211 208
784 8 210 211 213
785 7 210 211 214
786 7 208 211 214
787 34 214 211 213
788 8 208 211 213
789 21 211 208 413
790 19 211 208 206
791 19 211 208 209
792 32 206 208 413
793 29 206 208 209
794 32 209 208 413
795 27 415 414 413
796 27 412 414 413
797 24 415 414 412
798 14 208 413 414
799 24 414 412 455
800 25 414 412 411
801 25 455 412 411
802 6 487 490 492
803 8 487 490 486
804 7 487 490 488
805 7 492 490 488
806 34 488 490 486
807 8 492 490 486
808 27 479 482 484
809 24 479 482 480
810 27 480 482 484
811 24 417 455 412
812 25 417 455 454
813 25 412 455 454
814 14 487 484 482
815 21 490 487 484
816 32 485 487 484
817 32 491 487 484
818 19 490 487 485
819 29 485 487 491
820 19 490 487 491
821 13 492 486 490
822 24 499 497 498
823 25 499 497 495
824 25 498 497 495
825 24 500 498 497
826 25 500 498 496
827 25 497 498 496
828 9 581 417 418
829 24 418 417 455
830 9 581 417 455
831 9 295 499 502
832 9 295 499 497
833 24 502 499 497
834 20 490 492 486
835 19 490 492 493
836 19 490 492 494
837 31 493 492 486
838 29 493 492 494
839 31 494 492 486
840 24 238 239 235
841 25 238 239 240
842 25 235 239 240
843 24 130 128 180
844 25 130 128 126
845 25 180 128 126
846 14 131 129 130
847 24 482 480 478
848 25 482 480 481
849 25 478 480 481
850 24 233 235 239
851 25 233 235 236
852 25 239 235 236
853 24 334 392 388
854 25 334 392 335
855 25 388 392 335
856 27 350 353 358
857 27 352 353 358
858 24 350 353 352
859 22 436 434 555
860 23 436 434 431
861 23 436 434 429
862 23 555 434 431
863 29 431 434 429
864 23 555 434 429
865 24 136 135 130
866 25 136 135 137
867 25 130 135 137
868 24 231 201 404
869 25 231 201 237
870 25 404 201 237
871 24 436 439 393
872 25 436 439 441
873 25 393 439 441
874 24 470 585 516
875 25 470 585 584
876 25 516 585 584
877 24 64 65 67
878 26 64 65 542
879 26 67 65 542
880 22 516 515 475
881 23 516 515 513
882 23 516 515 514
883 23 475 515 513
884 29 513 515 514
885 23 475 515 514
886 24 58 60 190
887 25 58 60 61
888 25 190 60 61
889 24 201 404 400
890 25 201 404 409
891 25 400 404 409
892 24 231 445 397
893 25 231 445 444
894 25 397 445 444
895 17 79 55 59
896 15 79 55 52
897 15 79 55 54
898 32 52 55 59
899 29 52 55 54
900 32 54 55 59
901 14 55 59 58
902 16 405 544 542
903 30 541 544 542
904 30 548 544 542
905 15 405 544 541
906 29 541 544 548
907 15 405 544 548
908 11 78 542 65
909 11 544 542 65
910 10 78 542 544
911 18 197 199 464
912 27 404 400 402
913 24 404 400 397
914 27 397 400 402
915 14 406 402 400
916 24 400 397 445
917 25 400 397 396
918 25 445 397 396
919 18 86 559 318
920 3 84 86 561
921 5 84 86 559
922 4 84 86 88
923 4 561 86 88
924 33 88 86 559
925 5 561 86 559
926 3 544 405 406
927 5 544 405 543
928 4 544 405 538
929 4 406 405 538
930 33 538 405 543
931 5 406 405 543
932 17 405 406 402
933 15 405 406 410
934 15 405 406 408
935 32 410 406 402
936 29 410 406 408
937 32 408 406 402
938 3 78 79 55
939 5 78 79 77
940 4 78 79 81
941 4 55 79 81
942 33 81 79 77
943 5 55 79 77
944 18 79 77 540
945 16 79 78 542
946 30 80 78 542
947 30 76 78 542
948 15 79 78 80
949 29 80 78 76
950 15 79 78 76
951 3 196 197 195
952 5 196 197 199
953 4 196 197 200
954 4 195 197 200
955 33 200 197 199
956 5 195 197 199
957 17 197 195 394
958 15 197 195 163
959 15 197 195 398
960 32 163 195 394
961 29 163 195 398
962 32 398 195 394
963 16 197 196 317
964 30 194 196 317
965 30 198 196 317
966 15 197 196 194
967 29 194 196 198
968 15 197 196 198
969 14 195 394 442
970 18 405 543 547
971 17 86 561 558
972 15 86 561 90
973 15 86 561 537
974 32 90 561 558
975 29 90 561 537
976 32 537 561 558
977 14 561 558 556
978 24 146 149 25
979 25 146 149 147
980 25 25 149 147
981 16 86 84 317
982 30 552 84 317
983 30 82 84 317
984 15 86 84 552
985 29 552 84 82
986 15 86 84 82
987 11 84 317 320
988 11 196 317 320
989 10 84 317 196
990 24 475 478 480
991 25 475 478 476
992 25 480 478 476
993 24 353 352 348
994 25 353 352 290
995 25 348 352 290
996 24 575 577 578
997 25 575 577 574
998 25 578 577 574
999 17 108 504 501
1000 15 108 504 506
1001 15 108 504 582
1002 32 506 504 501
1003 29 506 504 582
1004 32 582 504 501
1005 24 580 578 577
1006 25 580 578 579
1007 25 577 578 579
1008 24 334 390 386
1009 25 334 390 391
1010 25 386 390 391
1011 24 499 502 503
1012 25 499 502 463
1013 25 503 502 463
1014 9 434 555 553
1015 9 434 555 557
1016 24 553 555 557
1017 24 342 348 352
1018 25 342 348 284
1019 25 352 348 284
1020 24 353 350 343
1021 25 353 350 517
1022 25 343 350 517
1023 24 555 553 554
1024 25 555 553 550
1025 25 554 553 550
1026 9 581 580 456
1027 9 581 580 578
1028 24 456 580 578
1029 27 438 442 394
1030 27 393 442 394
1031 24 438 442 393
1032 27 503 500 501
1033 24 503 500 498
1034 27 498 500 501
1035 24 442 438 435
1036 25 442 438 437
1037 25 435 438 437
1038 24 29 25 149
1039 25 29 25 27
1040 25 149 25 27
1041 24 556 560 557
1042 25 556 560 536
1043 25 557 560 536
1044 3 105 108 504
1045 5 105 108 107
1046 4 105 108 19
1047 4 504 108 19
1048 33 19 108 107
1049 5 504 108 107
1050 24 438 435 436
1051 25 438 435 433
1052 25 436 435 433
1053 24 350 343 342
1054 25 350 343 339
1055 25 342 343 339
1056 9 337 334 390
1057 9 337 334 392
1058 24 390 334 392
1059 14 504 501 500
1060 18 108 107 96
1061 24 502 503 500
1062 25 502 503 505
1063 25 500 503 505
1064 27 554 556 558
1065 24 554 556 560
1066 27 560 556 558
1067 16 108 105 95
1068 30 106 105 95
1069 30 104 105 95
1070 15 108 105 106
1071 29 106 105 104
1072 15 108 105 104
1073 9 434 436 435
1074 24 435 436 439
1075 9 434 436 439
1076 24 442 393 439
1077 25 442 393 395
1078 25 439 393 395
1079 22 342 337 334
1080 23 342 337 338
1081 23 342 337 336
1082 23 334 337 338
1083 29 338 337 336
1084 23 334 337 336
1085 24 555 557 560
1086 25 555 557 440
1087 25 560 557 440
1088 24 553 554 556
1089 25 553 554 551
1090 25 556 554 551

Dihedrals

1 26 347 351 356 354
2 26 347 344 349 354
3 26 349 344 347 351
4 10 165 347 344 349
5 11 165 347 344 341
6 10 165 347 351 356
7 25 344 347 165 164
8 25 351 347 165 164
9 25 344 347 165 166
10 25 351 347 165 166
11 26 344 347 351 356
12 27 351 347 344 341
13 28 344 347 351 173
14 12 165 347 351 173
15 1 162 165 347 344
16 1 162 165 347 351
17 23 347 165 162 160
18 23 347 165 162 161
19 23 347 165 162 159
20 33 160 162 165 164
21 33 160 162 165 166
22 33 161 162 165 164
23 33 161 162 165 166
24 33 159 162 165 164
25 33 159 162 165 166
26 15 244 173 351 347
27 15 311 173 351 347
28 15 244 173 351 356
29 15 311 173 351 356
30 31 351 173 244 242
31 31 351 173 244 245
32 31 351 173 311 314
33 31 351 173 311 308
34 13 244 173 311 312
35 14 244 173 311 314
36 14 244 173 311 308
37 14 311 173 244 242
38 14 311 173 244 245
39 13 311 173 244 247
40 18 247 244 173 351
41 46 173 244 247 243
42 35 242 244 247 243
43 34 242 244 247 246
44 35 245 244 247 243
45 34 245 244 247 246
46 10 447 281 278 276
47 10 447 281 283 280
48 25 283 281 447 446
49 25 283 281 447 450
50 25 283 281 447 448
51 25 278 281 447 446
52 25 278 281 447 450
53 25 278 281 447 448
54 12 447 281 278 116
55 28 283 281 278 116
56 12 447 281 283 285
57 28 278 281 283 285
58 4 528 531 532 534
59 2 528 531 532 530
60 2 528 531 532 508
61 40 533 531 532 534
62 3 532 531 528 116
63 39 533 531 528 116
64 5 532 531 527 227
65 41 533 531 527 227
66 2 532 531 528 529
67 5 528 531 527 227
68 2 532 531 528 507
69 10 361 356 351 347
70 10 361 356 354 349
71 25 354 356 361 363
72 25 354 356 361 360
73 25 354 356 361 362
74 25 351 356 361 363
75 25 351 356 361 360
76 25 351 356 361 362
77 12 361 356 351 173
78 28 354 356 351 173
79 12 361 356 354 357
80 28 351 356 354 357
81 29 49 47 174 169
82 26 49 47 174 176
83 27 174 47 49 50
84 45 45 47 174 169
85 4 244 247 252 461
86 2 244 247 252 459
87 2 244 247 252 253
88 40 246 247 252 461
89 3 252 247 244 173
90 39 246 247 244 173
91 5 252 247 243 175
92 41 246 247 243 175
93 2 252 247 244 245
94 5 244 247 243 175
95 2 252 247 244 242
96 20 247 252 461 462
97 34 459 252 247 246
98 34 253 252 247 246
99 48 461 252 247 243
100 35 459 252 247 243
101 35 253 252 247 243
102 20 531 532 534 26
103 34 530 532 531 533
104 34 508 532 531 533
105 48 534 532 531 527
106 35 530 532 531 527
107 35 508 532 531 527
108 26 280 283 281 278
109 3 142 140 257 72
110 39 138 140 257 72
111 4 257 140 142 143
112 2 257 140 142 144
113 2 257 140 142 141
114 5 257 140 139 73
115 2 142 140 257 254
116 2 142 140 257 258
117 40 138 140 142 143
118 41 138 140 139 73
119 5 142 140 139 73
120 10 56 177 49 47
121 11 56 177 49 50
122 10 56 177 124 176
123 11 56 177 124 127
124 25 49 177 56 132
125 25 124 177 56 132
126 25 49 177 56 57
127 25 124 177 56 57
128 26 49 177 124 176
129 27 49 177 124 127
130 27 124 177 49 50
131 26 177 49 47 174
132 27 177 49 47 45
133 44 50 49 47 45
134 26 47 49 177 124
135 26 276 278 281 283
136 15 528 116 278 276
137 15 269 116 278 276
138 15 528 116 278 281
139 15 269 116 278 281
140 31 278 116 528 507
141 31 278 116 528 529
142 31 278 116 269 270
143 31 278 116 269 271
144 13 528 116 269 472
145 14 528 116 269 270
146 14 528 116 269 271
147 14 269 116 528 507
148 14 269 116 528 529
149 13 269 116 528 531
150 18 531 528 116 278
151 46 116 528 531 527
152 35 507 528 531 527
153 34 507 528 531 533
154 35 529 528 531 527
155 34 529 528 531 533
156 26 47 174 176 124
157 27 47 174 176 120
158 27 176 174 47 45
159 18 43 41 285 283
160 46 285 41 43 39
161 35 42 41 43 39
162 34 42 41 43 170
163 35 40 41 43 39
164 34 40 41 43 170
165 17 252 461 462 255
166 17 252 461 462 421
167 32 462 461 252 253
168 32 462 461 252 459
169 20 43 168 169 174
170 34 172 168 43 170
171 34 167 168 43 170
172 48 169 168 43 39
173 35 172 168 43 39
174 35 167 168 43 39
175 15 41 285 283 280
176 15 523 285 283 280
177 15 41 285 283 281
178 15 523 285 283 281
179 31 283 285 41 42
180 31 283 285 41 40
181 31 283 285 523 526
182 31 283 285 523 522
183 13 41 285 523 521
184 14 41 285 523 526
185 14 41 285 523 522
186 14 523 285 41 42
187 14 523 285 41 40
188 13 523 285 41 43
189 10 345 349 344 347
190 25 344 349 345 346
191 25 344 349 345 340
192 26 344 349 354 356
193 11 345 349 344 341
194 27 354 349 344 341
195 25 354 349 345 346
196 25 354 349 345 340
197 10 345 349 354 356
198 28 344 349 354 357
199 12 345 349 354 357
200 24 177 56 15 17
201 24 15 56 177 49
202 24 15 56 177 124
203 24 177 56 15 13
204 4 41 43 168 169
205 2 41 43 168 172
206 2 41 43 168 167
207 40 170 43 168 169
208 3 168 43 41 285
209 39 170 43 41 285
210 5 168 43 39 449
211 41 170 43 39 449
212 2 168 43 41 40
213 5 41 43 39 449
214 2 168 43 41 42
215 33 512 383 328 385
216 33 512 383 328 332
217 33 381 383 328 385
218 33 381 383 328 332
219 33 389 383 328 385
220 33 389 383 328 332
221 18 140 257 72 70
222 46 72 257 140 139
223 19 140 257 72 74
224 38 254 257 72 74
225 38 258 257 72 74
226 35 254 257 140 139
227 34 254 257 140 138
228 35 258 257 140 139
229 34 258 257 140 138
230 29 232 234 238 241
231 45 118 234 238 241
232 26 238 234 232 233
233 27 238 234 232 230
234 44 118 234 232 230
235 26 232 234 238 239
236 18 312 311 173 351
237 46 173 311 312 313
238 35 314 311 312 313
239 34 314 311 312 315
240 35 308 311 312 313
241 34 308 311 312 315
242 10 282 280 277 276
243 25 277 280 282 279
244 25 277 280 282 483
245 26 277 280 283 281
246 11 282 280 277 275
247 27 283 280 277 275
248 25 283 280 282 279
249 25 283 280 282 483
250 10 282 280 283 281
251 28 277 280 283 285
252 12 282 280 283 285
253 1 287 282 280 277
254 23 280 282 287 289
255 23 280 282 287 288
256 23 280 282 287 489
257 1 287 282 280 283
258 33 279 282 287 289
259 33 279 282 287 288
260 33 279 282 287 489
261 33 483 282 287 289
262 33 483 282 287 288
263 33 483 282 287 489
264 17 532 534 26 22
265 17 532 534 26 32
266 32 26 534 532 508
267 32 26 534 532 530
268 17 168 169 174 47
269 17 168 169 174 176
270 32 174 169 168 167
271 32 174 169 168 172
272 18 472 269 116 278
273 46 116 269 472 466
274 35 270 269 472 466
275 34 270 269 472 474
276 35 271 269 472 466
277 34 271 269 472 474
278 26 349 354 356 351
279 26 276 277 280 283
280 26 280 277 276 278
281 10 274 276 277 280
282 11 274 276 277 275
283 10 274 276 278 281
284 25 277 276 274 117
285 25 278 276 274 117
286 25 277 276 274 273
287 25 278 276 274 273
288 26 277 276 278 281
289 27 278 276 277 275
290 28 277 276 278 116
291 12 274 276 278 116
292 1 403 345 349 344
293 23 349 345 403 401
294 23 349 345 403 407
295 23 349 345 403 399
296 1 403 345 349 354
297 33 346 345 403 401
298 33 346 345 403 407
299 33 346 345 403 399
300 33 340 345 403 401
301 33 340 345 403 407
302 33 340 345 403 399
303 15 223 357 354 349
304 15 294 357 354 349
305 15 223 357 354 356
306 15 294 357 354 356
307 31 354 357 223 222
308 31 354 357 223 224
309 31 354 357 294 249
310 31 354 357 294 297
311 13 223 357 294 123
312 14 223 357 294 249
313 14 223 357 294 297
314 14 294 357 223 222
315 14 294 357 223 224
316 13 294 357 223 379
317 18 379 223 357 354
318 46 357 223 379 193
319 35 222 223 379 193
320 34 222 223 379 378
321 35 224 223 379 193
322 34 224 223 379 378
323 10 56 15 17 14
324 25 17 15 56 132
325 25 17 15 56 57
326 26 17 15 13 11
327 27 17 15 13 53
328 11 56 15 17 18
329 27 13 15 17 18
330 25 13 15 56 132
331 25 13 15 56 57
332 11 56 15 13 53
333 10 56 15 13 11
334 26 14 17 15 13
335 27 15 17 14 16
336 33 115 113 274 117
337 33 115 113 274 273
338 33 158 113 274 117
339 33 158 113 274 273
340 33 157 113 274 117
341 33 157 113 274 273
342 1 113 274 276 277
343 1 113 274 276 278
344 23 276 274 113 115
345 23 276 274 113 158
346 23 276 274 113 157
347 4 223 379 430 380
348 2 223 379 430 428
349 2 223 379 430 432
350 40 378 379 430 380
351 3 430 379 223 357
352 39 378 379 223 357
353 5 430 379 193 355
354 41 378 379 193 355
355 2 430 379 223 224
356 5 223 379 193 355
357 2 430 379 223 222
358 26 14 12 11 13
359 27 14 12 11 10
360 27 11 12 14 16
361 29 17 14 12 9
362 45 16 14 12 9
363 26 12 14 17 15
364 27 12 14 17 18
365 44 16 14 17 18
366 26 17 14 12 11
367 27 15 13 11 10
368 44 53 13 11 10
369 17 8 9 12 14
370 17 8 9 12 11
371 32 12 9 8 6
372 32 12 9 8 7
373 29 13 11 12 9
374 45 10 11 12 9
375 26 12 11 13 15
376 27 12 11 13 53
377 3 121 123 294 357
378 39 292 123 294 357
379 4 294 123 121 241
380 2 294 123 121 119
381 2 294 123 121 122
382 5 294 123 291 359
383 2 121 123 294 249
384 2 121 123 294 297
385 40 292 123 121 241
386 41 292 123 291 359
387 5 121 123 291 359
388 18 123 294 357 354
389 46 357 294 123 291
390 35 249 294 123 291
391 34 249 294 123 292
392 35 297 294 123 291
393 34 297 294 123 292
394 20 379 430 380 384
395 34 428 430 379 378
396 34 432 430 379 378
397 48 380 430 379 193
398 35 428 430 379 193
399 35 432 430 379 193
400 17 430 380 384 386
401 17 430 380 384 388
402 32 384 380 430 432
403 32 384 380 430 428
404 26 386 384 388 392
405 27 386 384 388 387
406 27 388 384 386 382
407 20 123 121 241 238
408 34 119 121 123 292
409 34 122 121 123 292
410 48 241 121 123 291
411 35 119 121 123 291
412 35 122 121 123 291
413 3 131 251 250 155
414 39 248 251 250 155
415 4 250 251 131 129
416 2 250 251 131 134
417 2 250 251 131 133
418 5 250 251 125 153
419 2 131 251 250 102
420 2 131 251 250 103
421 40 248 251 131 129
422 41 248 251 125 153
423 5 131 251 125 153
424 20 4 8 9 12
425 34 7 8 4 5
426 34 6 8 4 5
427 48 9 8 4 1
428 35 7 8 4 1
429 35 6 8 4 1
430 17 121 241 238 234
431 17 121 241 238 239
432 32 238 241 121 122
433 32 238 241 121 119
434 27 384 388 392 335
435 45 387 388 384 380
436 44 387 388 392 335
437 29 392 388 384 380
438 29 390 386 384 380
439 26 390 386 384 388
440 27 384 386 390 391
441 45 382 386 384 380
442 20 251 131 129 130
443 34 134 131 251 248
444 34 133 131 251 248
445 48 129 131 251 125
446 35 134 131 251 125
447 35 133 131 251 125
448 27 371 188 216 215
449 45 184 188 371 369
450 44 184 188 216 215
451 29 216 188 371 369
452 26 255 462 421 423
453 27 255 462 421 420
454 27 421 462 255 256
455 20 140 142 143 146
456 34 144 142 140 138
457 34 141 142 140 138
458 48 143 142 140 139
459 35 144 142 140 139
460 35 141 142 140 139
461 29 423 421 462 461
462 45 420 421 462 461
463 26 462 421 423 424
464 27 462 421 423 422
465 29 217 255 462 461
466 45 256 255 462 461
467 26 462 255 217 424
468 27 462 255 217 220
469 44 256 255 217 220
470 26 217 255 462 421
471 1 510 319 321 323
472 23 321 319 510 583
473 23 321 319 510 509
474 23 321 319 510 511
475 1 510 319 321 320
476 33 316 319 510 583
477 33 316 319 510 509
478 33 316 319 510 511
479 33 465 319 510 583
480 33 465 319 510 509
481 33 465 319 510 511
482 15 257 72 70 68
483 31 70 72 257 254
484 31 70 72 257 258
485 15 257 72 70 67
486 10 63 64 66 68
487 25 66 64 63 98
488 25 66 64 63 539
489 26 66 64 65 67
490 11 63 64 66 100
491 27 65 64 66 100
492 25 65 64 63 98
493 25 65 64 63 539
494 10 63 64 65 67
495 28 66 64 65 542
496 12 63 64 65 542
497 26 326 323 321 320
498 26 321 323 326 325
499 10 71 68 66 64
500 11 71 68 66 100
501 10 71 68 70 67
502 25 66 68 71 75
503 25 70 68 71 75
504 25 66 68 71 101
505 25 70 68 71 101
506 26 66 68 70 67
507 27 70 68 66 100
508 12 71 68 70 72
509 28 66 68 70 72
510 15 569 327 325 326
511 31 325 327 569 567
512 31 325 327 569 451
513 15 569 327 325 322
514 10 152 322 325 326
515 10 152 322 320 321
516 25 320 322 152 154
517 25 320 322 152 151
518 25 320 322 152 150
519 25 325 322 152 154
520 25 325 322 152 151
521 25 325 322 152 150
522 12 152 322 325 327
523 28 320 322 325 327
524 12 152 322 320 317
525 28 325 322 320 317
526 26 321 320 322 325
527 26 326 325 322 320
528 30 326 325 327 156
529 30 322 325 327 156
530 10 328 326 323 321
531 11 328 326 323 324
532 10 328 326 325 322
533 25 323 326 328 385
534 25 325 326 328 385
535 25 323 326 328 332
536 25 325 326 328 332
537 26 323 326 325 322
538 27 325 326 323 324
539 12 328 326 325 327
540 28 323 326 325 327
541 10 319 321 323 326
542 25 323 321 319 316
543 25 323 321 319 465
544 26 323 321 320 322
545 11 319 321 323 324
546 27 320 321 323 324
547 25 320 321 319 316
548 25 320 321 319 465
549 10 319 321 320 322
550 28 323 321 320 317
551 12 319 321 320 317
552 1 383 328 326 323
553 1 383 328 326 325
554 23 326 328 383 512
555 23 326 328 383 381
556 23 326 328 383 389
557 18 568 569 327 325
558 46 327 569 568 564
559 19 568 569 327 156
560 38 567 569 327 156
561 38 451 569 327 156
562 35 567 569 568 564
563 34 567 569 568 565
564 35 451 569 568 564
565 34 451 569 568 565
566 26 68 66 64 65
567 26 64 66 68 70
568 26 68 70 67 65
569 30 68 70 72 74
570 30 67 70 72 74
571 1 204 71 68 66
572 1 204 71 68 70
573 23 68 71 204 203
574 23 68 71 204 202
575 23 68 71 204 205
576 20 568 571 573 575
577 34 570 571 568 565
578 34 566 571 568 565
579 48 573 571 568 564
580 35 570 571 568 564
581 35 566 571 568 564
582 33 203 204 71 75
583 33 203 204 71 101
584 33 202 204 71 75
585 33 202 204 71 101
586 33 205 204 71 75
587 33 205 204 71 101
588 3 571 568 569 327
589 39 565 568 569 327
590 4 569 568 571 573
591 2 569 568 571 570
592 2 569 568 571 566
593 5 569 568 564 329
594 2 571 568 569 567
595 2 571 568 569 451
596 40 565 568 571 573
597 41 565 568 564 329
598 5 571 568 564 329
599 10 69 67 70 68
600 10 69 67 65 64
601 25 65 67 69 46
602 25 65 67 69 44
603 25 65 67 69 48
604 25 70 67 69 46
605 25 70 67 69 44
606 25 70 67 69 48
607 12 69 67 70 72
608 28 65 67 70 72
609 12 69 67 65 542
610 28 70 67 65 542
611 26 22 26 32 33
612 27 22 26 32 535
613 27 32 26 22 20
614 17 142 143 146 148
615 17 142 143 146 149
616 32 146 143 142 141
617 32 146 143 142 144
618 17 571 573 575 453
619 17 571 573 575 577
620 32 575 573 571 566
621 32 575 573 571 570
622 26 453 575 577 578
623 27 453 575 577 574
624 27 577 575 453 452
625 29 33 32 26 534
626 45 535 32 26 534
627 26 26 32 33 30
628 27 26 32 33 36
629 29 456 453 575 573
630 26 456 453 575 577
631 27 575 453 456 457
632 45 452 453 575 573
633 26 255 217 424 423
634 27 424 217 255 256
635 1 545 63 64 66
636 23 64 63 545 576
637 23 64 63 545 572
638 23 64 63 545 546
639 1 545 63 64 65
640 33 98 63 545 576
641 33 98 63 545 572
642 33 98 63 545 546
643 33 539 63 545 576
644 33 539 63 545 572
645 33 539 63 545 546
646 26 148 146 149 25
647 27 148 146 149 147
648 27 149 146 148 145
649 26 580 456 453 575
650 27 580 456 453 452
651 44 457 456 453 452
652 26 453 456 580 578
653 29 23 22 26 534
654 45 20 22 26 534
655 26 26 22 23 30
656 27 26 22 23 21
657 44 20 22 23 21
658 26 23 22 26 32
659 18 4 3 95 91
660 46 95 3 4 1
661 35 99 3 4 1
662 34 99 3 4 5
663 35 2 3 4 1
664 34 2 3 4 5
665 26 218 425 374 371
666 27 218 425 374 376
667 44 426 425 374 376
668 26 374 425 218 216
669 15 372 155 109 112
670 15 250 155 109 112
671 15 372 155 109 267
672 15 250 155 109 267
673 31 109 155 372 375
674 31 109 155 372 373
675 31 109 155 250 102
676 31 109 155 250 103
677 13 372 155 250 251
678 14 372 155 250 102
679 14 372 155 250 103
680 14 250 155 372 375
681 14 250 155 372 373
682 13 250 155 372 368
683 1 85 89 111 268
684 1 85 89 111 91
685 23 111 89 85 110
686 23 111 89 85 83
687 23 111 89 85 87
688 10 92 112 91 111
689 10 92 112 109 267
690 25 109 112 92 93
691 25 109 112 92 94
692 25 109 112 92 38
693 25 91 112 92 93
694 25 91 112 92 94
695 25 91 112 92 38
696 12 92 112 91 95
697 28 109 112 91 95
698 28 91 112 109 155
699 12 92 112 109 155
700 10 31 30 23 22
701 25 23 30 31 35
702 25 23 30 31 34
703 26 23 30 33 32
704 27 23 30 33 36
705 11 31 30 23 21
706 27 33 30 23 21
707 25 33 30 31 35
708 25 33 30 31 34
709 11 31 30 33 36
710 10 31 30 33 32
711 26 111 268 267 109
712 26 267 268 111 91
713 1 263 262 267 268
714 23 267 262 263 264
715 23 267 262 263 259
716 23 267 262 263 265
717 1 263 262 267 109
718 33 261 262 263 264
719 33 261 262 263 259
720 33 261 262 263 265
721 33 260 262 263 264
722 33 260 262 263 259
723 33 260 262 263 265
724 27 30 33 32 535
725 44 36 33 32 535
726 26 22 23 30 33
727 27 30 23 22 20
728 33 110 85 89 225
729 33 110 85 89 62
730 33 83 85 89 225
731 33 83 85 89 62
732 33 87 85 89 225
733 33 87 85 89 62
734 26 218 216 188 371
735 27 218 216 188 184
736 26 29 24 148 146
737 27 29 24 148 145
738 44 28 24 148 145
739 26 148 24 29 25
740 20 368 367 369 371
741 34 365 367 368 366
742 34 364 367 368 366
743 48 369 367 368 370
744 35 365 367 368 370
745 35 364 367 368 370
746 29 425 374 371 369
747 26 425 374 371 188
748 27 371 374 425 426
749 45 376 374 371 369
750 10 262 267 268 111
751 25 268 267 262 261
752 25 268 267 262 260
753 26 268 267 109 112
754 11 262 267 268 266
755 27 109 267 268 266
756 25 109 267 262 261
757 25 109 267 262 260
758 10 262 267 109 112
759 12 262 267 109 155
760 28 268 267 109 155
761 10 89 111 268 267
762 11 89 111 268 266
763 10 89 111 91 112
764 25 268 111 89 225
765 25 91 111 89 225
766 25 268 111 89 62
767 25 91 111 89 62
768 26 268 111 91 112
769 27 91 111 268 266
770 28 268 111 91 95
771 12 89 111 91 95
772 4 3 4 8 9
773 2 3 4 8 7
774 2 3 4 8 6
775 40 5 4 8 9
776 3 8 4 3 95
777 39 5 4 3 95
778 5 8 4 1 97
779 41 5 4 1 97
780 2 8 4 3 2
781 5 3 4 1 97
782 2 8 4 3 99
783 10 31 29 24 148
784 11 31 29 24 28
785 10 31 29 25 149
786 11 31 29 25 27
787 25 24 29 31 35
788 25 25 29 31 35
789 25 24 29 31 34
790 25 25 29 31 34
791 26 24 29 25 149
792 27 24 29 25 27
793 27 25 29 24 28
794 24 218 219 424 217
795 24 424 219 218 425
796 24 424 219 218 216
797 24 218 219 424 423
798 29 24 148 146 143
799 26 24 148 146 149
800 27 146 148 24 28
801 45 145 148 146 143
802 15 3 95 91 111
803 15 105 95 91 111
804 15 3 95 91 112
805 15 105 95 91 112
806 31 91 95 3 99
807 31 91 95 3 2
808 31 91 95 105 106
809 31 91 95 105 104
810 13 3 95 105 108
811 14 3 95 105 106
812 14 3 95 105 104
813 14 105 95 3 99
814 14 105 95 3 2
815 13 105 95 3 4
816 18 251 250 155 109
817 46 155 250 251 125
818 35 102 250 251 125
819 34 102 250 251 248
820 35 103 250 251 125
821 34 103 250 251 248
822 26 374 371 188 216
823 27 374 371 188 184
824 27 188 371 374 376
825 4 372 368 367 369
826 2 372 368 367 365
827 2 372 368 367 364
828 40 366 368 367 369
829 3 367 368 372 155
830 39 366 368 372 155
831 5 367 368 370 37
832 41 366 368 370 37
833 2 367 368 372 373
834 5 372 368 370 37
835 2 367 368 372 375
836 17 367 369 371 374
837 17 367 369 371 188
838 32 371 369 367 364
839 32 371 369 367 365
840 10 219 424 217 255
841 25 217 424 219 221
842 25 217 424 219 427
843 26 217 424 423 421
844 27 217 424 423 422
845 11 219 424 217 220
846 27 423 424 217 220
847 25 423 424 219 221
848 25 423 424 219 427
849 11 219 424 423 422
850 10 219 424 423 421
851 18 368 372 155 109
852 46 155 372 368 370
853 35 375 372 368 370
854 34 375 372 368 366
855 35 373 372 368 370
856 34 373 372 368 366
857 26 267 109 112 91
858 24 29 31 30 23
859 24 30 31 29 24
860 24 30 31 29 25
861 24 29 31 30 33
862 27 424 423 421 420
863 44 422 423 421 420
864 10 219 218 425 374
865 11 219 218 425 426
866 10 219 218 216 188
867 11 219 218 216 215
868 25 425 218 219 221
869 25 216 218 219 221
870 25 425 218 219 427
871 25 216 218 219 427
872 26 425 218 216 188
873 27 425 218 216 215
874 27 216 218 425 426
875 26 111 91 112 109
876 26 234 238 239 235
877 27 234 238 239 240
878 27 239 238 234 118
879 3 520 521 523 285
880 39 525 521 523 285
881 4 523 521 520 358
882 2 523 521 520 518
883 2 523 521 520 524
884 5 523 521 519 286
885 2 520 521 523 526
886 2 520 521 523 522
887 40 525 521 520 358
888 41 525 521 519 286
889 5 520 521 519 286
890 10 187 186 190 60
891 25 190 186 187 189
892 25 190 186 187 183
893 26 190 186 182 181
894 27 190 186 182 178
895 11 187 186 190 192
896 27 182 186 190 192
897 25 182 186 187 189
898 25 182 186 187 183
899 11 187 186 182 178
900 10 187 186 182 181
901 20 312 310 306 304
902 34 309 310 312 315
903 34 377 310 312 315
904 48 306 310 312 313
905 35 309 310 312 313
906 35 377 310 312 313
907 17 310 306 304 301
908 17 310 306 304 305
909 32 304 306 310 377
910 32 304 306 310 309
911 26 301 304 305 302
912 27 301 304 305 307
913 27 305 304 301 300
914 27 186 182 181 51
915 44 178 182 181 51
916 29 182 181 58 59
917 45 51 181 58 59
918 26 58 181 182 186
919 27 58 181 182 178
920 29 298 301 304 306
921 45 300 301 304 306
922 26 304 301 298 299
923 27 304 301 298 296
924 44 300 301 298 296
925 26 298 301 304 305
926 26 470 469 331 333
927 27 470 469 331 330
928 27 331 469 470 468
929 24 185 187 186 190
930 24 186 187 185 136
931 24 186 187 185 180
932 24 185 187 186 182
933 29 302 305 304 306
934 45 307 305 304 306
935 26 304 305 302 299
936 27 304 305 302 303
937 29 333 331 469 467
938 45 330 331 469 467
939 26 469 331 333 516
940 27 469 331 333 272
941 27 516 333 331 330
942 44 272 333 331 330
943 26 301 298 299 302
944 27 299 298 301 300
945 17 473 467 469 470
946 17 473 467 469 331
947 32 469 467 473 443
948 32 469 467 473 471
949 3 310 312 311 173
950 39 315 312 311 173
951 4 311 312 310 306
952 2 311 312 310 309
953 2 311 312 310 377
954 5 311 312 313 171
955 2 310 312 311 314
956 2 310 312 311 308
957 40 315 312 310 306
958 41 315 312 313 171
959 5 310 312 313 171
960 26 60 190 186 182
961 27 186 190 60 61
962 29 585 470 469 467
963 45 468 470 469 467
964 26 469 470 585 516
965 27 469 470 585 584
966 44 468 470 585 584
967 26 585 470 469 331
968 10 515 475 477 479
969 11 515 475 477 562
970 10 515 475 478 480
971 11 515 475 478 476
972 25 477 475 515 513
973 25 478 475 515 513
974 25 477 475 515 514
975 25 478 475 515 514
976 26 477 475 478 480
977 27 477 475 478 476
978 27 478 475 477 562
979 20 521 520 358 353
980 34 518 520 521 525
981 34 524 520 521 525
982 48 358 520 521 519
983 35 518 520 521 519
984 35 524 520 521 519
985 20 472 473 467 469
986 34 471 473 472 474
987 34 443 473 472 474
988 48 467 473 472 466
989 35 471 473 472 466
990 35 443 473 472 466
991 3 473 472 269 116
992 39 474 472 269 116
993 4 269 472 473 467
994 2 269 472 473 471
995 2 269 472 473 443
996 5 269 472 466 114
997 2 473 472 269 270
998 2 473 472 269 271
999 40 474 472 473 467
1000 41 474 472 466 114
1001 5 473 472 466 114
1002 10 515 516 585 470
1003 25 585 516 515 513
1004 25 585 516 515 514
1005 26 585 516 333 331
1006 27 585 516 333 272
1007 11 515 516 585 584
1008 27 333 516 585 584
1009 25 333 516 515 513
1010 25 333 516 515 514
1011 11 515 516 333 272
1012 10 515 516 333 331
1013 18 521 523 285 283
1014 46 285 523 521 519
1015 35 526 523 521 519
1016 34 526 523 521 525
1017 35 522 523 521 519
1018 34 522 523 521 525
1019 27 174 176 124 127
1020 45 120 176 174 169
1021 44 120 176 124 127
1022 29 124 176 174 169
1023 26 177 124 176 174
1024 27 177 124 176 120
1025 26 475 477 479 482
1026 27 475 477 479 563
1027 44 562 477 479 563
1028 26 479 477 475 478
1029 10 229 231 201 404
1030 11 229 231 201 237
1031 10 229 231 445 397
1032 11 229 231 445 444
1033 25 201 231 229 228
1034 25 445 231 229 228
1035 25 201 231 229 226
1036 25 445 231 229 226
1037 26 201 231 445 397
1038 27 201 231 445 444
1039 27 445 231 201 237
1040 26 60 58 181 182
1041 27 60 58 181 51
1042 27 181 58 60 61
1043 10 337 342 343 350
1044 25 343 342 337 338
1045 25 343 342 337 336
1046 26 343 342 348 352
1047 27 343 342 348 284
1048 11 337 342 343 339
1049 27 348 342 343 339
1050 25 348 342 337 338
1051 25 348 342 337 336
1052 11 337 342 348 284
1053 10 337 342 348 352
1054 24 580 581 417 418
1055 24 417 581 580 456
1056 24 417 581 580 578
1057 24 580 581 417 455
1058 27 299 302 305 307
1059 44 303 302 305 307
1060 17 520 358 353 350
1061 17 520 358 353 352
1062 32 353 358 520 524
1063 32 353 358 520 518
1064 24 231 229 233 232
1065 24 233 229 231 201
1066 24 233 229 231 445
1067 24 231 229 233 235
1068 10 295 299 298 301
1069 25 298 299 295 293
1070 25 298 299 295 458
1071 26 298 299 302 305
1072 27 298 299 302 303
1073 11 295 299 298 296
1074 27 302 299 298 296
1075 25 302 299 295 293
1076 25 302 299 295 458
1077 11 295 299 302 303
1078 10 295 299 302 305
1079 16 210 213 211 214
1080 22 211 213 210 207
1081 22 211 213 210 212
1082 10 187 185 136 135
1083 11 187 185 136 191
1084 10 187 185 180 128
1085 11 187 185 180 179
1086 25 136 185 187 189
1087 25 180 185 187 189
1088 25 136 185 187 183
1089 25 180 185 187 183
1090 26 136 185 180 128
1091 27 136 185 180 179
1092 27 180 185 136 191
1093 29 477 479 482 484
1094 26 477 479 482 480
1095 27 482 479 477 562
1096 45 563 479 482 484
1097 26 185 136 135 130
1098 27 185 136 135 137
1099 44 191 136 135 137
1100 26 135 136 185 180
1101 37 207 210 211 213
1102 36 207 210 211 214
1103 37 212 210 211 213
1104 36 212 210 211 214
1105 26 234 232 233 235
1106 27 233 232 234 118
1107 10 229 233 232 234
1108 25 232 233 229 228
1109 25 232 233 229 226
1110 26 232 233 235 239
1111 27 232 233 235 236
1112 11 229 233 232 230
1113 27 235 233 232 230
1114 25 235 233 229 228
1115 25 235 233 229 226
1116 11 229 233 235 236
1117 10 229 233 235 239
1118 24 499 295 299 298
1119 24 299 295 499 502
1120 24 299 295 499 497
1121 24 499 295 299 302
1122 26 415 418 417 455
1123 27 417 418 415 416
1124 29 418 415 414 413
1125 45 416 415 414 413
1126 26 414 415 418 417
1127 27 414 415 418 419
1128 44 416 415 418 419
1129 26 418 415 414 412
1130 26 185 180 128 130
1131 27 185 180 128 126
1132 26 135 130 128 180
1133 27 135 130 128 126
1134 27 128 130 135 137
1135 9 208 211 213 210
1136 8 210 211 208 413
1137 6 210 211 208 206
1138 6 210 211 208 209
1139 6 208 211 210 207
1140 6 208 211 210 212
1141 42 214 211 210 213
1142 43 214 211 208 413
1143 47 213 211 208 413
1144 7 208 211 210 213
1145 21 211 208 413 414
1146 36 206 208 211 214
1147 36 209 208 211 214
1148 37 206 208 211 213
1149 37 209 208 211 213
1150 26 415 414 412 455
1151 27 415 414 412 411
1152 27 412 414 415 416
1153 17 208 413 414 415
1154 17 208 413 414 412
1155 32 414 413 208 206
1156 32 414 413 208 209
1157 29 455 412 414 413
1158 45 411 412 414 413
1159 26 414 412 455 417
1160 27 414 412 455 454
1161 8 492 490 487 484
1162 47 486 490 487 484
1163 43 488 490 487 484
1164 7 487 490 492 486
1165 6 487 490 492 493
1166 6 487 490 492 494
1167 9 487 490 486 492
1168 6 492 490 487 485
1169 6 492 490 487 491
1170 42 488 490 492 486
1171 26 479 482 480 478
1172 27 479 482 480 481
1173 27 480 482 479 563
1174 27 417 455 412 411
1175 44 454 455 412 411
1176 17 487 484 482 479
1177 32 482 484 487 485
1178 32 482 484 487 491
1179 17 487 484 482 480
1180 21 490 487 484 482
1181 37 485 487 490 486
1182 36 485 487 490 488
1183 37 491 487 490 486
1184 36 491 487 490 488
1185 22 490 486 492 493
1186 22 490 486 492 494
1187 16 492 486 490 488
1188 26 499 497 498 500
1189 27 499 497 498 496
1190 27 500 498 497 495
1191 45 496 498 500 501
1192 44 496 498 497 495
1193 29 497 498 500 501
1194 10 581 417 418 415
1195 25 418 417 581 460
1196 25 418 417 581 549
1197 26 418 417 455 412
1198 27 418 417 455 454
1199 11 581 417 418 419
1200 27 455 417 418 419
1201 25 455 417 581 460
1202 25 455 417 581 549
1203 11 581 417 455 454
1204 10 581 417 455 412
1205 10 295 499 502 503
1206 11 295 499 502 463
1207 10 295 499 497 498
1208 11 295 499 497 495
1209 25 502 499 295 293
1210 25 497 499 295 293
1211 25 502 499 295 458
1212 25 497 499 295 458
1213 26 502 499 497 498
1214 27 502 499 497 495
1215 27 497 499 502 463
1216 36 493 492 490 488
1217 36 494 492 490 488
1218 37 493 492 490 486
1219 37 494 492 490 486
1220 29 235 239 238 241
1221 45 240 239 238 241
1222 26 238 239 235 233
1223 27 238 239 235 236
1224 27 130 128 180 179
1225 45 126 128 130 129
1226 44 126 128 180 179
1227 29 180 128 130 129
1228 17 131 129 130 135
1229 17 131 129 130 128
1230 32 130 129 131 133
1231 32 130 129 131 134
1232 27 482 480 478 476
1233 45 481 480 482 484
1234 44 481 480 478 476
1235 29 478 480 482 484
1236 27 233 235 239 240
1237 44 236 235 239 240
1238 26 334 392 388 384
1239 27 334 392 388 387
1240 26 350 353 352 348
1241 27 350 353 352 290
1242 27 352 353 350 517
1243 24 555 434 436 435
1244 24 436 434 555 553
1245 24 436 434 555 557
1246 24 555 434 436 439
1247 29 136 135 130 129
1248 26 136 135 130 128
1249 27 130 135 136 191
1250 45 137 135 130 129
1251 26 231 201 404 400
1252 27 231 201 404 409
1253 44 237 201 404 409
1254 26 404 201 231 445
1255 27 436 439 393 395
1256 44 441 439 393 395
1257 26 470 585 516 333
1258 27 516 585 470 468
1259 26 64 65 67 70
1260 24 475 515 516 585
1261 24 516 515 475 477
1262 24 516 515 475 478
1263 24 475 515 516 333
1264 29 190 60 58 59
1265 45 61 60 58 59
1266 26 58 60 190 186
1267 27 58 60 190 192
1268 44 61 60 190 192
1269 26 190 60 58 181
1270 29 201 404 400 402
1271 26 201 404 400 397
1272 27 400 404 201 237
1273 45 409 404 400 402
1274 26 231 445 397 400
1275 27 231 445 397 396
1276 20 79 55 59 58
1277 34 52 55 79 81
1278 34 54 55 79 81
1279 48 59 55 79 77
1280 35 52 55 79 77
1281 35 54 55 79 77
1282 17 55 59 58 60
1283 17 55 59 58 181
1284 32 58 59 55 54
1285 32 58 59 55 52
1286 18 405 544 542 65
1287 46 542 544 405 543
1288 35 541 544 405 543
1289 34 541 544 405 538
1290 35 548 544 405 543
1291 34 548 544 405 538
1292 15 78 542 65 64
1293 15 544 542 65 64
1294 15 78 542 65 67
1295 15 544 542 65 67
1296 31 65 542 78 80
1297 31 65 542 78 76
1298 31 65 542 544 541
1299 31 65 542 544 548
1300 13 78 542 544 405
1301 14 78 542 544 541
1302 14 78 542 544 548
1303 14 544 542 78 80
1304 14 544 542 78 76
1305 13 544 542 78 79
1306 26 404 400 397 445
1307 27 404 400 397 396
1308 27 397 400 404 409
1309 17 406 402 400 404
1310 17 406 402 400 397
1311 32 400 402 406 408
1312 32 400 402 406 410
1313 27 400 397 445 444
1314 45 396 397 400 402
1315 44 396 397 445 444
1316 29 445 397 400 402
1317 4 84 86 561 558
1318 2 84 86 561 90
1319 2 84 86 561 537
1320 40 88 86 561 558
1321 3 561 86 84 317
1322 39 88 86 84 317
1323 5 561 86 559 318
1324 41 88 86 559 318
1325 2 561 86 84 82
1326 5 84 86 559 318
1327 2 561 86 84 552
1328 3 406 405 544 542
1329 39 538 405 544 542
1330 4 544 405 406 402
1331 2 544 405 406 410
1332 2 544 405 406 408
1333 5 544 405 543 547
1334 2 406 405 544 541
1335 2 406 405 544 548
1336 40 538 405 406 402
1337 41 538 405 543 547
1338 5 406 405 543 547
1339 20 405 406 402 400
1340 34 410 406 405 538
1341 34 408 406 405 538
1342 48 402 406 405 543
1343 35 410 406 405 543
1344 35 408 406 405 543
1345 4 78 79 55 59
1346 2 78 79 55 52
1347 2 78 79 55 54
1348 40 81 79 55 59
1349 3 55 79 78 542
1350 39 81 79 78 542
1351 5 55 79 77 540
1352 41 81 79 77 540
1353 2 55 79 78 76
1354 5 78 79 77 540
1355 2 55 79 78 80
1356 18 79 78 542 65
1357 46 542 78 79 77
1358 35 80 78 79 77
1359 34 80 78 79 81
1360 35 76 78 79 77
1361 34 76 78 79 81
1362 3 195 197 196 317
1363 39 200 197 196 317
1364 4 196 197 195 394
1365 2 196 197 195 163
1366 2 196 197 195 398
1367 5 196 197 199 464
1368 2 195 197 196 194
1369 2 195 197 196 198
1370 40 200 197 195 394
1371 41 200 197 199 464
1372 5 195 197 199 464
1373 20 197 195 394 442
1374 34 163 195 197 200
1375 34 398 195 197 200
1376 48 394 195 197 199
1377 35 163 195 197 199
1378 35 398 195 197 199
1379 18 197 196 317 320
1380 46 317 196 197 199
1381 35 194 196 197 199
1382 34 194 196 197 200
1383 35 198 196 197 199
1384 34 198 196 197 200
1385 17 195 394 442 438
1386 17 195 394 442 393
1387 32 442 394 195 398
1388 32 442 394 195 163
1389 20 86 561 558 556
1390 34 90 561 86 88
1391 34 537 561 86 88
1392 48 558 561 86 559
1393 35 90 561 86 559
1394 35 537 561 86 559
1395 17 561 558 556 554
1396 17 561 558 556 560
1397 32 556 558 561 537
1398 32 556 558 561 90
1399 27 146 149 25 27
1400 45 147 149 146 143
1401 44 147 149 25 27
1402 29 25 149 146 143
1403 18 86 84 317 320
1404 46 317 84 86 559
1405 35 552 84 86 559
1406 34 552 84 86 88
1407 35 82 84 86 559
1408 34 82 84 86 88
1409 15 84 317 320 321
1410 15 196 317 320 321
1411 15 84 317 320 322
1412 15 196 317 320 322
1413 31 320 317 84 552
1414 31 320 317 84 82
1415 31 320 317 196 194
1416 31 320 317 196 198
1417 13 84 317 196 197
1418 14 84 317 196 194
1419 14 84 317 196 198
1420 14 196 317 84 552
1421 14 196 317 84 82
1422 13 196 317 84 86
1423 26 475 478 480 482
1424 27 475 478 480 481
1425 29 348 352 353 358
1426 45 290 352 353 358
1427 26 353 352 348 342
1428 27 353 352 348 284
1429 27 575 577 578 579
1430 45 574 577 575 573
1431 44 574 577 578 579
1432 29 578 577 575 573
1433 20 108 504 501 500
1434 34 506 504 108 19
1435 34 582 504 108 19
1436 48 501 504 108 107
1437 35 506 504 108 107
1438 35 582 504 108 107
1439 26 580 578 577 575
1440 27 580 578 577 574
1441 26 334 390 386 384
1442 27 334 390 386 382
1443 44 391 390 386 382
1444 26 386 390 334 392
1445 26 499 502 503 500
1446 27 499 502 503 505
1447 44 463 502 503 505
1448 26 503 502 499 497
1449 10 434 555 553 554
1450 11 434 555 553 550
1451 10 434 555 557 560
1452 11 434 555 557 440
1453 25 553 555 434 431
1454 25 557 555 434 431
1455 25 553 555 434 429
1456 25 557 555 434 429
1457 26 553 555 557 560
1458 27 553 555 557 440
1459 27 557 555 553 550
1460 27 342 348 352 290
1461 44 284 348 352 290
1462 29 343 350 353 358
1463 45 517 350 353 358
1464 26 353 350 343 342
1465 27 353 350 343 339
1466 44 517 350 343 339
1467 26 343 350 353 352
1468 26 555 553 554 556
1469 27 555 553 554 551
1470 44 550 553 554 551
1471 26 554 553 555 557
1472 10 581 580 456 453
1473 11 581 580 456 457
1474 10 581 580 578 577
1475 11 581 580 578 579
1476 25 456 580 581 460
1477 25 578 580 581 460
1478 25 456 580 581 549
1479 25 578 580 581 549
1480 26 456 580 578 577
1481 27 456 580 578 579
1482 27 578 580 456 457
1483 26 438 442 393 439
1484 27 438 442 393 395
1485 27 393 442 438 437
1486 26 503 500 498 497
1487 27 503 500 498 496
1488 27 498 500 503 505
1489 29 435 438 442 394
1490 45 437 438 442 394
1491 26 442 438 435 436
1492 27 442 438 435 433
1493 44 437 438 435 433
1494 26 435 438 442 393
1495 26 29 25 149 146
1496 27 29 25 149 147
1497 27 556 560 557 440
1498 45 536 560 556 558
1499 44 536 560 557 440
1500 29 557 560 556 558
1501 3 504 108 105 95
1502 39 19 108 105 95
1503 4 105 108 504 501
1504 2 105 108 504 506
1505 2 105 108 504 582
1506 5 105 108 107 96
1507 2 504 108 105 106
1508 2 504 108 105 104
1509 40 19 108 504 501
1510 41 19 108 107 96
1511 5 504 108 107 96
1512 26 438 435 436 439
1513 27 436 435 438 437
1514 26 350 343 342 348
1515 27 342 343 350 517
1516 10 337 334 390 386
1517 11 337 334 390 391
1518 10 337 334 392 388
1519 11 337 334 392 335
1520 25 390 334 337 338
1521 25 392 334 337 338
1522 25 390 334 337 336
1523 25 392 334 337 336
1524 26 390 334 392 388
1525 27 390 334 392 335
1526 27 392 334 390 391
1527 17 504 501 500 503
1528 17 504 501 500 498
1529 32 500 501 504 582
1530 32 500 501 504 506
1531 29 502 503 500 501
1532 26 502 503 500 498
1533 27 500 503 502 463
1534 45 505 503 500 501
1535 26 554 556 560 557
1536 27 554 556 560 536
1537 27 560 556 554 551
1538 18 108 105 95 91
1539 46 95 105 108 107
1540 35 106 105 108 107
1541 34 106 105 108 19
1542 35 104 105 108 107
1543 34 104 105 108 19
1544 10 434 436 435 438
1545 25 435 436 434 431
1546 25 435 436 434 429
1547 26 435 436 439 393
1548 27 435 436 439 441
1549 11 434 436 435 433
1550 27 439 436 435 433
1551 25 439 436 434 431
1552 25 439 436 434 429
1553 11 434 436 439 441
1554 10 434 436 439 393
1555 29 439 393 442 394
1556 45 395 393 442 394
1557 26 442 393 439 436
1558 27 442 393 439 441
1559 24 334 337 342 343
1560 24 342 337 334 390
1561 24 342 337 334 392
1562 24 334 337 342 348
1563 26 555 557 560 556
1564 27 555 557 560 536
1565 29 553 554 556 558
1566 26 553 554 556 560
1567 27 556 554 553 550
1568 45 551 554 556 558

Impropers

1 26 347 351 356 173
2 25 347 344 349 341
3 24 165 347 344 351
4 1 162 165 347 164
5 1 162 165 347 166
6 3 162 165 164 166
7 13 347 165 164 166
8 3 165 162 160 161
9 3 165 162 160 159
10 3 165 162 161 159
11 14 160 162 161 159
12 28 244 173 311 351
13 5 247 244 242 173
14 5 247 244 245 173
15 15 242 244 245 173
16 4 247 244 242 245
17 24 447 281 278 283
18 19 528 531 532 527
19 18 528 531 532 533
20 20 528 531 527 533
21 20 532 531 527 533
22 24 361 356 351 354
23 25 49 47 174 45
24 19 244 247 252 243
25 18 244 247 252 246
26 20 244 247 243 246
27 20 252 247 243 246
28 6 247 252 461 459
29 6 247 252 461 253
30 4 247 252 459 253
31 17 459 252 253 461
32 13 356 361 363 360
33 13 356 361 363 362
34 13 356 361 360 362
35 14 363 361 360 362
36 6 531 532 534 530
37 6 531 532 534 508
38 4 531 532 530 508
39 17 530 532 508 534
40 26 280 283 281 285
41 19 257 140 142 139
42 18 257 140 142 138
43 20 257 140 139 138
44 20 142 140 139 138
45 24 56 177 49 124
46 25 177 49 47 50
47 13 281 447 446 450
48 13 281 447 446 448
49 13 281 447 450 448
50 14 446 447 450 448
51 26 276 278 281 116
52 28 528 116 269 278
53 5 531 528 507 116
54 5 531 528 529 116
55 15 507 528 529 116
56 4 531 528 507 529
57 27 176 174 47 169
58 5 43 41 42 285
59 5 43 41 40 285
60 15 42 41 40 285
61 4 43 41 42 40
62 6 43 168 169 172
63 6 43 168 169 167
64 4 43 168 172 167
65 17 172 168 167 169
66 28 41 285 523 283
67 24 345 349 354 344
68 12 15 56 177 132
69 12 15 56 177 57
70 13 15 56 132 57
71 13 177 56 132 57
72 19 41 43 168 39
73 18 41 43 168 170
74 20 41 43 39 170
75 20 168 43 39 170
76 3 328 383 512 381
77 3 328 383 512 389
78 3 328 383 381 389
79 14 512 383 381 389
80 5 140 257 254 72
81 5 140 257 258 72
82 15 254 257 258 72
83 4 140 257 254 258
84 25 238 234 232 118
85 5 312 311 314 173
86 5 312 311 308 173
87 15 314 311 308 173
88 4 312 311 314 308
89 24 282 280 283 277
90 2 287 282 279 280
91 2 287 282 483 280
92 13 280 282 279 483
93 3 287 282 279 483
94 5 472 269 270 116
95 5 472 269 271 116
96 15 270 269 271 116
97 4 472 269 270 271
98 26 349 354 356 357
99 3 345 403 401 407
100 3 345 403 401 399
101 3 345 403 407 399
102 14 401 403 407 399
103 25 276 277 280 275
104 24 274 276 277 278
105 2 403 345 346 349
106 2 403 345 340 349
107 13 349 345 346 340
108 3 403 345 346 340
109 28 223 357 294 354
110 5 379 223 222 357
111 5 379 223 224 357
112 15 222 223 224 357
113 4 379 223 222 224
114 24 56 15 13 17
115 25 14 17 15 18
116 3 274 113 115 158
117 3 274 113 115 157
118 3 274 113 158 157
119 14 115 113 158 157
120 1 113 274 276 117
121 1 113 274 276 273
122 3 113 274 117 273
123 13 276 274 117 273
124 19 223 379 430 193
125 18 223 379 430 378
126 20 223 379 193 378
127 20 430 379 193 378
128 27 14 12 11 9
129 25 12 14 17 16
130 25 15 13 11 53
131 25 13 11 12 10
132 19 294 123 121 291
133 18 294 123 121 292
134 20 294 123 291 292
135 20 121 123 291 292
136 5 123 294 249 357
137 5 123 294 297 357
138 15 249 294 297 357
139 4 123 294 249 297
140 6 379 430 380 428
141 6 379 430 380 432
142 4 379 430 428 432
143 17 428 430 432 380
144 27 388 384 386 380
145 6 123 121 241 119
146 6 123 121 241 122
147 4 123 121 119 122
148 17 119 121 122 241
149 19 250 251 131 125
150 18 250 251 131 248
151 20 250 251 125 248
152 20 131 251 125 248
153 6 4 8 9 7
154 6 4 8 9 6
155 4 4 8 7 6
156 17 7 8 6 9
157 25 384 388 392 387
158 25 390 386 384 382
159 6 251 131 129 134
160 6 251 131 129 133
161 4 251 131 134 133
162 17 134 131 133 129
163 25 371 188 216 184
164 27 255 462 421 461
165 6 140 142 143 144
166 6 140 142 143 141
167 4 140 142 144 141
168 17 144 142 141 143
169 25 423 421 462 420
170 3 282 287 289 288
171 3 282 287 289 489
172 3 282 287 288 489
173 14 289 287 288 489
174 25 462 255 217 256
175 2 510 319 316 321
176 2 510 319 465 321
177 13 321 319 316 465
178 3 510 319 316 465
179 29 257 72 74 70
180 3 63 545 576 572
181 3 63 545 576 546
182 3 63 545 572 546
183 14 576 545 572 546
184 24 63 64 65 66
185 3 319 510 583 509
186 3 319 510 583 511
187 3 319 510 509 511
188 14 583 510 509 511
189 25 326 323 321 324
190 13 322 152 154 151
191 13 322 152 154 150
192 13 322 152 151 150
193 14 154 152 151 150
194 24 71 68 66 70
195 29 569 327 156 325
196 24 152 322 325 320
197 26 321 320 322 317
198 26 322 325 326 327
199 24 328 326 323 325
200 24 319 321 320 323
201 1 383 328 326 385
202 1 383 328 326 332
203 3 383 328 385 332
204 13 326 328 385 332
205 5 568 569 567 327
206 5 568 569 451 327
207 15 567 569 451 327
208 4 568 569 567 451
209 25 68 66 64 100
210 26 67 70 68 72
211 1 204 71 68 75
212 1 204 71 68 101
213 3 204 71 75 101
214 13 68 71 75 101
215 6 568 571 573 570
216 6 568 571 573 566
217 4 568 571 570 566
218 17 570 571 566 573
219 3 71 204 203 202
220 3 71 204 203 205
221 3 71 204 202 205
222 14 203 204 202 205
223 19 569 568 571 564
224 18 569 568 571 565
225 20 569 568 564 565
226 20 571 568 564 565
227 24 69 67 70 65
228 27 22 26 32 534
229 27 577 575 453 573
230 25 33 32 26 535
231 25 456 453 575 452
232 25 255 217 424 220
233 2 545 63 98 64
234 2 545 63 539 64
235 13 64 63 98 539
236 3 545 63 98 539
237 27 149 146 148 143
238 25 580 456 453 457
239 25 26 22 23 20
240 5 4 3 99 95
241 5 4 3 2 95
242 15 99 3 2 95
243 4 4 3 99 2
244 25 218 425 374 426
245 28 372 155 250 109
246 1 85 89 111 225
247 1 85 89 111 62
248 3 85 89 225 62
249 13 111 89 225 62
250 24 92 112 91 109
251 24 31 30 33 23
252 25 111 268 267 266
253 2 263 262 261 267
254 2 263 262 260 267
255 13 267 262 261 260
256 3 263 262 261 260
257 25 30 33 32 36
258 3 262 263 264 259
259 3 262 263 264 265
260 3 262 263 259 265
261 14 264 263 259 265
262 25 22 23 30 21
263 3 89 85 110 83
264 3 89 85 110 87
265 3 89 85 83 87
266 14 110 85 83 87
267 25 188 216 218 215
268 25 29 24 148 28
269 6 368 367 369 365
270 6 368 367 369 364
271 4 368 367 365 364
272 17 365 367 364 369
273 25 425 374 371 376
274 24 262 267 109 268
275 24 89 111 268 91
276 19 3 4 8 1
277 18 3 4 8 5
278 20 3 4 1 5
279 20 8 4 1 5
280 24 31 29 24 25
281 12 424 219 218 221
282 12 424 219 218 427
283 13 424 219 221 427
284 13 218 219 221 427
285 25 24 148 146 145
286 28 3 95 105 91
287 5 251 250 102 155
288 5 251 250 103 155
289 15 102 250 103 155
290 4 251 250 102 103
291 27 188 371 374 369
292 19 372 368 367 370
293 18 372 368 367 366
294 20 372 368 370 366
295 20 367 368 370 366
296 24 219 424 423 217
297 5 368 372 375 155
298 5 368 372 373 155
299 15 375 372 373 155
300 4 368 372 375 373
301 26 112 109 267 155
302 13 112 92 93 94
303 13 112 92 93 38
304 13 112 92 94 38
305 14 93 92 94 38
306 12 30 31 29 35
307 12 30 31 29 34
308 13 30 31 35 34
309 13 29 31 35 34
310 25 424 423 421 422
311 24 219 218 425 216
312 26 111 91 112 95
313 27 234 238 239 241
314 19 523 521 520 519
315 18 523 521 520 525
316 20 523 521 519 525
317 20 520 521 519 525
318 24 187 186 182 190
319 6 312 310 306 309
320 6 312 310 306 377
321 4 312 310 309 377
322 17 309 310 377 306
323 27 301 304 305 306
324 25 186 182 181 178
325 25 182 181 58 51
326 25 304 301 298 300
327 27 470 469 331 467
328 12 186 187 185 189
329 12 186 187 185 183
330 13 186 187 189 183
331 13 185 187 189 183
332 25 302 305 304 307
333 25 333 331 469 330
334 25 516 333 331 272
335 25 301 298 299 296
336 19 311 312 310 313
337 18 311 312 310 315
338 20 311 312 313 315
339 20 310 312 313 315
340 25 60 190 186 192
341 25 469 470 585 468
342 24 515 475 477 478
343 6 521 520 358 518
344 6 521 520 358 524
345 4 521 520 518 524
346 17 518 520 524 358
347 6 472 473 467 471
348 6 472 473 467 443
349 4 472 473 471 443
350 17 471 473 443 467
351 19 269 472 473 466
352 18 269 472 473 474
353 20 269 472 466 474
354 20 473 472 466 474
355 24 515 516 333 585
356 5 521 523 526 285
357 5 521 523 522 285
358 15 526 523 522 285
359 4 521 523 526 522
360 25 174 176 124 120
361 25 176 124 177 127
362 25 475 477 479 562
363 24 229 231 201 445
364 27 60 58 181 59
365 13 67 69 46 44
366 13 67 69 46 48
367 13 67 69 44 48
368 14 46 69 44 48
369 24 337 342 348 343
370 12 417 581 580 460
371 12 417 581 580 549
372 13 417 581 460 549
373 13 580 581 460 549
374 25 299 302 305 303
375 12 233 229 231 228
376 12 233 229 231 226
377 13 233 229 228 226
378 13 231 229 228 226
379 24 295 299 302 298
380 24 187 185 136 180
381 25 477 479 482 563
382 25 185 136 135 191
383 8 211 210 207 213
384 8 211 210 212 213
385 16 207 210 212 213
386 7 211 210 207 212
387 25 234 232 233 230
388 24 229 233 235 232
389 12 299 295 499 293
390 12 299 295 499 458
391 13 299 295 293 458
392 13 499 295 293 458
393 25 415 418 417 419
394 25 414 415 418 416
395 25 128 180 185 179
396 27 128 130 135 129
397 22 210 211 208 213
398 21 210 211 208 214
399 23 210 211 213 214
400 23 208 211 213 214
401 11 211 208 413 206
402 11 211 208 413 209
403 7 211 208 206 209
404 17 206 208 209 413
405 27 415 414 412 413
406 25 455 412 414 411
407 22 487 490 492 486
408 21 487 490 492 488
409 23 487 490 486 488
410 23 492 490 486 488
411 27 480 482 479 484
412 25 417 455 412 454
413 9 490 487 485 484
414 9 490 487 491 484
415 17 485 487 491 484
416 7 490 487 485 491
417 25 498 497 499 495
418 25 500 498 497 496
419 24 581 417 455 418
420 24 295 499 502 497
421 10 490 492 486 493
422 10 490 492 486 494
423 7 490 492 493 494
424 16 493 492 494 486
425 25 235 239 238 240
426 25 130 128 180 126
427 25 482 480 478 481
428 25 233 235 239 236
429 25 388 392 334 335
430 27 350 353 352 358
431 12 436 434 555 431
432 12 436 434 555 429
433 13 436 434 431 429
434 13 555 434 431 429
435 25 136 135 130 137
436 25 231 201 404 237
437 25 436 439 393 441
438 25 470 585 516 584
439 26 64 65 67 542
440 12 516 515 475 513
441 12 516 515 475 514
442 13 516 515 513 514
443 13 475 515 513 514
444 25 58 60 190 61
445 25 201 404 400 409
446 25 397 445 231 444
447 6 79 55 59 52
448 6 79 55 59 54
449 4 79 55 52 54
450 17 52 55 54 59
451 5 405 544 541 542
452 5 405 544 548 542
453 15 541 544 548 542
454 4 405 544 541 548
455 28 78 542 544 65
456 27 397 400 404 402
457 25 400 397 445 396
458 19 84 86 561 559
459 18 84 86 561 88
460 20 84 86 559 88
461 20 561 86 559 88
462 19 544 405 406 543
463 18 544 405 406 538
464 20 544 405 543 538
465 20 406 405 543 538
466 6 405 406 402 410
467 6 405 406 402 408
468 4 405 406 410 408
469 17 410 406 408 402
470 19 78 79 55 77
471 18 78 79 55 81
472 20 78 79 77 81
473 20 55 79 77 81
474 5 79 78 80 542
475 5 79 78 76 542
476 15 80 78 76 542
477 4 79 78 80 76
478 19 196 197 195 199
479 18 196 197 195 200
480 20 196 197 199 200
481 20 195 197 199 200
482 6 197 195 394 163
483 6 197 195 394 398
484 4 197 195 163 398
485 17 163 195 398 394
486 5 197 196 194 317
487 5 197 196 198 317
488 15 194 196 198 317
489 4 197 196 194 198
490 6 86 561 558 90
491 6 86 561 558 537
492 4 86 561 90 537
493 17 90 561 537 558
494 25 146 149 25 147
495 5 86 84 552 317
496 5 86 84 82 317
497 15 552 84 82 317
498 4 86 84 552 82
499 28 84 317 196 320
500 25 480 478 475 476
501 25 348 352 353 290
502 25 575 577 578 574
503 6 108 504 501 506
504 6 108 504 501 582
505 4 108 504 506 582
506 17 506 504 582 501
507 25 577 578 580 579
508 25 334 390 386 391
509 25 499 502 503 463
510 24 434 555 553 557
511 25 342 348 352 284
512 25 353 350 343 517
513 25 555 553 554 550
514 24 581 580 456 578
515 27 438 442 393 394
516 27 498 500 503 501
517 25 442 438 435 437
518 25 149 25 29 27
519 25 556 560 557 536
520 19 105 108 504 107
521 18 105 108 504 19
522 20 105 108 107 19
523 20 504 108 107 19
524 25 438 435 436 433
525 25 350 343 342 339
526 24 337 334 390 392
527 25 502 503 500 505
528 27 560 556 554 558
529 5 108 105 106 95
530 5 108 105 104 95
531 15 106 105 104 95
532 4 108 105 106 104
533 24 434 436 439 435
534 25 439 393 442 395
535 12 342 337 334 338
536 12 342 337 334 336
537 13 342 337 338 336
538 13 334 337 338 336
539 25 560 557 555 440
540 25 553 554 556 551
