LAMMPS data file via write_data, version 4 Jul 2026, timestep = 426000, units = real

585 atoms
11 atom types
615 bonds
18 bond types
1090 angles
35 angle types
1472 dihedrals
48 dihedral types
540 impropers
30 improper types

1.2359684236156063 19.9178105863846 xlo xhi
1.2359684236156063 19.9178105863846 ylo yhi
1.2359684236156063 19.9178105863846 zlo zhi

Masses

1 12.01115
2 12.01115
3 12.01115
4 12.01115
5 1.00797
6 1.00797
7 1.00797
8 14.0067
9 15.9994
10 15.9994
11 15.9994

Pair Coeffs # lj/class2/coul/long

1 0.054 4.01
2 0.054 4.01
3 0.054 4.01
4 0.064 4.01
5 0.02 2.995
6 0.013 1.098
7 0.013 1.098
8 0.065 4.07
9 0.24 3.535
10 0.24 3.535
11 0.24 3.535

Bond Coeffs # class2

1 1.53 299.67 -501.77 679.81
2 1.53 299.67 -501.77 679.81
3 1.53 299.67 -501.77 679.81
4 1.501 321.902 -521.821 572.163
5 1.101 345 -691.89 844.6
6 1.457 365.805 -699.637 998.484
7 1.42 400.395 -835.195 1313.01
8 1.42 400.395 -835.195 1313.01
9 1.101 345 -691.89 844.6
10 1.42 400.395 -835.195 1313.01
11 1.101 345 -691.89 844.6
12 1.42 400.395 -835.195 1313.01
13 1.417 470.836 -627.618 1327.63
14 1.0982 372.825 -803.453 894.317
15 1.412 257.775 0 0
16 1.3768 428.88 -738.235 1114.97
17 1.006 466.74 -1073.6 1251.11
18 0.965 532.506 -1282.9 2004.77

Angle Coeffs # class2

1 108.4 43.9594 -8.3924 -9.3379
2 110.77 41.453 -10.604 5.129
3 112.67 39.516 -7.443 -9.5583
4 110.77 41.453 -10.604 5.129
5 111.27 54.5381 -8.3642 -13.0838
6 112.67 39.516 -7.443 -9.5583
7 110.77 41.453 -10.604 5.129
8 111.27 54.5381 -8.3642 -13.0838
9 120.05 44.7148 -22.7352 0
10 112.444 47.2337 -10.6612 -10.2062
11 109 80 0 0
12 110.954 50.8652 -4.4522 -10.0298
13 104.5 35.7454 -10.0067 -6.2729
14 102.969 38.9739 -6.2595 -8.171
15 110.77 41.453 -10.604 5.129
16 111.91 60.7147 -13.3366 -13.0785
17 111.27 54.5381 -8.3642 -13.0838
18 105.8 52.7061 -12.109 -9.8681
19 110.77 41.453 -10.604 5.129
20 111.27 54.5381 -8.3642 -13.0838
21 111.27 54.5381 -8.3642 -13.0838
22 111 44.3234 -9.4454 0
23 111 44.3234 -9.4454 0
24 118.9 61.0226 -34.9931 0
25 117.94 35.1558 -12.4682 0
26 120 102 0 0
27 123.42 73.6781 -21.6787 0
28 110 41.6 0 0
29 107.66 39.641 -12.921 -2.4318
30 110.62 51.3137 -6.7198 -2.6003
31 108.728 58.5446 -10.8088 -12.4006
32 108.728 58.5446 -10.8088 -12.4006
33 108.728 58.5446 -10.8088 -12.4006
34 108.728 58.5446 -10.8088 -12.4006
35 107.067 45.252 -7.5558 -9.512

BondBond Coeffs

1 0 1.53 1.501
2 3.3872 1.53 1.101
3 0 1.53 1.53
4 3.3872 1.53 1.101
5 11.4318 1.53 1.42
6 0 1.53 1.53
7 3.3872 1.53 1.101
8 11.4318 1.53 1.42
9 12.0676 1.501 1.417
10 -2.1113 1.457 1.457
11 0 1.457 1.412
12 -6.4168 1.457 1.006
13 -7.1131 1.42 1.42
14 0 1.42 1.3768
15 3.3872 1.53 1.101
16 4.6217 1.53 1.457
17 11.4318 1.53 1.42
18 -9.6879 1.42 0.965
19 3.3872 1.53 1.101
20 11.4318 1.53 1.42
21 11.4318 1.53 1.42
22 0 1.501 1.501
23 2.9168 1.501 1.101
24 68.2856 1.417 1.417
25 1.0795 1.417 1.0982
26 0 1.417 1.412
27 48.4754 1.417 1.3768
28 0 1.412 1.006
29 5.3316 1.101 1.101
30 12.426 1.101 1.457
31 23.1979 1.101 1.42
32 23.1979 1.101 1.42
33 23.1979 1.101 1.42
34 23.1979 1.101 1.42
35 -1.8749 1.006 1.006

BondAngle Coeffs

1 0 0 1.53 1.501
2 20.754 11.421 1.53 1.101
3 8.016 8.016 1.53 1.53
4 20.754 11.421 1.53 1.101
5 2.6868 20.4033 1.53 1.42
6 8.016 8.016 1.53 1.53
7 20.754 11.421 1.53 1.101
8 2.6868 20.4033 1.53 1.42
9 47.0579 31.0771 1.501 1.417
10 -7.2229 -7.2229 1.457 1.457
11 0 0 1.457 1.412
12 31.8096 20.5799 1.457 1.006
13 -2.8112 -2.8112 1.42 1.42
14 0 0 1.42 1.3768
15 20.754 11.421 1.53 1.101
16 6.0876 16.5702 1.53 1.457
17 2.6868 20.4033 1.53 1.42
18 28.58 18.9277 1.42 0.965
19 20.754 11.421 1.53 1.101
20 2.6868 20.4033 1.53 1.42
21 2.6868 20.4033 1.53 1.42
22 0 0 1.501 1.501
23 26.4608 11.7717 1.501 1.101
24 28.8708 28.8708 1.417 1.417
25 20.0033 24.2183 1.417 1.0982
26 0 0 1.417 1.412
27 58.479 107.681 1.417 1.3768
28 0 0 1.412 1.006
29 18.103 18.103 1.101 1.101
30 13.4582 42.4332 1.101 1.457
31 4.6189 55.327 1.101 1.42
32 4.6189 55.327 1.101 1.42
33 4.6189 55.327 1.101 1.42
34 4.6189 55.327 1.101 1.42
35 28.0322 28.0322 1.006 1.006

Dihedral Coeffs # class2

1 -0.2802 0 -0.0678 0 -0.0122 0
2 0 0 0.0316 0 -0.1681 0
3 0.1764 0 0.1766 0 -0.5206 0
4 0.7137 0 0.266 0 -0.2545 0
5 -0.6732 0 -0.4778 0 -0.167 0
6 0 0 0.0316 0 -0.1681 0
7 0.7137 0 0.266 0 -0.2545 0
8 0.7137 0 0.266 0 -0.2545 0
9 -0.5203 0 -0.3028 0 -0.345 0
10 0 0 4.4072 0 0 0
11 0 0 1.559 0 0 0
12 0 0 3 0 0 0
13 -0.1406 0 0.4168 0 0.015 0
14 0.1904 0 -0.1342 0 -0.246 0
15 0 0 2.25 0 0 0
16 0.5302 0 0 0 -0.3966 0
17 0 0 1.5 0 0 0
18 0 0 0 0 0.05 180
19 -1.1506 0 -0.6344 0 -0.1845 0
20 0 0 0 0 0.13 180
21 0 0 0 0 0.13 180
22 0.5302 0 0 0 -0.3966 0
23 -0.0228 0 0.028 0 -0.1863 0
24 -0.2802 0 -0.0678 0 -0.0122 0
25 -0.2801 0 -0.0678 0 -0.0122 0
26 8.3667 0 1.1932 0 0 0
27 0 0 3.9661 0 0 0
28 0 0 3 0 0 0
29 0 0 4.8498 0 0 0
30 0 0 2.25 0 0 0
31 0 0 0 0 0.05 180
32 0.9513 0 0.1155 0 0.072 0
33 -0.1432 0 0.0617 0 -0.1083 0
34 -0.1432 0 0.0617 0 -0.1083 0
35 -0.1435 0 0.253 0 -0.0905 0
36 -0.1432 0 0.0617 0 -0.1083 0
37 -0.1435 0 0.253 0 -0.0905 0
38 -0.5187 0 -0.4837 0 -0.1692 0
39 -0.2428 0 0.4065 0 -0.3079 0
40 -0.1435 0 0.253 0 -0.0905 0
41 0.1863 0 -0.4338 0 -0.2121 0
42 -0.1435 0 0.253 0 -0.0905 0
43 -0.1435 0 0.253 0 -0.0905 0
44 0 0 1.8769 0 0 0
45 0 0 1.7234 0 0 0
46 0 0 0 0 0.158 180
47 -0.182 0 -0.1084 0 -0.7047 0
48 -0.182 0 -0.1084 0 -0.7047 0

AngleAngleTorsion Coeffs

1 0 108.4 120.05
2 -16.164 112.67 110.77
3 -27.3953 112.67 111.91
4 -29.042 112.67 111.27
5 -12.1038 111.27 105.8
6 -16.164 112.67 110.77
7 -29.042 112.67 111.27
8 -29.042 112.67 111.27
9 -19.0059 111.27 104.5
10 -14.4097 120.05 118.9
11 4.4444 120.05 117.94
12 0 120.05 120
13 -24.3818 112.444 111.91
14 -12.5567 112.444 110.62
15 0 109 120
16 -16.4438 104.5 108.728
17 0 102.969 123.42
18 0 111.91 109
19 -7.5499 111.91 110.954
20 0 111.27 102.969
21 0 111.27 102.969
22 -16.4438 104.5 108.728
23 0 108.4 110.77
24 0 111 120.05
25 -5.8888 120.05 111
26 0 118.9 118.9
27 -4.8141 118.9 117.94
28 0 118.9 120
29 -21.0247 118.9 123.42
30 0 120 110
31 0 109 110.62
32 0 102.969 108.728
33 -12.564 110.77 110.77
34 -12.564 110.77 110.77
35 -20.2006 110.77 111.27
36 -12.564 110.77 110.77
37 -20.2006 110.77 111.27
38 -10.4258 110.62 110.954
39 -15.7572 110.77 111.91
40 -20.2006 110.77 111.27
41 -10.5093 108.728 105.8
42 -20.2006 110.77 111.27
43 -20.2006 110.77 111.27
44 0.3598 117.94 117.94
45 4.2296 117.94 123.42
46 0 111.91 111.27
47 -14.0484 111.27 111.27
48 -14.0484 111.27 111.27

EndBondTorsion Coeffs

1 0 0 0 0 0 0 1.53 1.417
2 0.2486 0.2422 -0.0925 0.0814 0.0591 0.2219 1.53 1.101
3 0.1032 0.5896 -0.4836 0.0579 -0.0043 -0.1906 1.53 1.457
4 -0.319 0.4411 -0.7174 1.1538 0.8409 -0.9138 1.53 1.42
5 -0.58 0.9004 0 0 0.5343 0.9025 1.53 0.965
6 0.2486 0.2422 -0.0925 0.0814 0.0591 0.2219 1.53 1.101
7 -0.319 0.4411 -0.7174 1.1538 0.8409 -0.9138 1.53 1.42
8 -0.319 0.4411 -0.7174 1.1538 0.8409 -0.9138 1.53 1.42
9 -0.2456 1.0517 -0.7795 0.4741 1.2635 0.5576 1.53 1.42
10 0 0.2421 0 0 -0.6918 0 1.501 1.417
11 0 -1.797 0 0 -0.4879 0 1.501 1.0982
12 0 0 0 0 0 0 1.501 1.412
13 -0.0128 -0.0495 -0.1079 0.0997 -0.0046 -0.2657 1.457 1.53
14 0.0628 0.0873 -0.0882 -0.5892 0.714 0.3505 1.457 1.101
15 0 0 0 0 0 0 1.457 1.417
16 -0.162 0.1564 -1.1408 -0.6054 1.3339 0.9648 1.42 1.101
17 0 0 0 0 0 0 1.42 1.417
18 0 0 0 0 0 0 1.53 1.412
19 -0.9466 0.9356 -0.5542 0.057 0.0625 0.4112 1.53 1.006
20 0 0 0 0 0 0 1.53 1.3768
21 0 0 0 0 0 0 1.53 1.3768
22 -0.162 0.1564 -1.1408 -0.6054 1.3339 0.9648 1.42 1.101
23 0 0 0 0 0 0 1.501 1.101
24 0 0 0 0 0 0 1.501 1.417
25 -0.5835 1.122 0.3978 1.3997 0.7756 0 1.417 1.101
26 -0.1185 6.3204 0 -0.1185 6.3204 0 1.417 1.417
27 0 -6.8958 0 0 -0.4669 0 1.417 1.0982
28 0 0 0 0 0 0 1.417 1.412
29 0 0.2655 0 0 4.8905 0 1.417 1.3768
30 0 0 0 0 0 0 1.417 1.006
31 0 0 0 0 0 0 1.412 1.101
32 0 0 0 0 0 0 1.3768 1.101
33 0.213 0.312 0.0777 0.213 0.312 0.0777 1.101 1.101
34 0.213 0.312 0.0777 0.213 0.312 0.0777 1.101 1.101
35 0.9681 0.9551 0.0436 0.5903 0.6669 0.8584 1.101 1.42
36 0.213 0.312 0.0777 0.213 0.312 0.0777 1.101 1.101
37 0.9681 0.9551 0.0436 0.5903 0.6669 0.8584 1.101 1.42
38 -1.1685 0.9266 -0.0993 0.085 0.3061 0.2104 1.101 1.006
39 0.196 0.7056 0.112 0.1022 0.209 0.6433 1.101 1.457
40 0.9681 0.9551 0.0436 0.5903 0.6669 0.8584 1.101 1.42
41 -1.7554 1.3145 0.2263 0.2493 0.6803 0 1.101 0.965
42 0.9681 0.9551 0.0436 0.5903 0.6669 0.8584 1.101 1.42
43 0.9681 0.9551 0.0436 0.5903 0.6669 0.8584 1.101 1.42
44 0 -0.689 0 0 -0.689 0 1.0982 1.0982
45 0 -1.5867 0 0 4.2641 0 1.0982 1.3768
46 0 0 0 0 0 0 1.457 1.42
47 1.0165 0.7553 -0.4609 1.0165 0.7553 -0.4609 1.42 1.42
48 1.0165 0.7553 -0.4609 1.0165 0.7553 -0.4609 1.42 1.42

MiddleBondTorsion Coeffs

1 0 0 0 1.501
2 -14.879 -3.6581 -0.3138 1.53
3 -15.4174 -7.3055 -1.0749 1.53
4 -21.8842 -7.6764 -0.6868 1.53
5 1.2472 0 0.7485 1.42
6 -14.879 -3.6581 -0.3138 1.53
7 -21.8842 -7.6764 -0.6868 1.53
8 -21.8842 -7.6764 -0.6868 1.53
9 -5.9288 -2.7007 -0.3175 1.42
10 0 9.1792 0 1.417
11 0 3.9421 0 1.417
12 0 0 0 1.417
13 -8.0036 -7.7321 -3.064 1.457
14 -6.4529 -6.8122 -1.1632 1.457
15 0 0 0 1.412
16 -6.8007 -4.6546 -1.4101 1.42
17 0 0 0 1.3768
18 0 0 0 1.457
19 -2.2208 0.5479 -0.3527 1.457
20 0 0 0 1.42
21 0 0 0 1.42
22 -6.8007 -4.6546 -1.4101 1.42
23 0 0 0 1.53
24 0 0 0 1.501
25 -5.5679 1.4083 0.301 1.501
26 27.5989 -2.312 0 1.417
27 0 -1.1521 0 1.417
28 0 0 0 1.417
29 0 4.8255 0 1.417
30 0 0 0 1.412
31 0 0 0 1.457
32 0 0 0 1.42
33 -14.261 -0.5322 -0.4864 1.53
34 -14.261 -0.5322 -0.4864 1.53
35 -16.7975 -1.2296 -0.275 1.53
36 -14.261 -0.5322 -0.4864 1.53
37 -16.7975 -1.2296 -0.275 1.53
38 -3.4611 1.6996 -0.6007 1.457
39 -10.4959 -0.7647 -0.0545 1.53
40 -16.7975 -1.2296 -0.275 1.53
41 0 0.9241 -0.5889 1.42
42 -16.7975 -1.2296 -0.275 1.53
43 -16.7975 -1.2296 -0.275 1.53
44 0 4.8228 0 1.417
45 0 5.5432 0 1.417
46 0 0 0 1.53
47 -17.2585 -3.6157 -0.8364 1.53
48 -17.2585 -3.6157 -0.8364 1.53

BondBond13 Coeffs

1 0 1.53 1.417
2 0 1.53 1.101
3 0 1.53 1.457
4 0 1.53 1.42
5 0 1.53 0.965
6 0 1.53 1.101
7 0 1.53 1.42
8 0 1.53 1.42
9 0 1.53 1.42
10 2.5085 1.501 1.417
11 0.8743 1.501 1.0982
12 0 1.501 1.412
13 0 1.457 1.53
14 0 1.457 1.101
15 0 1.457 1.417
16 0 1.42 1.101
17 0 1.42 1.417
18 0 1.53 1.412
19 0 1.53 1.006
20 0 1.53 1.3768
21 0 1.53 1.3768
22 0 1.42 1.101
23 0 1.501 1.101
24 0 1.501 1.417
25 -3.4826 1.417 1.101
26 53 1.417 1.417
27 -6.2741 1.417 1.0982
28 0 1.417 1.412
29 -2.2436 1.417 1.3768
30 0 1.417 1.006
31 0 1.412 1.101
32 0 1.3768 1.101
33 0 1.101 1.101
34 0 1.101 1.101
35 0 1.101 1.42
36 0 1.101 1.101
37 0 1.101 1.42
38 0 1.101 1.006
39 0 1.101 1.457
40 0 1.101 1.42
41 0 1.101 0.965
42 0 1.101 1.42
43 0 1.101 1.42
44 -1.7077 1.0982 1.0982
45 2.0517 1.0982 1.3768
46 0 1.457 1.42
47 0 1.42 1.42
48 0 1.42 1.42

AngleTorsion Coeffs

1 0 0 0 0 0 0 108.4 120.05
2 -0.2454 0 -0.1136 0.3113 0.4516 -0.1988 112.67 110.77
3 -1.9225 -1.345 0.221 2.0125 0.944 -2.7612 112.67 111.91
4 0.5623 -0.3041 -0.4015 0.9672 -0.7566 -1.2331 112.67 111.27
5 -3.5903 2.5225 0.4888 0.8726 -0.3577 0.3888 111.27 105.8
6 -0.2454 0 -0.1136 0.3113 0.4516 -0.1988 112.67 110.77
7 0.5623 -0.3041 -0.4015 0.9672 -0.7566 -1.2331 112.67 111.27
8 0.5623 -0.3041 -0.4015 0.9672 -0.7566 -1.2331 112.67 111.27
9 -2.7466 1.4877 -0.8955 0.5676 0.945 0.0703 111.27 104.5
10 0 -4.4683 0 0 3.8987 0 120.05 118.9
11 0 -0.1242 0 0 3.4601 0 120.05 117.94
12 0 0 0 0 0 0 120.05 120
13 1.2031 1.3645 -0.7071 -2.7883 1.5193 1.4796 112.444 111.91
14 -1.3582 0.1465 -0.5729 -2.6321 0.9353 -0.8398 112.444 110.62
15 0 0 0 0 0 0 109 120
16 -0.7777 0.434 -0.6653 -1.8234 1.6393 0.5144 104.5 108.728
17 0 0 0 0 0 0 102.969 123.42
18 0 0 0 0 0 0 111.91 109
19 -3.343 4.4558 -0.0346 0.2873 -0.8072 -0.096 111.91 110.954
20 0 0 0 0 0 0 111.27 102.969
21 0 0 0 0 0 0 111.27 102.969
22 -0.7777 0.434 -0.6653 -1.8234 1.6393 0.5144 104.5 108.728
23 0 0 0 0 0 0 108.4 110.77
24 0 0 0 0 0 0 111 120.05
25 0.2251 0.6548 0.1237 4.6266 0.1632 0.0461 120.05 111
26 1.9767 1.0239 0 1.9767 1.0239 0 118.9 118.9
27 0 2.5014 0 0 2.7147 0 118.9 117.94
28 0 0 0 0 0 0 118.9 120
29 0 10.0155 0 0 1.7404 0 118.9 123.42
30 0 0 0 0 0 0 120 110
31 0 0 0 0 0 0 109 110.62
32 0 0 0 0 0 0 102.969 108.728
33 -0.8085 0.5569 -0.2466 -0.8085 0.5569 -0.2466 110.77 110.77
34 -0.8085 0.5569 -0.2466 -0.8085 0.5569 -0.2466 110.77 110.77
35 2.3668 2.492 -1.0122 -0.1892 0.4918 0.7273 110.77 111.27
36 -0.8085 0.5569 -0.2466 -0.8085 0.5569 -0.2466 110.77 110.77
37 2.3668 2.492 -1.0122 -0.1892 0.4918 0.7273 110.77 111.27
38 -3.9582 2.0063 0.3213 -0.4294 -0.4442 -0.6141 110.62 110.954
39 0.5111 1.6328 -1.0155 -1.1075 0.282 0.8318 110.77 111.91
40 2.3668 2.492 -1.0122 -0.1892 0.4918 0.7273 110.77 111.27
41 -3.406 1.6396 0.0737 0 -0.281 -0.5944 108.728 105.8
42 2.3668 2.492 -1.0122 -0.1892 0.4918 0.7273 110.77 111.27
43 2.3668 2.492 -1.0122 -0.1892 0.4918 0.7273 110.77 111.27
44 0 2.4501 0 0 2.4501 0 117.94 117.94
45 0 1.8729 0 0 2.5706 0 117.94 123.42
46 0 0 0 0 0 0 111.91 111.27
47 0.5511 0.9737 -0.6673 0.5511 0.9737 -0.6673 111.27 111.27
48 0.5511 0.9737 -0.6673 0.5511 0.9737 -0.6673 111.27 111.27

Improper Coeffs # class2

1 0 0
2 0 0
3 0 0
4 0 0
5 0 0
6 0 0
7 0 0
8 0 0
9 0 0
10 0 0
11 0 0
12 0 0
13 0 0
14 0 0
15 0 0
16 0 0
17 0 0
18 0 0
19 0 0
20 0 0
21 0 0
22 0 0
23 0 0
24 7.8153 0
25 4.8912 0
26 0 0
27 13.0421 0
28 0 0
29 0 0
30 0 0

AngleAngle Coeffs

1 2.0403 -1.8202 1.0827 108.4 110.77 111
2 1.0827 -1.8202 2.0403 110.77 108.4 111
3 0.2738 -0.4825 0.2738 110.77 110.77 107.66
4 0.2738 -0.4825 0.2738 110.77 110.77 107.66
5 2.4286 0.5381 -2.5301 110.77 111.91 110.62
6 0.1689 2.5926 3.9177 111.27 110.77 108.728
7 0.2738 -0.4825 0.2738 110.77 110.77 107.66
8 3.9177 2.5926 0.1689 110.77 111.27 108.728
9 3.9177 2.5926 0.1689 110.77 111.27 108.728
10 0.1689 2.5926 3.9177 111.27 110.77 108.728
11 0.1689 2.5926 3.9177 111.27 110.77 108.728
12 0 0 0 111 111 111
13 2.3794 3.0118 2.3794 111 111 107.66
14 -0.3157 -0.3157 -0.3157 107.66 107.66 107.66
15 2.4321 2.4321 -3.5496 107.66 110.62 110.62
16 2.4259 2.4259 2.1283 107.66 108.728 108.728
17 2.4259 2.4259 2.1283 107.66 108.728 108.728
18 -1.3199 -1.3199 0.1184 112.67 110.77 110.77
19 -0.833 -0.833 -3.5744 112.67 111.27 111.27
20 0.1689 2.5926 3.9177 111.27 110.77 108.728
21 -1.3199 -1.3199 0.1184 112.67 110.77 110.77
22 -0.833 -0.833 -3.5744 112.67 111.27 111.27
23 0.1689 2.5926 3.9177 111.27 110.77 108.728
24 0 0 0 120.05 120.05 118.9
25 0 0 0 118.9 117.94 117.94
26 0 0 0 118.9 120 120
27 0 0 0 118.9 123.42 123.42
28 0 0 0 112.444 109 109
29 0 0 0 110.954 109 110
30 0 0 0 110 110 107.067

Atoms # full

222 11 5 0.053 8.382391823665063 4.441905555542533 5.168878109606042 -1 0 0
283 7 4 0 6.917448716705979 8.934230676109568 6.66379852681995 0 0 0
281 7 4 0 7.831406810678917 9.453842436649703 7.551883678503526 0 0 0
278 7 4 0 7.761436669281773 9.127568684305501 8.864691013985958 0 0 0
277 7 4 -0.1268 5.849589118680692 7.7075791000767895 8.41930489478961 0 0 0
282 7 1 -0.106 4.9578926937422185 7.282900378828178 6.077310691496664 0 0 0
280 7 4 0 5.940206422112192 7.930655901876399 7.0592565688370925 0 0 0
279 7 5 0.053 5.267605695417662 7.389853193807388 5.0162786045579 0 0 0
276 7 4 0 6.759930494787712 8.307013450163016 9.284841876321387 0 0 0
275 7 5 0.1268 5.012131037168015 7.113546367015988 8.869048326835042 0 0 0
399 9 5 0.053 4.702956579647353 3.906284710747551 7.45728498488019 0 1 0
379 11 3 0.08 9.185185999797508 5.329279658652528 7.029756597317644 -1 0 0
403 9 1 -0.159 5.018468625023513 2.9154122134713534 7.132412902537289 0 1 0
483 7 5 0.053 4.8714588255305475 6.261502563502175 6.289953756619435 0 0 0
287 7 1 -0.159 3.5165415147742323 7.870078800151881 6.342438270338365 0 0 0
289 7 5 0.053 3.4624656086345476 8.924973419660095 6.60038768487935 0 0 0
378 11 5 0.053 8.179945584847228 5.8219106982568105 7.210595059642262 -1 0 0
288 7 5 0.053 2.7175524557116297 7.688197976472972 5.583719434921972 0 0 0
489 7 5 0.053 3.1757784952782466 7.294837491328921 7.1901546078381156 0 0 0
45 1 5 0.1268 5.268338188485566 5.111020320348567 3.7184861893577046 0 0 0
49 1 4 -0.1268 6.512905572541428 3.666592588858576 2.8563265753570755 0 0 0
47 1 4 -0.1268 6.013992517874118 4.974300954796263 2.9144468215478545 0 0 0
50 1 5 0.1268 5.915591371602327 2.8517081096441808 3.25496873163023 0 0 0
174 1 4 0.0265 6.5254351018020165 5.983309574011581 2.12511511165841 0 0 0
40 1 5 0.053 4.614781085641953 9.613905033303993 3.5605833684020225 0 0 0
223 11 1 0.027 9.294598675023593 4.591575583265003 5.790444815879504 -1 0 0
193 11 9 -0.266 9.315950984007298 3.9258240490969065 7.039252067019011 -1 0 0
177 1 4 0 7.577017143092275 3.3340241568038538 2.023151805518478 0 0 0
183 5 5 0.053 9.197987050911525 9.016411976901875 3.4090420871781753 0 0 0
286 7 6 0.2487 6.6106272026535615 8.682603593028379 4.660521007753712 0 0 0
285 7 8 -0.4974 7.087800321938362 9.307737486033545 5.278895168369163 0 0 0
169 1 10 -0.1595 5.9741038664672965 7.225843150581481 2.06552249482262 0 0 0
449 7 6 0.2487 8.007358757680134 9.536872206854769 4.928704061282364 0 0 0
116 7 8 -0.4974 8.572654130114092 9.827419854671033 9.824767975766532 0 0 0
401 9 5 0.053 5.424617444313133 3.1166898653970576 6.118876260564525 0 1 0
407 9 5 0.053 4.061525699546616 2.4022621826845048 7.028097984077042 0 1 0
340 9 5 0.053 6.797252927507817 2.6357027667013715 8.450833086226012 0 1 0
227 7 6 0.2487 9.520114670101892 10.01877764203425 9.559634151422317 0 0 0
179 5 5 0.1268 9.54033279332498 6.583298443821403 3.1803454598415235 0 0 0
466 13 9 -0.266 2.5315504043679047 4.586645508572018 3.4688362155691355 1 1 1
15 1 4 0 9.160048376743525 1.6499436614704295 2.886521963084129 0 0 0
13 1 4 -0.1268 9.073243198899561 1.5453801630425126 4.279795248740356 0 0 0
41 1 1 0.027 3.786274040577197 9.414301663556547 2.921881717514224 0 0 0
270 13 5 0.053 19.39920796366272 5.46158189530399 2.7173528261677142 0 1 1
432 11 5 0.053 10.121219239188644 7.1785382074680895 7.56657172794875 -1 0 0
430 11 1 0.027 10.374015951303932 6.130709423498991 7.737413358891223 -1 0 0
11 1 4 -0.1268 10.159283786468777 1.4290459861623135 5.1446614727182425 0 0 0
451 12 5 0.053 8.661229891321948 13.12804880400658 10.321909906331932 0 0 0
527 3 9 -0.266 19.87956953242895 5.427831160156369 8.820824175314677 0 0 1
56 1 1 -0.106 7.968262893580814 1.8609281772419326 1.9654883129200122 0 0 0
533 3 5 0.053 2.24541294036952 4.24517284717605 7.376353704586433 1 0 1
314 2 5 0.053 10.522357029554854 3.88744628538548 9.863833017636301 0 0 0
269 13 1 0.027 19.79796996114291 4.557713208914636 3.237170571521061 0 1 1
472 13 3 0.08 2.0073280615071116 3.5440912636257123 2.596799942868031 1 1 1
529 3 5 0.053 19.133559084774717 5.983484278064199 6.926490245404813 0 0 1
531 3 3 0.08 1.349487896928554 4.2474170899637915 8.004758017488996 1 0 1
345 9 1 -0.106 5.963342099679953 2.1117523470054937 8.051582062321001 0 1 0
349 9 4 0 5.05681339131629 1.6535184197308113 9.240509212494706 0 1 0
428 11 5 0.053 10.395370080213123 5.951491304717354 8.885960015241963 -1 0 0
187 5 1 -0.106 9.979889182378777 9.168719878721827 2.6312530419134594 0 0 0
450 7 5 0.053 9.661905337702397 9.912328927502248 6.49796241486391 0 0 0
189 5 5 0.053 10.472234057691749 10.080723385148735 2.9734217547933293 0 0 0
224 11 5 0.053 10.115437912346906 4.482490537217325 5.15036663281256 -1 0 0
508 3 5 0.053 1.4763797743682188 2.8184236735763397 9.628897867421854 1 0 1
42 1 5 0.053 2.78451217000205 9.791124677547971 3.313747829828542 0 0 0
17 1 4 -0.1268 10.464560022089286 1.5306659246107908 2.343987386828217 0 0 0
180 5 4 -0.1268 10.634705985325372 6.732906679276879 2.921676068258294 0 0 0
18 1 5 0.1268 10.639979177465023 1.4913055810365412 1.2586356897208677 0 0 0
517 11 5 0.1268 19.370640883905356 7.996480549232536 8.278899327973075 -1 0 0
474 13 5 0.053 2.0167349862108606 2.525846472159194 2.9850875481006645 1 1 1
271 13 5 0.053 19.15647600306244 4.369570057060567 4.109519831988628 0 1 1
530 3 5 0.053 1.5328652021988813 2.015475662852837 8.13448876558942 1 0 1
567 12 5 0.053 8.682631457948755 15.030423035290456 10.314727031443777 0 0 0
172 1 5 0.053 4.260257476478766 6.266398511237062 1.3382280676441964 0 0 0
168 1 1 0.027 4.71070922889888 7.25994916332621 1.2915375070110637 0 0 0
385 6 5 0.053 10.395473381868161 14.003713012951605 2.721649533449523 0 -1 1
178 5 5 0.1268 7.3079248046343155 9.8229402316619 2.0331430134564936 0 0 0
505 2 5 0.1268 15.462687423989445 18.49658261076786 1.2654795734776083 0 -1 1
367 10 1 0.027 12.117295212710077 12.029631299207749 6.232985333580312 0 0 0
73 3 7 0.4241 6.30123850703865 11.044498416104453 9.9180916673221 0 0 0
528 3 1 0.027 18.983028633734907 5.2453616235285505 7.740733343780513 0 0 1
507 3 5 0.053 17.89910406334797 4.9733412147433835 7.926498034959764 0 0 1
139 3 11 -0.5571 5.978822184215024 11.955539679696265 9.938913425542735 1 -1 1
352 11 4 -0.1268 17.061882250224492 9.869542901457638 9.95599834738625 -1 0 0
136 5 4 -0.1268 12.351676933636996 8.334117473706364 2.423304130561472 0 0 0
191 5 5 0.1268 12.725160122954271 9.317564722898476 2.3191080388300995 0 0 0
137 5 5 0.1268 14.339625233076454 7.676766288449794 2.3775878047402887 0 0 0
16 1 5 0.1268 12.557524213604806 1.3408273891645244 2.7416880078627983 0 0 0
135 5 4 -0.1268 13.305076895581328 7.326223201384394 2.506319332930884 0 0 0
185 5 4 0 11.047759265161272 8.087391319454916 2.750738321515289 0 0 0
126 5 5 0.1268 11.111372009986889 4.728868370715288 3.016115046256992 0 0 0
250 5 1 0.027 15.986252722117733 2.6809730403003442 2.790268482398126 0 0 0
131 5 1 0.027 15.173805226765854 5.295846249143339 2.761243261303373 0 0 0
128 5 4 -0.1268 11.549028464099369 5.7392866681299095 2.921962296516659 0 0 0
532 3 1 0.027 19.69220801617885 2.827757592112172 8.667623867709871 0 0 1
380 11 10 -0.1595 11.67923318968194 5.877335353171314 7.260175567446494 -1 0 0
382 11 5 0.1268 12.114407595710153 7.838700091129524 9.068225628848868 -1 0 0
384 11 4 0.0265 12.504547394284232 6.917948331900468 7.1146532093810615 -1 0 0
343 11 4 -0.1268 17.519072914157167 8.926961166155383 7.43186238940685 -1 0 0
387 11 5 0.1268 13.19198730343367 6.266468980348895 5.227949256911318 -1 0 0
130 5 4 0.0265 12.895401692668718 5.980502386816732 2.72112814845609 0 0 0
388 11 4 -0.1268 13.210682549593583 7.097570618117446 5.955567111931193 -1 0 0
335 11 5 0.1268 14.765605179862495 8.139447185110434 4.797308475380428 -1 0 0
392 11 4 -0.1268 14.178804850854618 8.098855224452203 5.752152738975565 -1 0 0
334 11 4 0 14.331804305123812 9.059926687636947 6.742045105851981 -1 0 0
386 11 4 -0.1268 12.661455892664687 7.889157928888111 8.066815625617355 -1 0 0
390 11 4 -0.1268 13.598585727081165 8.902651375858136 7.918297254178926 -1 0 0
125 5 9 -0.266 16.571970168190887 3.4244574185391485 3.888125756338694 0 0 0
342 11 4 0 16.494498906778063 9.863575413516271 7.60000621723579 -1 0 0
339 11 5 0.1268 17.764207549308598 8.513408701516923 6.450615885411987 -1 0 0
133 5 5 0.053 15.427845485454315 5.928748032570965 3.6206895152415868 0 0 0
350 11 4 -0.1268 18.418001745895896 8.594758261150616 8.452379717609658 -1 0 0
353 11 4 0.0265 18.22063683834638 9.142624015336489 9.736632955227824 -1 0 0
6 1 5 0.053 12.379284555811061 3.3212301219221136 5.723669934753126 0 0 0
8 1 1 0.027 12.71923279340891 2.4236742075862994 6.266027287668683 0 0 0
4 1 3 0.08 14.175024343157379 2.6677110044626975 6.6633352444802885 0 0 0
5 1 5 0.053 14.254155150839502 3.6600829595651776 7.055568168876969 0 0 0
391 11 5 0.1268 13.78693737111734 9.55322902805208 8.74308869781601 -1 0 0
292 8 5 0.053 14.357429418619253 4.839522787860153 9.41180265660071 -1 0 0
297 8 5 0.053 16.074580039851057 6.591886877644622 8.235689733114814 -1 0 0
294 8 1 0.027 16.063574245180007 6.319640743752688 9.322666863275229 -1 0 0
337 11 1 -0.106 15.425305196045462 10.100207212560836 6.54116749759851 -1 0 0
102 5 5 0.053 16.6441295355359 1.978364048084885 2.3622193327187806 0 0 0
103 5 5 0.053 14.956115845899923 2.2482429618049595 2.9011792255912123 0 0 0
212 12 5 0.053 17.93058630135659 9.19061688227941 2.6869445605700575 0 0 1
213 12 9 -0.266 17.63758439006401 7.212063142085041 1.7736700793720646 0 0 1
249 8 5 0.053 16.957868187721964 6.582263812845941 9.811134004812402 -1 0 0
123 8 3 0.08 15.138784155310304 5.419431515195283 9.985969656647452 -1 0 0
291 8 9 -0.266 14.926256358384766 6.853566948693346 10.141466928715229 -1 0 0
14 1 4 -0.1268 11.599438107819655 1.4082069784612259 3.193939011055701 0 0 0
129 5 10 -0.1595 13.758659237000785 4.9600241957365245 2.8362759022826127 0 0 0
9 1 10 -0.1595 12.576058680898127 1.2643733532084498 5.420602616188162 0 0 0
12 1 4 0.0265 11.45805412831337 1.3167214508125207 4.583810154540974 0 0 0
534 3 10 -0.1595 18.319741633774846 2.5129092363677454 8.965556127013773 0 0 1
210 12 1 0.027 17.309564564595586 8.589291677042706 1.9664735785419072 0 0 1
207 12 5 0.053 16.197887421583566 8.950840642543413 2.041275794578486 0 0 1
1 1 9 -0.266 14.816333491012044 1.729813101389051 7.586830239646218 0 0 0
348 11 4 -0.1268 16.33417442766329 10.363216755201003 8.897578088144872 -1 0 0
315 2 5 0.053 12.790322874480802 2.9459755999452097 10.124293378895146 0 0 0
251 5 3 0.08 16.245430386584427 4.144356269070499 2.7098929385710466 0 0 0
248 5 5 0.053 17.060385356256244 4.490189127875945 2.034130125953882 0 0 0
7 1 5 0.053 12.125128533796673 2.321186401931495 7.0958653046098386 0 0 0
99 1 5 0.053 16.399266709013602 2.3219231727601857 6.171152362389945 0 0 0
3 1 1 0.027 15.38520777715907 1.916359611917641 6.238956963020023 0 0 0
26 3 4 0.0265 18.16909494749712 1.3067187968139733 9.568169725797924 0 0 1
336 11 5 0.053 15.848467352446496 10.00127327262758 5.559556859214728 -1 0 0
366 10 5 0.053 11.953731896315649 10.252080505289747 4.870596274620805 0 0 0
373 10 5 0.053 13.904248788972433 10.888554132506695 3.2364944270469085 0 0 0
284 11 5 0.1268 15.54123356382345 11.126376737289263 9.131730435648786 -1 0 0
43 1 3 0.08 3.6223881477196818 8.348873895893933 1.8451225605308177 0 0 0
138 3 5 0.053 4.392672950695874 10.606274222493903 9.438420753013839 1 -1 1
53 1 5 0.1268 7.989555241032778 1.5674675678016985 4.634618938356879 0 0 0
346 9 5 0.053 6.392839916650658 1.2613042350868013 7.6154670767743955 0 1 0
321 6 4 0 6.588885158135735 15.527641925070608 1.3066011693384205 0 -1 1
91 4 4 0 16.609100511579577 14.230819580846358 3.2573190524316606 0 0 0
421 10 4 -0.1268 9.40806408125462 18.783046256002297 10.496469106354311 0 0 0
57 1 5 0.053 7.127912757640332 19.85684145504634 2.208659391835149 0 -1 0
447 7 1 -0.159 8.87711346746332 10.446402469440963 7.04043735478009 0 0 0
10 1 5 0.1268 9.971473671728628 19.838600425449027 6.181034468951755 0 -1 0
448 7 5 0.053 9.33678250941758 11.076099149193432 7.863524468854931 0 0 0
323 6 4 -0.1268 7.917375429536693 15.66081237885268 1.627735282597727 0 -1 1
425 10 4 -0.1268 12.156253708925634 16.32538825848365 6.854655125528541 0 0 0
361 9 1 -0.159 2.640368750898875 17.575798439882536 10.451543657442338 0 0 0
446 7 5 0.053 8.31350826741625 11.259031180235649 6.529779860758657 0 0 0
572 3 5 0.053 5.351738744038769 19.523330334609604 3.667332603707215 0 0 0
546 3 5 0.053 6.055443577334052 19.154011617451957 5.21434471410155 0 0 0
576 3 5 0.053 4.231643639718678 19.18605562695621 4.949663228553554 0 0 0
355 9 6 0.2487 4.953723381002703 18.592266805767494 7.332041350986416 0 0 0
354 9 4 0 4.238320939138676 19.17654642756508 9.180088040304486 0 0 0
357 9 8 -0.4974 4.205369437926625 18.379560063763368 7.971826680307123 0 0 0
359 9 6 0.2487 4.2634051910993325 17.35148807982854 8.181731346355217 0 0 0
150 6 5 0.053 6.084205396453412 12.17792288458047 4.205201822227523 0 -1 1
140 3 2 0.08 4.600845524143007 11.68399887640022 9.605252295121193 1 -1 1
254 3 5 0.053 5.2963855678862295 12.482493512436342 7.7109453437273965 1 -1 1
258 3 5 0.053 3.63583953282202 11.7817768115187 7.528905701378063 1 -1 1
540 3 6 0.2487 7.477686067829681 17.177304111581137 5.505764514942371 0 0 0
547 3 6 0.2487 7.748943709578105 16.20303228941045 6.903197304155849 0 0 0
154 6 5 0.053 4.516306764217912 13.075017768527788 3.869913047638407 0 -1 1
151 6 5 0.053 5.62988936508115 13.681205681508217 5.153333065986709 0 -1 1
464 6 6 0.2487 4.299307101995999 13.524056969105716 2.5147368020588647 0 -1 1
152 6 1 -0.159 5.576545513644602 13.197878255824628 4.153250674328927 0 -1 1
156 6 6 0.2487 7.757017938112879 13.02269381687277 5.183114936486014 0 -1 1
327 6 8 -0.4974 8.304158991064948 13.526765875695913 4.547372867540748 0 -1 1
325 6 4 0 7.739207604433719 14.236423071413306 3.526083762499965 0 -1 1
326 6 4 0 8.548821913401941 14.991504540479253 2.648201128078039 0 -1 1
322 6 4 0 6.40786798062411 14.057631923491368 3.1526588431029037 0 -1 1
320 6 4 0 5.821310943143941 14.611520997805389 2.053751589272679 0 -1 1
65 3 4 0 5.753908071233372 16.27076685932933 6.390179595714361 0 0 0
542 3 8 -0.4974 7.0822332258030665 16.69557500831685 6.344409687775243 0 0 0
46 3 5 0.053 7.302967873001042 15.427253360599545 8.425714031442268 0 0 0
64 3 4 0 4.891779993020322 16.538895691956224 5.3453633913058765 0 0 0
48 3 5 0.053 6.559463161531118 13.865649792678056 8.492177416738794 0 0 0
67 3 4 0 5.452105290071186 15.305086805802993 7.3103350136948055 0 0 0
69 3 1 -0.159 6.3710582123197295 14.946874178967292 8.44756617824477 0 0 0
44 3 5 0.053 6.033745410635811 15.303414103148425 9.40715989301464 0 0 0
70 3 4 0 4.128281850932877 14.777004918836965 7.381034368761586 0 0 0
63 3 1 -0.106 5.289938101704784 17.35283421491156 4.1472839449247 0 0 0
539 3 5 0.053 6.370902161138359 17.223207154802036 3.7429170796168063 0 0 0
66 3 4 -0.1268 3.608043957819057 15.998783052106917 5.406815174884743 0 0 0
72 3 8 -0.3314 3.767126380440051 13.792166452047907 8.359465842899226 0 0 0
68 3 4 0 3.2480362791138595 15.099936627560522 6.382239682600258 0 0 0
74 3 6 0.2487 2.7592546155480004 13.672435231762435 8.387165318666515 0 0 0
257 3 1 -0.0233 4.299226062592874 12.401425204860477 8.218184732752505 1 -1 1
98 3 5 0.053 4.501792162709713 17.285983922175642 3.3420838020115773 0 0 0
100 3 5 0.1268 2.854963760430109 16.294730738197 4.639692066360546 0 0 0
545 3 1 -0.159 5.216018681881298 18.871571979349557 4.568335784537207 0 0 0
317 6 8 -0.3314 4.449432838952621 14.275097054332116 1.8073144882203378 0 -1 1
71 3 1 -0.106 1.8142500225743619 14.742337289262691 6.405003715624758 0 0 0
101 3 5 0.053 1.6035538836974803 13.706020263560289 6.78262262382226 0 0 0
422 10 5 0.1268 10.135328726773727 19.21025307824633 8.574269057492991 0 0 0
423 10 4 -0.1268 10.352296004373207 18.690414815817775 9.503439305292234 0 0 0
75 3 5 0.053 1.3115977477778324 14.768416786051285 5.37333415687882 0 0 0
205 3 5 0.053 1.2878696095272788 15.57662802030895 8.411972613220449 0 0 0
107 2 9 -0.266 2.307839184998269 16.70496935450644 2.466219547355712 1 -1 1
106 2 5 0.053 2.6400143288057465 18.7677030792277 2.8598784893533638 1 -1 1
362 9 5 0.053 1.6197524656821174 17.933239132559503 10.262873817212117 0 0 0
564 12 9 -0.266 10.009752605005636 14.043229422844727 9.043730216048584 0 0 0
344 9 4 -0.1268 5.110965038705848 2.4066473650692815 10.387858315908163 0 1 0
105 2 1 0.027 1.8292133850596337 18.065621695175203 2.6393818518607954 1 -1 1
329 6 6 0.2487 9.245953075045508 13.784258760072206 4.7809830085526155 0 -1 1
381 6 5 0.053 10.480637342373461 16.90215549986314 1.7987180757303476 0 -1 1
420 10 5 0.1268 8.42992671078801 19.233067287127923 10.230838556687605 0 0 0
360 9 5 0.053 2.8030453574119933 16.801241712326473 9.769931217418529 0 0 0
356 9 4 0 3.504745645294181 18.832439519589656 10.336257437438002 0 0 0
225 4 5 0.053 14.986248655451016 15.392390292172516 5.015797897964393 0 0 0
184 10 5 0.1268 14.356704069516873 13.968131915780925 8.80241992628379 0 0 0
2 1 5 0.053 15.293716968697968 19.669504076435754 5.626086254777693 0 -1 0
85 4 1 -0.159 14.54627628256217 17.004538571606126 3.8081855080764972 0 0 0
566 12 5 0.053 11.82038210758991 12.242764595713593 10.05468749509242 0 0 0
170 1 5 0.053 2.611228541704026 8.193648725688357 1.5211720217105993 0 0 0
328 6 1 -0.106 10.13281772557258 15.04449570622614 2.7315262394760733 0 -1 1
204 3 1 -0.159 19.76280870108831 15.679193398003633 7.333486972903488 -1 0 0
36 3 5 0.1268 17.069870067298325 16.81093392285755 9.007565729681762 0 -1 1
202 3 5 0.053 1.4968943073471523 16.719484786447463 7.083659651847159 0 0 0
568 12 3 0.08 10.666964648474686 14.030243619553472 10.401026909543992 0 0 0
97 4 6 0.2487 18.36323874107378 14.936944472824676 4.1261200671192775 0 0 0
134 5 5 0.053 15.218917511788286 5.689243747948153 1.7356354255399014 0 0 0
364 10 5 0.053 11.994998878711554 11.356875468029552 7.038528177266862 0 0 0
332 6 5 0.053 10.465027079969516 15.64823678969315 3.6590541715234366 0 -1 1
33 3 4 -0.1268 17.534309565251757 17.6191179939384 9.58028111731516 0 -1 1
427 10 5 0.053 13.602639591212458 18.51106029057538 9.013136682907074 0 0 0
365 10 5 0.053 11.187027070559097 12.593865699802794 6.300385860457008 0 0 0
95 4 8 -0.4974 17.386825681998744 14.806439977383581 4.345144391121394 0 0 0
376 10 5 0.1268 11.527376355350103 14.78829868469701 5.527545537022156 0 0 0
512 6 5 0.053 11.884591149377876 15.913130724732241 1.828980266531135 0 -1 1
28 3 5 0.1268 17.438485022527864 14.557925886946697 9.737948437722634 0 -1 1
110 4 5 0.053 15.613212653337923 17.193811648661587 3.7044244986462123 0 0 0
215 10 5 0.1268 14.469799549199239 16.064954507980648 9.333790858774925 0 0 0
218 10 4 0 12.902984584079796 16.79580994082119 7.967439745058723 0 0 0
219 10 1 -0.106 12.671046453396949 18.102819242132348 8.624939413326214 0 0 0
109 4 4 0 16.514997812113585 12.671697038883641 1.3974964058772499 0 0 0
94 4 5 0.053 19.255510736398552 13.269241629407832 3.5355384391661384 0 0 0
89 4 1 -0.106 14.560372071413706 15.521058494169457 4.048856497275569 0 0 0
383 6 1 -0.159 10.82422064236986 15.896425096849624 1.6560217267511006 0 -1 1
93 4 5 0.053 18.41765169374401 11.759654490350462 3.4737339550139876 0 0 0
62 4 5 0.053 13.517475262751734 15.180746444952565 4.216155555803332 0 0 0
87 4 5 0.053 14.02659837399594 17.293597503524666 2.875155278628856 0 0 0
38 4 5 0.053 19.201153950218902 12.459615801341009 2.001968806972976 0 0 0
371 10 4 0.0265 12.97970727335759 14.15066547333898 7.103401769664474 0 0 0
83 4 5 0.053 14.053948843285081 17.63221695890646 4.648027663890467 0 0 0
424 10 4 0 11.541764481311814 17.995626116080476 9.668616328948463 0 0 0
145 3 5 0.1268 18.721523474775097 12.463986157457237 9.463893575805123 0 -1 1
368 10 3 0.08 12.353525233692507 11.273874956719371 4.957122093197098 0 0 0
338 11 5 0.053 15.028610032846824 11.16614590429076 6.621242209258622 -1 0 0
39 1 9 -0.266 3.954300880677368 9.743891715859931 1.5200611286917554 0 0 0
203 3 5 0.053 18.675393509150677 15.77232761120631 7.276568887244942 -1 0 0
188 10 4 -0.1268 13.856706026518992 14.587279908159273 8.170104864671643 0 0 0
375 10 5 0.053 14.137377201749063 12.551202629290431 4.213245230833867 0 0 0
372 10 1 0.027 13.454554209829073 11.648579262113778 3.9813332143334588 0 0 0
426 10 5 0.1268 11.497983697450632 17.097922383772442 6.340635336785687 0 0 0
266 4 5 0.1268 13.545262408095962 14.416070095708527 1.8125316865273997 0 0 0
221 10 5 0.053 12.211716963178954 18.87355068838379 7.87674108358443 0 0 0
92 4 1 -0.159 18.60980170747347 12.663948932530042 2.8829778270996367 0 0 0
32 3 4 -0.1268 17.667565974864623 18.82918716255857 8.941422246070399 0 -1 1
268 4 4 -0.1268 14.612087217707106 14.112827618132581 1.9574574771352684 0 0 0
111 4 4 0 15.320267697179448 14.612193906139483 3.0566779986408923 0 0 0
216 10 4 -0.1268 13.79544640075299 15.869131081320724 8.492982828022097 0 0 0
369 10 10 -0.1595 13.20250818869748 12.845446258429746 6.613666401313352 0 0 0
96 4 6 0.2487 17.00575605992337 15.743049892238028 4.542501682065439 0 0 0
112 4 4 0 17.191538437804695 13.235784778757987 2.4776139544278295 0 0 0
535 3 5 0.1268 17.36970789012082 18.818686376239057 7.89134895906796 0 -1 1
374 10 4 -0.1268 12.14279434404931 15.029663547636916 6.42885954618802 0 0 0
104 2 5 0.053 19.567485275057166 18.272212385595907 3.0846314023374566 0 -1 1
370 10 9 -0.266 12.084719659523557 11.992004870148264 3.7406278723268738 0 0 0
148 3 4 -0.1268 19.012402759143004 13.195070739079894 10.249268613315591 0 -1 1
569 12 1 0.027 9.213633870506618 14.08972800175512 10.18551085471138 0 0 0
341 9 5 0.1268 5.624336977272897 3.38778172526459 10.35595948411114 0 1 0
124 1 4 -0.1268 8.249521570697848 4.365998761777853 1.3831532479679944 0 0 0
24 3 4 -0.1268 18.26244826592798 14.332038028696664 10.452896746379865 0 -1 1
176 1 4 -0.1268 7.6563738594099275 5.6128257119147245 1.3836358278568077 0 0 0
143 3 10 -0.1595 2.318809723168593 12.006737314992769 10.536253218798661 1 -1 1
108 2 3 0.08 1.7933559793079978 17.408613826053223 1.2712765332496019 1 -1 1
186 5 4 0 9.347698251800526 9.520074032794673 1.240822269812373 0 0 0
584 13 5 0.1268 3.7631353768750535 7.116483436726232 15.460353748283476 1 1 0
469 13 4 0.0265 3.218925084877184 4.716713341653983 17.7931881379057 1 1 0
470 13 4 -0.1268 3.088806922830525 5.902359428842444 17.04442609574008 1 1 0
331 13 4 -0.1268 4.369420033406274 3.9307675315247916 17.464860354338043 1 1 0
272 13 5 0.1268 6.262219344386625 3.7142874424824686 16.418578269880932 1 1 0
585 13 4 -0.1268 3.907881328149649 6.17582948749596 15.935321022960267 1 1 0
333 13 4 -0.1268 5.286027778720804 4.309237393758881 16.449994934355523 1 1 0
516 13 4 0 4.994036769181886 5.384261655728207 15.655256642013292 1 1 0
515 13 1 -0.106 6.070082327136888 6.008912863873106 14.740767902177712 1 1 0
514 13 5 0.053 5.966000060123562 5.612721565220774 13.74105590295228 1 1 0
513 13 5 0.053 5.901978418843979 7.104313187464781 14.624157636514372 1 1 0
562 13 5 0.1268 7.577092326448341 7.049432985310243 16.90179922073657 1 1 0
475 13 4 0 7.554635082823966 5.683044438099595 15.175368060782853 1 1 0
477 13 4 -0.1268 8.119957746211032 6.300496127984539 16.25569995095355 1 1 0
330 13 5 0.1268 4.48804459344049 3.0626563385825722 18.089997344965006 1 1 0
526 11 5 0.053 3.90746595301818 8.50334691281721 12.687361686655265 0 0 0
165 9 1 -0.106 4.386328929474207 3.077945225534717 12.649609431276254 0 1 0
476 13 5 0.1268 7.8302683773835335 4.321319943059488 13.516887081301531 1 1 0
478 13 4 -0.1268 8.309031257076935 4.7666698257623965 14.425880272358567 1 1 0
162 9 1 -0.159 3.6857263074854676 4.406215665782296 12.317856153872738 0 1 0
160 9 5 0.053 3.4922353285127414 5.0268967989391875 13.22286363282577 0 1 0
523 11 1 0.027 2.7941082371090467 8.369555830161387 12.490791331827525 0 0 0
166 9 5 0.053 5.414158669390281 3.2320882486261104 12.9882299949051 0 1 0
161 9 5 0.053 4.266800344284499 4.995213675711732 11.615975795369238 0 1 0
479 13 4 -0.1268 9.388477896304845 6.034744393285272 16.684022211968497 1 1 0
480 13 4 -0.1268 9.64324317779286 4.452365175510126 14.86786929173456 1 1 0
481 13 5 0.1268 10.164346915876022 3.710670115055743 14.238942195940197 1 1 0
347 9 4 0 4.338912820826794 2.13697547732641 11.48879961329359 0 1 0
164 9 5 0.053 3.884139343368477 2.5414985336168687 13.45905018476216 0 1 0
127 1 5 0.1268 9.20993175373427 4.271853465328259 19.56907505744549 0 0 -1
273 7 5 0.053 6.767863561018197 8.88354720052402 11.348221861522825 0 0 0
468 13 5 0.1268 2.2658426036100447 6.531438061280634 17.38143698958221 1 1 0
52 5 5 0.053 6.348562467329209 11.633435053143238 16.454316387708637 0 0 -1
60 5 4 -0.1268 9.481149950961441 9.631759068384465 17.540723856778637 0 0 -1
563 13 5 0.1268 9.746832459078954 6.586597376686571 17.519222308746055 1 1 0
443 13 5 0.053 3.642539448075647 3.312316231943855 19.896124387964658 1 1 0
308 2 5 0.053 9.946120285263046 3.292273077476309 11.48699104269673 0 0 0
482 13 4 0.0265 10.15512507211714 5.105874297808313 15.996700032331525 1 1 0
522 11 5 0.053 2.496070469478232 7.497423629510254 11.836487935553842 0 0 0
132 1 5 0.053 8.253862984106943 1.6927682409453944 19.66219197961969 0 0 -1
467 13 10 -0.1595 2.3937749226912644 4.533801211317184 18.89732937536178 1 1 0
452 12 5 0.1268 13.031366148161478 10.762749251700185 11.040032931261543 0 0 0
81 5 5 0.053 6.226572705571365 10.057478648444985 13.761811748788622 0 0 -1
55 5 1 0.027 6.404868230558421 10.76509402177868 15.823653318065746 0 0 -1
120 1 5 0.1268 8.198384299068941 6.3733922501424 19.41803746430904 0 0 -1
167 1 5 0.053 4.9189832045847455 7.380126312886659 18.891809240229055 0 0 -1
245 10 5 0.053 8.642969107364362 19.856624514378286 15.493166823626792 0 0 0
54 5 5 0.053 5.591100008968869 10.05494289303651 16.0338472467188 0 0 -1
159 9 5 0.053 2.656719477794875 4.1456953959098355 11.983854448463207 0 1 0
521 11 3 0.08 1.7787127301771932 9.411337198311637 12.736329273570572 0 0 0
525 11 5 0.053 2.186128866170623 10.401844622373696 12.862866468030978 0 0 0
519 11 9 -0.266 2.0492064967728556 8.39687745189136 13.71835540489142 0 0 0
182 5 4 -0.1268 7.998480711094517 9.81792495929874 19.82287527982282 0 0 -1
237 8 5 0.1268 2.204294903768928 2.4301806456870296 16.122983242013987 0 0 0
58 5 4 0.0265 8.126164836719447 9.857560409275546 17.391182295022702 0 0 -1
117 7 5 0.053 5.686282516464283 7.4768224162587344 10.97361698548639 0 0 0
582 2 5 0.053 19.170797132153567 15.710122375756983 19.52620725506764 0 -1 0
267 4 4 0 15.268482905412103 13.205920113740623 19.783114228588737 0 0 -1
570 12 5 0.053 12.116506917183182 12.970515470298125 11.732480969613068 0 0 0
574 12 5 0.1268 9.139281844647114 9.94750573570861 12.770057506465161 0 0 0
181 5 4 -0.1268 7.3344523444075564 9.873831685413782 18.57762221247373 0 0 -1
51 5 5 0.1268 6.244995740609299 10.087596691363686 18.531518799282075 0 0 -1
113 7 1 -0.159 7.738139901576841 6.931720765061767 11.303773252964149 0 0 0
114 7 6 0.2487 8.698894082044799 9.265396105205447 10.674282294434951 0 0 0
61 5 5 0.1268 10.13644620819082 9.627108826675489 16.59136477168118 0 0 -1
190 5 4 -0.1268 10.050061178442133 9.33516173892754 18.74693344657449 0 0 -1
389 6 5 0.053 10.576108998492627 15.641727746279178 19.313680575089286 0 -1 0
115 7 5 0.053 7.717390809139088 6.810455795237099 12.405082718163015 0 0 0
565 12 5 0.053 11.2152646813024 14.962915357781998 10.584721495821105 0 0 0
59 5 10 -0.1595 7.630278241275199 10.039672453218751 16.076347995783948 0 0 -1
500 2 4 0.0265 16.850877553915566 17.084442293854146 18.923678100622315 0 -1 0
318 6 7 0.4241 1.703603217868427 14.159222334659642 19.704940924065614 0 -1 0
201 8 4 -0.1268 1.706876673240718 1.4619628834768241 16.078946055378715 0 0 0
274 7 1 -0.106 6.695394111760783 7.918819887828327 10.760886711569102 0 0 0
324 6 5 0.1268 8.571662855185085 16.33368032299142 19.699281037597192 0 -1 0
211 12 3 0.08 17.879509260141038 8.186787169003829 19.327873626692735 0 0 0
236 8 5 0.1268 19.21809442260869 5.067957138290518 15.787332666674688 -1 0 0
214 12 5 0.053 18.95443503644634 8.351341343269002 19.12012038147796 0 0 0
358 11 10 -0.1595 19.079559497106317 8.862684048083754 10.79996846405017 -1 0 0
290 11 5 0.1268 16.69719683067686 10.119385646943991 11.01144030801162 -1 0 0
192 5 5 0.1268 11.092520398523806 9.293585524609218 18.848083973165203 0 0 -1
520 11 1 0.027 19.052392338101768 9.49463970529564 12.041051256887155 -1 0 0
577 12 4 -0.1268 10.247750868240034 9.740928922253213 12.747350377338147 0 0 0
579 12 5 0.1268 9.962977306264321 7.676837007599156 13.355932375011351 0 0 0
536 6 5 0.1268 19.126964123462074 9.375989286820536 16.80295835796388 -1 0 0
524 11 5 0.053 18.22614158769429 9.041534470991142 12.608181558485366 -1 0 0
578 12 4 -0.1268 10.70613058503827 8.499036772366004 13.085168012279965 0 0 0
485 13 5 0.053 11.2650604422937 2.885795268861319 16.256911008135372 1 1 0
484 13 10 -0.1595 11.412131655058618 4.909448549828275 16.522685909005787 1 1 0
119 8 5 0.053 14.75799434793355 4.642270029029891 11.988106660622371 -1 0 0
226 8 5 0.053 18.727826063127914 3.2765618522603166 17.54909811431114 -1 0 0
240 8 5 0.1268 18.59053188525906 6.061560892701234 13.667545547029919 -1 0 0
235 8 4 -0.1268 18.435724793404724 4.600824490243188 15.167925090426715 -1 0 0
491 13 5 0.053 12.28935353251768 3.624743993512428 15.161471048507078 1 1 0
460 12 5 0.053 11.688888785696172 6.10827844288903 13.679477316132463 0 0 0
580 12 4 0 12.051547528717503 8.129171817610011 12.932441758045327 0 0 0
239 8 4 -0.1268 18.087822811260338 5.080823839447957 13.949168748286892 -1 0 0
233 8 4 0 17.87681810686998 3.3359984019687228 15.576796718710764 -1 0 0
208 12 1 0.027 17.088915396059242 7.719564259994756 18.069119029840188 0 0 0
232 8 4 -0.1268 16.7721061834527 2.75726011114734 14.769335860424569 -1 0 0
490 13 3 0.08 13.269601571645918 3.277112222850424 17.054475395524292 1 1 0
492 13 1 0.027 13.982223166764593 4.030615556753307 18.04756952014907 1 1 0
487 13 1 0.027 11.995981187769944 3.656386381134973 16.218275525269544 1 1 0
419 12 5 0.1268 15.057492332720827 6.044609568558805 13.965687046018628 0 0 0
418 12 4 -0.1268 14.58032585423769 6.608694582611522 14.79181090432717 0 0 0
414 12 4 0.0265 14.971161169083906 7.59123931193661 17.000715297099262 0 0 0
417 12 4 0 13.265471584567939 7.0189443995821605 14.796771136551513 0 0 0
416 12 5 0.1268 16.508612452996125 6.564105879740182 15.779202079446303 0 0 0
415 12 4 -0.1268 15.433556804090188 6.86746185401017 15.892619067530061 0 0 0
413 12 10 -0.1595 15.692112774166173 7.851491053866963 18.17233926158754 0 0 0
455 12 4 -0.1268 12.752489333996978 7.68917209325108 15.910701623556044 0 0 0
412 12 4 -0.1268 13.602136197176208 7.938286079951535 16.941487366191467 0 0 0
581 12 1 -0.106 12.515780450743495 6.783741636425137 13.519169131142084 0 0 0
493 13 5 0.053 13.620230760560112 5.053768961506787 18.303318846202142 1 1 0
549 12 5 0.053 13.170638845106328 6.263618525054011 12.788983112726585 0 0 0
234 8 4 -0.1268 16.472440504119046 3.309168342630976 13.538095488426716 -1 0 0
209 12 5 0.053 17.52059529423108 8.028473136022491 17.121093991386882 0 0 0
118 8 5 0.1268 15.776769195210615 2.7100538254441715 12.955493482410175 -1 0 0
238 8 4 0.0265 17.11336534396684 4.506398480897541 13.099283084920193 -1 0 0
454 12 5 0.1268 11.723769061910913 7.898724065367135 15.989410989607205 0 0 0
411 12 5 0.1268 13.258980104553054 8.474228980326373 17.85811491682968 0 0 0
309 2 5 0.053 13.4904485743918 2.4221693187974265 12.741551486930666 0 0 0
310 2 1 0.027 12.587828487101273 2.0018629803082786 12.167144591069807 0 0 0
457 12 5 0.1268 13.892475964982467 8.525035968329522 12.012577916715784 0 0 0
456 12 4 -0.1268 12.896436039732562 8.970254879576528 12.237173221706925 0 0 0
241 8 10 -0.1595 16.860509142938078 5.087914179565572 11.865888467583833 -1 0 0
486 13 9 -0.266 13.25676132873545 2.8478779028489623 18.44748236837765 1 1 0
494 13 5 0.053 15.083223713169017 3.8498870301545356 18.207034880648667 1 1 0
488 13 5 0.053 13.67525789253644 2.520767567840794 16.390497591528966 1 1 0
440 6 5 0.1268 17.322839288328048 9.404734510460267 15.08341965036881 -1 0 0
229 8 1 -0.106 18.205391139870517 2.537022740179909 16.869080672397573 -1 0 0
228 8 5 0.053 17.27614974860633 2.1386590164577073 17.421356517580925 -1 0 0
306 2 10 -0.1595 11.644824077361779 1.4551320811511363 13.113898952321613 0 0 0
121 8 1 0.027 15.605146964726313 4.638552927614291 11.27153323732507 -1 0 0
453 12 4 -0.1268 12.393673588748724 10.17339850930162 11.70079987797822 0 0 0
575 12 4 0.0265 11.063672447512923 10.545931378418958 11.924544363032915 0 0 0
230 8 5 0.1268 16.256229889402825 1.877370081640145 15.217569211424149 -1 0 0
518 11 5 0.053 18.78740423530769 10.523823894867 11.99779839992111 -1 0 0
206 12 5 0.053 17.179265212092723 6.598103676540132 17.9963663542248 0 0 0
20 3 5 0.1268 18.55347182170697 2.1329085903862803 11.493801689383877 0 0 1
231 8 4 0 19.066209125544113 1.3453322621959833 16.418553622006666 -1 0 0
22 3 4 -0.1268 18.209290138660922 19.89695811365154 10.980580653968238 0 -1 1
313 2 9 -0.266 11.84040886841385 4.361982137392724 11.485683820963349 0 0 0
77 5 9 -0.266 5.212340293633458 12.00710570905288 14.110084292645949 0 0 -1
79 5 3 0.08 6.235043641653364 11.042108445355117 14.33021685222281 0 0 -1
303 2 5 0.1268 14.658520317596816 17.218076929066342 14.820552873776986 0 -1 0
122 8 5 0.053 15.781560582993412 3.599068311741081 10.957559818571369 -1 0 0
363 9 5 0.053 2.565202518757351 17.09951862142522 11.4326120606299 0 0 0
19 2 5 0.053 2.5629989055039823 17.75517264841565 19.167875532920938 1 -1 0
300 2 5 0.1268 10.049850832236606 18.808169879772827 14.652779429362756 0 -1 0
242 10 5 0.053 7.185897854117017 19.25654021829685 16.342000056683702 0 0 0
316 6 5 0.053 4.897085758862129 16.54742094039393 18.924966136967896 0 -1 0
175 9 6 0.2487 2.40675699627154 1.5046298739619544 13.080667600866306 0 1 0
471 13 5 0.053 2.047187146463001 2.5980294919656415 19.348056747909055 1 1 0
243 10 9 -0.266 6.817153931550442 1.868713638085145 14.652429798332237 0 1 0
88 6 5 0.053 2.6819961620365227 12.350879276576071 19.838885657391444 0 0 0
351 9 4 0 3.4951633102955775 19.683460267459846 11.446933892654178 0 0 0
173 9 8 -0.4974 2.6631291045357703 19.345404576454147 12.557655640413488 0 0 0
141 3 5 0.053 4.025467053175625 11.279024186937095 11.643464755558904 1 -1 1
244 10 1 0.027 7.563223864080391 19.591294309981123 15.37419545417672 0 0 0
82 6 5 0.053 5.153930248692808 13.00030322055423 18.949892166259378 0 0 0
459 10 5 0.053 8.131841178723523 1.484488296271084 12.668310071228465 0 1 0
253 10 5 0.053 7.145463216676296 19.056452285806287 11.925400515134415 0 0 0
246 10 5 0.053 5.995612803640406 18.585853115295684 14.06923382364488 0 0 0
541 8 5 0.053 5.341818151179721 14.945526604969345 12.364826520586588 0 -1 0
247 10 3 0.08 6.923515055908741 19.195135571778053 14.08318874676043 0 0 0
76 5 5 0.053 7.111061548100991 13.049793259405694 13.932842818950844 0 0 -1
78 5 1 0.027 6.469378172388354 12.259067307263313 13.570421766413498 0 0 -1
80 5 5 0.053 6.536133946169557 12.160658238246727 12.47122335100895 0 0 -1
537 6 5 0.053 4.007904577104086 11.672635832937939 17.516245313690877 0 0 0
319 6 1 -0.106 6.0154574584274165 16.52109483070276 18.9888888122693 0 -1 0
404 8 4 -0.1268 2.4489558156379405 18.999435379581154 15.732439233713352 0 -1 0
509 6 5 0.053 6.437891100105732 17.149001472415762 16.933044908079474 0 -1 0
583 6 5 0.053 7.710954017662346 16.123383199491396 17.477335876804357 0 -1 0
561 6 1 0.027 3.0183694769837848 12.170744865877175 17.613258436861436 0 0 0
406 8 1 0.027 3.951089673119361 16.554045015691436 15.280079067842793 0 -1 0
405 8 3 0.08 4.5443603502703604 15.539505558255433 14.390216057410656 0 -1 0
538 8 5 0.053 3.951099588762579 14.632411966289409 14.37192056646552 0 -1 0
544 8 1 0.027 5.396707606552853 15.710150725894266 13.176920851254796 0 -1 0
548 8 5 0.053 5.738739309495103 16.74173180146331 12.803619524459574 0 -1 0
408 8 5 0.053 4.225257673785444 16.457307333561147 16.375588744291573 0 -1 0
410 8 5 0.053 4.452778756521321 17.458176156953066 14.899851699471276 0 -1 0
543 8 9 -0.266 5.957297025403682 15.344201006097888 14.473423901622288 0 -1 0
402 8 10 -0.1595 2.5190093808579803 16.624497679404747 15.08475215203097 0 -1 0
510 6 1 -0.159 6.603216371699331 16.240699854753906 17.613913957410922 0 -1 0
409 8 5 0.1268 3.6246542792484147 19.273007537549265 15.549009564326377 0 -1 0
511 6 5 0.053 6.07063921660328 15.388505101404846 17.1052401180279 0 -1 0
552 6 5 0.053 4.282547239033051 14.413287621246146 18.388730223478017 0 0 0
86 6 2 0.08 2.989124889826672 12.916777201459897 18.94619423500595 0 0 0
461 10 10 -0.1595 8.692329764703384 18.10734230907364 12.785334440310718 0 0 0
252 10 1 0.027 7.743765189019026 19.17801956927933 12.81800719793056 0 0 0
462 10 4 0.0265 9.598080543930973 18.118612669302497 11.742093084579851 0 0 0
200 6 5 0.053 9.133065003797647 12.11257173531403 16.702038376951602 -1 0 0
400 8 4 0.0265 1.871693150579687 17.730372453557926 15.525879599135916 0 -1 0
90 6 5 0.053 3.067309892606115 12.922018624053784 16.771938543811686 0 0 0
197 6 3 0.08 9.9311173268043 12.868052924646364 16.543287575195052 -1 0 0
198 6 5 0.053 10.346470475235751 13.079686194673107 18.709170456230837 -1 0 0
171 9 6 0.2487 1.9121671819431152 18.863997905006173 12.302913814268484 0 0 0
84 6 1 -0.0233 4.3246222200488535 13.665268329858648 19.121694891268188 0 0 0
144 3 5 0.053 4.006002502491899 13.023761323674814 11.271141280275351 1 -1 1
559 6 11 -0.5571 1.9353733479893451 13.894107228765444 18.779208882636656 0 0 0
199 6 9 -0.266 9.625609072987855 14.187313464139855 17.114708451071856 -1 0 0
163 6 5 0.053 10.66187058840907 11.734347010660603 14.799233595275917 -1 0 0
195 6 1 0.027 10.419842876603703 12.796285404724497 15.049469163068338 -1 0 0
558 6 10 -0.1595 1.9201799676781275 11.288463215362608 17.55940030222952 0 0 0
398 6 5 0.053 9.476117440410297 13.050890387900326 14.458091933560597 -1 0 0
147 3 5 0.1268 2.538121869850695 13.52378806409825 12.787480460995049 1 -1 1
142 3 1 0.027 3.7032076948124013 12.05025597633374 10.827460774243063 1 -1 1
556 6 4 0.0265 19.587653037026406 11.475289902452904 16.593712000033257 -1 0 0
149 3 4 -0.1268 1.767394271988582 13.745491159334295 12.075686860724243 1 -1 1
311 2 1 0.027 10.826534371466547 3.622918732861902 10.885871206756699 0 0 0
465 6 5 0.053 6.307628717921444 17.590101824378046 19.355669901147603 0 -1 0
146 3 4 0.0265 1.5007541400250006 12.95401111582694 10.923865712554923 1 -1 1
30 3 4 0 17.77915687513761 17.52979667884965 10.966573031668368 0 -1 1
31 3 1 -0.106 17.592769088582497 16.33845255746671 11.847712491017399 0 -1 1
495 2 5 0.1268 15.847375399102322 15.046054632716645 16.439468371161873 0 -1 0
259 4 5 0.053 13.034492549081907 11.10558449486545 17.86824863235231 0 0 -1
196 6 1 0.027 10.630784981725727 13.37612658726532 17.758497813223883 -1 0 0
504 2 1 0.027 19.149422217371363 16.8428587130019 19.33216297263865 0 -1 0
434 6 1 -0.106 16.50795344925588 11.444036998117612 13.639309025333914 -1 0 0
296 2 5 0.1268 10.740874879544558 17.296226992740714 16.430695963062842 0 -1 0
255 10 4 -0.1268 10.741618881240054 17.343193469070428 11.889652930664267 0 0 0
501 2 10 -0.1595 17.918363818542506 17.409724558356647 19.731169509315386 0 -1 0
553 6 4 -0.1268 18.24490380573857 12.642160172457697 15.032502246453177 -1 0 0
35 3 5 0.053 16.51127987340285 16.048810935161384 11.9524318573269 0 -1 1
573 12 10 -0.1595 10.531099815355981 11.738410245377674 11.496673372655259 0 0 0
377 2 5 0.053 13.030790692848782 19.809962744125674 11.679418099191174 0 -1 0
304 2 4 0.0265 12.02611819876704 19.19372826915915 13.995397954700298 0 -1 0
158 7 5 0.053 8.812320714739508 7.20793936327392 10.979634999659366 0 0 0
194 6 5 0.053 11.616248863444827 13.772802962006764 17.7000749618556 -1 0 0
37 4 6 0.2487 18.090393662910635 11.591788021360275 19.410809822246502 0 0 -1
34 3 5 0.053 17.876208730929385 16.590924881454317 12.843827964551881 0 -1 1
29 3 4 0 18.55951624342937 15.211945030509296 11.538759599683768 0 -1 1
431 6 5 0.053 16.94737649954436 11.668357008509492 12.651519994927208 -1 0 0
560 6 4 -0.1268 18.903325497681543 10.277628309948973 16.305590253549518 -1 0 0
557 6 4 -0.1268 17.837759047325097 10.306318468937445 15.45080047913946 -1 0 0
260 4 5 0.053 13.800013242294611 13.500837061317 18.210397211757293 0 0 -1
298 2 4 -0.1268 11.505315090270075 17.686863928956463 15.813390115150217 0 -1 0
155 4 8 -0.4974 17.082188053240372 11.655056470145212 19.318402653513207 0 0 -1
153 4 6 0.2487 16.84261855880563 11.7271201622306 18.37713892035936 0 0 -1
25 3 4 -0.1268 19.716736027714855 14.899224807807526 12.281207237894925 0 -1 1
23 3 4 -0.1268 18.069427623991157 18.700307546169306 11.639812423416483 0 -1 1
307 2 5 0.1268 14.183762350931579 19.284515379901595 13.436263530932765 0 -1 0
429 6 5 0.053 16.18992574260593 10.410486660873103 13.598408732841099 -1 0 0
497 2 4 -0.1268 15.76025773390484 15.743897400560714 17.196772472143905 0 -1 0
27 3 5 0.1268 19.89877661594856 15.538607718019508 13.16693918076329 0 -1 1
496 2 5 0.1268 17.835569100360516 15.546481218697645 17.79355021156834 0 -1 0
506 2 5 0.053 19.300356299359645 16.93290114955248 18.21956397589515 0 -1 0
498 2 4 -0.1268 16.87545242055794 16.010140647299504 17.96674453689444 0 -1 0
397 8 4 -0.1268 19.16938294556744 17.666736923782928 15.761309312509887 -1 -1 0
437 6 5 0.1268 13.189867362705115 14.840342811805058 13.257856155074498 -1 0 0
396 8 5 0.1268 18.53268334279975 16.80984990364945 15.546666475650069 -1 -1 0
502 2 4 -0.1268 14.487704110349789 17.254548566358853 18.448246882742968 0 -1 0
295 2 1 -0.106 13.285312160711435 16.02995390520401 16.63203903102208 0 -1 0
305 2 4 -0.1268 13.365663127233931 18.83195252985231 14.114000991319745 0 -1 0
395 6 5 0.1268 12.43896174130429 11.589943672741635 15.792657360174296 -1 0 0
441 6 5 0.1268 14.720315274795672 10.758638150624414 15.344762299216766 -1 0 0
21 3 5 0.1268 18.208856664768152 18.622206868667558 12.74164566072025 0 -1 1
265 4 5 0.053 14.340949990258038 10.590223262535558 18.935970049251065 0 0 -1
301 2 4 -0.1268 11.093243088131953 18.559552878551305 14.82003704819328 0 -1 0
256 10 5 0.1268 10.898659934480703 16.65010959685456 12.693664078846234 0 0 0
220 10 5 0.1268 12.637354332625335 16.86269572649094 11.069359043123356 0 0 0
550 6 5 0.1268 18.049090759423454 13.602671477611594 14.454605917426498 -1 0 0
445 8 4 -0.1268 18.465245427467366 18.79495968858056 16.225460245607824 -1 -1 0
435 6 4 -0.1268 14.758888118221298 13.361976569932656 13.240665359756612 -1 0 0
312 2 3 0.08 12.163768007098646 3.0545461485568857 11.10243109791694 0 0 0
438 6 4 -0.1268 13.558751160997211 13.88335519711716 13.549787361897422 -1 0 0
551 6 5 0.1268 19.811696359569478 13.620342684747907 16.082101021625157 -1 0 0
442 6 4 0.0265 12.65278829876944 13.202118716008139 14.340928844445697 -1 0 0
393 6 4 -0.1268 13.093947091966506 12.089801004441977 15.077125044736361 -1 0 0
302 2 4 -0.1268 13.739348125706055 17.770506335464773 14.930234157897413 0 -1 0
499 2 4 0 14.545420765331926 16.360104637227494 17.459867564440824 0 -1 0
503 2 4 -0.1268 15.585604163629451 17.68914805651331 19.12983443083151 0 -1 0
555 6 4 0 17.481499279322797 11.48794663118509 14.79427975867532 -1 0 0
436 6 4 0 15.1941837891429 12.263488328725119 13.944648151695715 -1 0 0
439 6 4 -0.1268 14.364927883107665 11.627367174642577 14.846152175900349 -1 0 0
463 2 5 0.1268 13.52021108125768 17.742649488873887 18.625501658968645 0 -1 0
458 2 5 0.053 13.513345539298085 15.107085929438808 16.015846127175365 0 -1 0
262 4 1 -0.106 14.476035123888076 12.708305749244099 18.585918962136724 0 0 -1
433 6 5 0.1268 15.436678307886535 13.921898434841301 12.598393370678497 -1 0 0
261 4 5 0.053 15.200019722531003 12.516375049887122 17.725147277752342 0 0 -1
217 10 4 -0.1268 11.696265695944719 17.375172957254772 10.85576055777067 0 0 0
299 2 4 0 12.82833669600656 17.15082598289326 15.7867352747451 0 -1 0
263 4 1 -0.159 13.66886073675558 11.40874164261394 18.7259046862559 0 0 -1
554 6 4 -0.1268 19.255888065796054 12.686673059296051 15.945785808763935 -1 0 0
293 2 5 0.053 12.491986140990884 15.618095118021563 17.262956662410673 0 -1 0
444 8 5 0.1268 17.336695538888158 18.759073217059182 16.315594903844687 -1 -1 0
394 6 10 -0.1595 11.402000754473912 13.771706623782404 14.6032421596846 -1 0 0
473 13 1 0.027 2.5598394701549143 3.4795849164043946 19.78246768797273 1 1 0
571 12 1 0.027 11.369195957632508 12.719891626795725 10.89781423321735 0 0 0
157 7 5 0.053 7.599326410261934 5.927710186389818 10.881683832465306 0 0 0
264 4 5 0.053 13.03267973511303 11.448116118624176 19.600509144870546 0 0 -1

Velocities

222 -0.030524187787437266 -0.01431126183706559 0.023541036880303037
283 0.0048219350440013055 0.0006963833477876937 0.0033860471931624796
281 0.003735050357463738 0.008039059366822313 -0.0007324867628195762
278 0.0027598409102346406 0.0017027887041536145 -0.001234349292183906
277 0.0014288501900235299 0.001324369565414956 0.004132778843654404
282 0.0021205705231656354 -0.003954453082099093 0.0027859260977006967
280 0.00390936627080712 -0.007320113199499554 0.003807838663110749
279 -0.02295647056885662 -0.004974304231395163 -0.0010203805340141777
276 -0.00493544584541965 -0.003974715123596177 -0.00722307591233824
275 -0.0058425655802657305 -0.006433880899388095 0.01089256001042643
399 0.005243815983557787 0.018748844915398258 -0.005216749130391864
379 -0.000875110040726089 -0.0028508746694012625 0.005801353624244331
403 8.67558115743718e-05 0.004762347386603219 0.002078024357562991
483 0.005544102444570771 -0.015287044498488526 -0.003945227308360159
287 -0.00012844958942403897 -0.00407787500722202 0.0031180804413376757
289 0.007610355278156624 0.017924305945071686 0.005394564046900038
378 -0.010826808438909472 -0.01760892528691889 -0.007720777420507863
288 -5.041377604728619e-05 -0.01026454922516041 -0.015129801683924573
489 -0.004276661413989337 0.0095129826139457 0.02670210528413212
45 -0.0206902823352056 -0.043853962620456106 0.0344511842606116
49 -0.0044944658749276325 -0.0016850480834132426 -0.010560977449343733
47 0.00489786369242693 -0.005819492728340628 -0.000711508405144615
50 0.00945858833663488 0.009212870755802568 0.010692529451729877
174 0.003161137316995873 -0.005511255238919055 0.005194964488148911
40 0.027267891401605196 0.005766791011915112 0.014796002847633116
223 0.003891874699146166 0.0018771789688660928 -0.007755435887215481
193 0.0023741010325412774 -0.005052342764046432 0.006167185041579727
177 -0.003299625851289351 0.007368743692133056 -0.000705334439739344
183 -0.010349170623765941 0.017450057869913573 -0.013883700470344311
286 0.013530680778172969 0.0012655259133618612 0.0007692666166860567
285 0.0002591880769134386 -0.002558970088934386 -0.0014814375576798697
169 0.0009499937901938381 0.00354887116751458 0.008872932652464327
449 0.013268435322185287 0.011130918463941342 -0.02123889022706617
116 0.0034549382260128125 -0.002584426681554515 -0.002082490271105631
401 -0.0021746153195718247 -0.005275379630947677 0.0213507780933243
407 0.018955390560575207 0.01917965505131305 -0.027343658799025672
340 -0.012214878469261402 -0.008216635752111298 0.008246812153575296
227 0.006622640030671379 -0.00917774777706173 -0.003274730197852164
179 -0.008599780988029838 -0.0047726086988399315 0.032276935922624705
466 -0.008172589430960553 0.012036248957902973 -0.001563614341239998
15 5.569165332693888e-05 -0.0004951256273183733 -0.0002978860405019295
13 0.002118652371335676 0.0071468626767096305 -0.0008812412417442036
41 -0.005089812403391795 -0.002587042041521931 -0.0034475803774905423
270 -0.03511698455358548 0.017248260270206622 0.026725543618877107
432 0.00991878104147418 -0.019591199914669226 -0.010059926589541695
430 -0.008723730357871688 0.005780870470218246 -0.004833099755421763
11 0.00028976971464040566 0.0008214672911985297 -0.00022967011394819733
451 -0.004193702859674485 0.009437484341845714 -0.009671598124971889
527 -0.0020471845640357557 -0.0007026287321495774 0.0020651497629009664
56 -0.002548970460169486 -0.0030330357069986466 0.004783751673614805
533 -0.006703786050103672 0.0108721984956614 0.0348076819976587
314 0.004933204658735169 0.0014552870148794215 0.02408451635349478
269 -0.002550482748096646 -0.007259268324418145 -0.004375617045497642
472 -0.0019376182946427495 -0.008054256010317645 -1.557234771303937e-05
529 -0.010968321338405982 -0.020599117054862476 -0.017847720056858554
531 -0.011555293175765606 0.0019510148636944307 -0.0018285942468087536
345 -0.0034403933845730443 -0.001531206774645638 -0.0049779070015688156
349 0.0032302177126919 0.004501389318012331 -0.010175929120441657
428 -0.0009243593515259411 0.008880960658599545 0.0275015259173541
187 -7.638641125414018e-05 -0.00697253364538587 -0.006303797594969761
450 -0.005244804446933516 0.0003479699883607703 0.027505838552322456
189 -0.03158430351054859 -0.013664642004262133 -0.03555847683724179
224 0.005079764169899394 0.018057631580590077 -0.02514210292147614
508 -0.013440425756121572 -0.0099467995315091 0.0007954547303482146
42 0.002351819405118138 0.025758601723686405 -0.0007190101565954296
17 0.002058599894116052 -0.005507701821416784 -0.0036259739640234654
180 0.0031467919846078136 -4.004301106043669e-05 -0.0006312108882241085
18 0.0008562828113902819 -0.029234790638926488 -0.009290771778855818
517 -0.005712832011261801 -0.0003497451232177472 0.0027451405497183065
474 0.02517560401819658 0.011621804051633221 -0.013517003182353118
271 0.009178126748869165 -0.0297511001282227 -0.00900004728331298
530 -0.02766118445215362 -0.004480215051687546 -0.004010717992257017
567 -0.01082588322541831 -0.013023033437088202 0.0005031400678333131
172 0.0020764213889971983 0.03799770948539922 0.004030370600551493
168 -0.004665341335301235 -0.004362327971191038 0.0015241918927255407
385 0.01774675180592618 -0.013809698922104437 -0.013880924378685442
178 0.027513373640895095 -0.004863956825927367 0.004168048342154202
505 -0.008108356831553665 0.01632550242303906 -0.006728876607222526
367 0.00239171338098389 0.005549537220243617 -0.0032267298574318887
73 -0.012308637601654106 0.004240054988423794 0.024965937043116886
528 -0.0012522870463537023 -0.007215087196853845 0.0030434011891125566
507 0.006502074287431171 0.004379352451037946 -0.013474133933532884
139 0.001349002188524912 0.0046085578198339465 0.004206965505926308
352 -0.007455266306403828 0.006639794016223273 -0.003970154852261289
136 0.003694410833003666 -0.0006498805954771028 0.002070380706763482
191 0.009484912662643272 0.004851209800881868 -0.02007365044041487
137 0.014879334895211701 -0.008903075364117842 -0.011910831918816566
16 0.02651286300357025 0.013212085781450047 -0.003983531741677966
135 0.005041095562267113 -0.004071391830879858 -0.001031382145333667
185 0.008034417202553414 -0.001985885219775552 -0.0055574223159963534
126 -0.006834020929533203 0.005701089710585445 0.015185504893323168
250 -0.0064226740913445775 -0.004278725800057322 -0.0068277561422541815
131 0.0008455224634796534 0.005130400403794304 0.0009830790023763545
128 -0.006210786191447001 -0.0038312218903443504 -0.004763430631811396
532 0.008225780632047491 -0.001860808132116043 0.00022871227481896766
380 -0.007207087933876581 0.009450045530901775 -0.001228599341667558
382 0.006256075742380942 0.011009478903743016 -0.017085906514552312
384 0.00235478082348389 0.006005046271769126 0.004394291183923203
343 -0.0010484473134463488 -0.001930056126908622 -0.0017454324559418159
387 -0.00044027069870396186 0.0018734400033179027 0.006063747706378737
130 0.0010502509052817842 0.0009120865311528503 0.00379144807170967
388 0.0015939502348107214 -0.003978964423376255 0.007242713861823488
335 -0.020987685032402167 -0.03093229613050214 -0.01577248785242538
392 -0.0008283693191852824 -0.0035993607871129974 -0.005493749433220769
334 0.0030265999093064978 0.0045285556614303515 0.000563524110584241
386 -0.0008009632640439866 -0.006494595989164112 0.004783300647168256
390 0.007339144694552579 0.0035987381235424174 0.007111418642498644
125 -0.002522523913640859 -0.0068712994014287826 -0.002067508140350729
342 -0.0021661744705324237 0.003133592918515526 0.006261143784230552
339 0.009975147386199744 0.024032081136691502 -0.013061530822570683
133 0.003664500699296046 0.008004332612500392 0.022191063171102324
350 -0.005151579864750967 -0.0018251018458455208 0.0014323144314106818
353 -0.0035544803147312186 -0.005494796418447602 0.003535968839634889
6 -0.023392074583081776 0.019021058556564305 -0.009170336189715437
8 0.0011275812264895054 0.0019253579190103053 -0.003022902944720757
4 -0.0035854576414900956 0.0023484535864125387 -0.0025617108934338044
5 0.008711955792915446 -0.013648760827470364 -0.01344789854016964
391 -0.017470702823420503 -0.0036016454013727568 0.012573766634808454
292 0.021738915958540238 -0.012445276278624844 -0.022093978500136835
297 -0.023201064794153205 -0.00987035869536456 0.028817615017884934
294 0.003866790843644878 0.001098247367862031 0.0032284169009517225
337 0.0019477516089096477 -0.005071822983391224 -0.004161904522891613
102 -0.000296798845159076 0.027966263442233925 0.02709894721772621
103 0.004284172727728715 0.02344220105935294 0.0005577214734800755
212 -0.0128667467505556 0.02561974449988126 0.0036975706239356335
213 -0.0030502630709698 -0.004465113282599951 -0.0013346763258605104
249 -0.004298859043270766 0.01568554830778597 0.004077129561312218
123 -0.0006598395290388553 -0.0013288363649357703 -0.007004818388901634
291 0.004231450889877924 0.0033644406494043925 0.003976023473351714
14 0.001982613180516238 0.0026319391113034467 -0.0002499160443054499
129 -0.0024483850033665245 -0.0073123758747920846 -0.002288952277068772
9 0.007090897782252928 0.0002836492972544959 0.0037343770223199567
12 -0.00323383504080207 0.002883149588452394 0.00012712481457284602
534 -0.0063661929166986 0.0010231505035788351 -0.0010994710271977355
210 0.004510221625393266 0.005146724131626158 -0.00966450029202219
207 0.006326290478963954 0.02754644166428136 -0.013868520346667287
1 0.0031726044668568282 0.000550171080557449 -0.0012255561376921069
348 0.004279043440159879 0.0005196419242669605 -0.005890754958324081
315 -0.01585250098956889 -0.00808087903050383 -0.003434542995047595
251 0.0003529999866958549 -0.0075402562288689025 0.0017858081545292785
248 0.017706178730298804 0.006828002856595814 -0.0028273954296980687
7 0.01994137586280721 -0.023189724036169052 0.011340149744422682
99 -0.0032486432848590633 0.0035903533043248003 -0.00659168719315139
3 0.0036141878091572495 -0.003836485666789463 -0.002574038666531097
26 -0.002207007234458887 -0.0012132313138068932 0.001536156741057406
336 0.0006598053072888133 -0.007491699177672617 -0.010603752152032105
366 -0.017199841592281887 0.03035260366510092 0.022015365247969133
373 0.021550228332056925 0.008294519062398555 -0.008448151971967494
284 0.0071049146404461375 0.003034378036042614 -0.01221088013041693
43 -0.009006502172739149 0.00211293243405108 -0.00327987959397584
138 -0.0034485986711595934 0.0011852444736486737 -0.0036989146786654496
53 -0.00782982571512277 -0.0361052446550195 -0.015391168598720731
346 -0.00573974106962099 -0.021500412471250684 0.00836153962587173
321 0.002239013850736209 0.0021984586506574493 0.0009538712352309092
91 0.003484102142915675 -0.003277064624801603 -0.004989444888531685
421 0.005161364167068525 -0.007298353491843336 0.0028345554188781872
57 0.008863988135750907 -0.004727694123298051 -0.015771384787941503
447 -0.004985883987658846 -0.0037337171771037484 0.0016685709128202114
10 0.026649936348282235 -0.01006311902637088 -0.0047893804233624625
448 -0.014827749758239866 -0.01942954261775508 -0.00558150058359765
323 -0.00423301354565942 0.007198795200976913 0.006222874729745154
425 0.0009087350072792387 0.004599049746325058 0.002500236516377226
361 0.005273546896593365 0.0034006701053917185 0.002680673736085861
446 0.0013249199990876424 0.013000126750753797 0.004562700731244049
572 0.009552931742736016 0.028036221722870344 0.021047386119058185
546 0.015985016393394124 0.010711245044480323 0.008063194258457397
576 -0.004906846787292791 -0.007712467627232389 0.0318514375216864
355 0.017733409636024454 -0.010963903336266843 0.005684427557765385
354 0.003483732057597205 -0.002239071969274478 -0.01060363067555901
357 -0.0037959973981837756 0.003886613493869307 -0.00262099650597485
359 -0.01104693953903219 0.012392285924442517 0.018599965579377906
150 0.02724949342743387 -0.002217379822478829 0.019695219704147667
140 0.0013596599752248037 -0.0011974908861155933 -0.003948204114819375
254 0.013507354462567388 0.015086806284334228 0.0037080921610116993
258 -0.01490964420709718 -0.011280629042348642 0.0061024392085265835
540 -0.0018366525165845024 0.0007306962323382428 -0.005311109419588304
547 0.025992332857651214 0.009662877331510278 -0.024488228492286494
154 -0.008590605317151633 -0.019128720173236892 0.006697460796952876
151 -0.009979900735622348 -0.00894631443531576 -0.013437989081524609
464 -0.04128476985393412 0.010365986944375946 0.005062719949593396
152 0.0012178415477102436 -0.007093195463662101 0.0007829892492566483
156 -0.013264612788653372 0.021984225938286875 -0.015999827802601847
327 0.005586630169131942 0.007896271324686984 0.006649694595567412
325 -0.0058446147995584235 0.0020363102704256003 0.0018463165788174167
326 -0.0050706389915528656 -0.0026231007184825197 -0.006539756689669215
322 -0.00195030864720362 0.0008913051311994041 0.003465721566740827
320 -0.004578475975692556 0.015339674742404477 -0.005071705341685603
65 0.005989157859570408 -0.007319499122363984 -0.0008412098181636836
542 -0.007011255623221557 0.0007803484276287773 0.0032715794751247344
46 -0.017245359809195372 0.016409345494810747 0.02235329511660645
64 -0.004641565324490151 0.003538376199386108 0.007795153719399475
48 0.011053208389087169 -0.015324217644533223 -0.007847617602630622
67 0.0036974248210010527 -0.0014496427950492802 -0.004568969954700235
69 0.00678968580026804 -0.003592101366338285 0.0049842349934877
44 0.009541802686290346 0.011622797678243547 0.010862270243894424
70 -0.0011613333521424006 0.007916508745199887 0.0015143874408464688
63 -0.0053974136893828704 0.00024781432196843337 0.003607435343933667
539 0.003550603719104856 -0.0104035491754978 0.018853297335663842
66 0.0018487504004571019 0.007673529652849575 -0.006220211845472241
72 -0.002513985158798915 -0.002151622497522247 -0.0005532624835527828
68 -0.0077273299044582165 0.002064547401228967 -0.005751450571363092
74 -0.024514100421543197 0.026104629437453383 -0.009209095558734443
257 0.0003002697713730562 0.003471404559090967 0.0019932741945757723
98 0.014851035573297998 -0.00019608244510161866 0.016112937633514145
100 0.02158748537676037 -0.02954393272011237 0.005388646231924987
545 -0.003273232973347469 0.007372812566835417 0.0016684130011232604
317 -0.001083166861304715 0.003907328141248023 -0.002357080424139214
71 0.006952175179156724 0.005884600528713114 -0.009522682581264597
101 -0.012701592201282773 0.007655094750767332 0.017598193722259126
422 0.0037846740898730405 -0.023523747786937766 0.0025949942033049673
423 0.0031466188895940476 -0.0014503145149860593 -0.0037518521670701515
75 -0.010673703634790012 0.01187565025463746 -0.025088288003824906
205 0.0019374527206459948 0.0038890622972344237 0.009241085998266004
107 -0.001840333525063015 -0.0012507079861203893 -0.0012409933488749544
106 -0.0062480018454104 -0.0022088940404329533 0.028307646931402166
362 -0.004150460745104103 -0.018019287061752563 -0.021199362862126474
564 -0.001609382550014778 -0.006129646705065528 -0.0007181604262137559
344 0.0003991370630802399 0.0023053581008060805 -0.006188168890129644
105 4.622086368053691e-06 -0.004954075171700572 0.0051276744220896935
329 0.019069756940047377 -0.043774931688423224 0.03163081535442476
381 -0.004416406640902251 0.007626429931664515 0.0026913413739400906
420 0.004190540737894316 0.0022012541424855404 -0.006363316602284666
360 0.0003238082456523634 -0.0026820309926369433 0.0027319072363696105
356 0.0014315682355016005 0.0050127215215381845 0.0045238128981654035
225 -0.002429560324410498 -0.0010939562857742535 0.028429057951955345
184 0.007729868703863856 0.0005462933932294176 0.0014080880042860921
2 0.004142796924844836 -0.004701925259762677 -0.024013336852958932
85 0.0046653275074126505 0.0015046103690729898 -0.009589895047094387
566 -0.004968272647962742 -0.005528185042174901 -0.009877394429765306
170 0.016202417599249227 -0.018870822617570473 -0.03805359586732195
328 -0.014451131476307 0.005732729648082651 0.004883217046192249
204 0.000967997650163112 0.0014904221315809754 0.004326398091114325
36 0.0046678838064804174 0.016463755112763108 -0.01256241081164754
202 -0.0013056824964010477 -0.005599212818497253 -0.002833178472326511
568 0.002622150860299274 0.0028585761061631514 0.004540562918171037
97 0.0062678877219641375 0.0017778277392346692 -0.01328665347818981
134 -0.017298069909895752 -0.0009661111944664378 -0.0025383835622996144
364 -0.005641405874186122 0.02481440855030937 0.009894347403938216
332 0.03476664788271271 -0.011343713053094777 -0.015256592958245602
33 -0.00358195797571217 0.0013373755236572769 0.0013735509263841238
427 -0.027780430930941524 0.013386922559132628 0.0008924500907003135
365 -0.012750046267879336 0.0029201205166646807 -0.0011795555189680895
95 0.0026538014543415196 -0.006588198339701391 0.0031884563032472894
376 0.02796875610779226 0.035147250300153636 -0.007247549174197111
512 0.006746625081168258 -0.010138733233385763 0.006502952339982347
28 -0.01198336462408837 0.004121698825050115 0.012734632618677381
110 -0.006624576398330479 -0.012933906115608641 -0.0028773147747956844
215 0.005222167084521522 -0.01679628370802082 -0.02714085607107707
218 0.0034948116783802335 0.002254284751331751 0.0032313082130246804
219 -0.010752728627078038 -0.005007946195030823 0.00032901288261716105
109 0.006695287062129715 -0.003021860589825909 0.0006778068169037157
94 -0.009433183914206698 0.011406804465490795 -0.004936452064681682
89 0.011551144883798294 0.007562633221116217 -0.003555421649447582
383 0.006361344138158257 -0.004587649420365623 0.0011445385417882098
93 -0.00838948358571242 0.031144930066307707 -0.014590853048867881
62 -0.0006381597214951552 0.00621515890335521 -0.008704473559466953
87 -0.009764050968427442 0.03129289870566887 -0.024229245747964125
38 -0.0035505098001772117 -0.011128574031404314 0.024967944388994263
371 0.006240096296663405 -0.00243784652510614 0.005523488046807898
83 -0.029034118200933007 0.01568057030345282 -0.013425201289886553
424 -0.00769586807356563 -0.009819863648245702 0.002800760284306805
145 0.001050974833240769 0.020902083282446478 0.003537247015304059
368 0.005015260444757913 0.0020722585151468657 0.0028623453734177434
338 0.018039278393762005 0.03542666156720714 -0.012759651214541264
39 -0.0020524303443235294 -0.0014235732055676287 0.009150797390830568
203 -0.0032254941726398098 -0.01129142859486116 0.010912840122894491
188 0.008152044630831006 0.0016640447922863287 0.003893884128536654
375 0.006026578487816431 -0.01009111472600627 0.009726575552128186
372 0.011269924184420098 -0.001266514465338623 -0.007061169693303313
426 0.0017661009623319702 -0.013693417026507351 0.014188152929114163
266 0.016359226906179882 -0.011703343135607763 -0.003005162803290285
221 0.011634577718336005 -0.009269494679640304 -0.005448753254627227
92 -0.005407491851656797 -0.008368213553973622 0.0033868962082869774
32 -0.003282765932173437 -0.004013869543390966 0.001843887407661442
268 -0.00032302607231653565 -0.0028738877111630177 0.003374987366128387
111 0.0020164156178397656 -0.007219569769436961 -0.0030356011040844687
216 -0.0032427621073188775 -0.005245966959277613 -0.0019832177637316806
369 -7.664030773558143e-05 -0.00022601825438869048 0.0035438327774255686
96 -0.01140370131212894 0.008067907855622301 0.019473218745513072
112 -0.006131284639950184 0.0063324944517887645 -0.005694566683342938
535 0.010584657644535235 0.009794239082467219 -0.004278317131929208
374 -0.0025378174644040117 -0.0011145130833897503 0.006439457809409481
104 0.01833010704308867 -0.013054519711235151 -0.004076520079926018
370 -0.0014961254720355116 0.005350891105231072 0.0014333805154033374
148 -0.004035990327716461 -0.0007055695276530918 -0.009555428999991036
569 -0.00401695053501961 -0.002049093544560562 -0.0007770970770877964
341 0.01722612553397197 -0.034879617873348895 -0.009261987477911359
124 0.003433194025204122 -0.0007945626084912287 0.0010618085701737722
24 0.0037585890840766164 0.005222150179476004 0.005182518853509354
176 0.0013943248965444725 0.00015970627881004945 0.002611959886304259
143 -0.0016368812385139813 -3.1501519174196854e-05 -0.00213874620791493
108 0.005649501193401872 -0.0014138764919449888 -0.0004036744775329137
186 0.0057499993900466525 0.00349568911227812 0.004577221600461331
584 -0.014866007343519708 -0.002619610076943265 0.013032810778604402
469 -0.008055754822245185 0.011698128006741613 -0.000803953028026648
470 0.0031537841455963954 -0.0024271466331360313 0.010221417365555048
331 -0.007760560169532685 -0.002437323899491069 -0.001876829645701628
272 0.004124889825995848 -0.013896655744777796 0.01777813611929806
585 0.0032667298374692384 0.005679985247836037 -0.0007939117268895286
333 0.0036534631211781778 0.0035636343941445 -0.0036278859621445103
516 -0.006365035037254187 -0.002283728557104724 0.00320322435438134
515 0.006839440357708739 -0.0033069901517926007 -0.006294052868918726
514 0.0049821809484129585 0.023483138759000585 -0.017568554881391564
513 0.02576518973726561 0.026614243933023925 -0.003475122204718435
562 0.012227405284659392 0.013719355532945487 0.021382881743502644
475 -0.0022696379807776047 0.003770526440080462 -0.001759987819239852
477 0.002763575719247824 0.0027392696623555987 0.008100335832337723
330 -0.012583985956622516 0.03070616903247454 0.0055586792811828266
526 -0.009474403217745312 0.006443551737075676 0.008214783206991351
165 0.0012275627597521724 -0.0037183275686744517 0.0048790751481302495
476 -0.02216566534649841 -0.004488281459116706 -0.0030183606865756413
478 0.0005671665645233567 -0.0013565823108824691 0.010145804190684265
162 0.0047092793087462476 -0.004833585001781131 -0.001877457426426377
160 0.009391391156410328 -0.0043382507549354875 -0.01629328972736468
523 -0.003736165349872083 0.004721321500332485 -0.009029387160945921
166 0.004131556985460999 -0.0023239855414571016 -0.031583890044440954
161 -0.005523509542442865 -0.02338732685272238 0.004415214682105035
479 0.0026758320764993597 0.003311527599939656 0.0017801048858020478
480 0.004051582172236641 -0.0029464625556668744 0.009723524290555095
481 0.004478609704485734 0.0005969832263127029 0.0006014079640351446
347 -0.0011054764279140295 0.00019933637896907614 0.00454727596108335
164 0.002229498512527196 -0.0036615231625682075 -0.0068213647377059015
127 0.00148452507403394 0.023574121078349046 0.03027696754899668
273 -0.002964898564687427 0.010897877956511632 0.007982056169414277
468 -0.0036645393193831866 0.0159201440575687 -0.017160030817425134
52 0.022075953986085955 -0.0038903360562869234 -0.015588182892336334
60 -0.004929904476820494 -0.003211287100480985 -0.0005571745113138087
563 0.014447343340204111 3.3224514494756614e-06 -0.017138187278540298
443 -0.019894544398003942 0.010866900690897102 0.026557297488968956
308 0.021677405395810045 0.007948761189740488 -0.005255290603968936
482 -0.0009232232353451991 -0.004665185176620096 0.009255846765350947
522 0.004970171929624481 0.012444000175123303 0.008232216866999119
132 -0.0018823543801188623 0.03583351261258667 -0.0040034409150987195
467 -0.0004035139156406282 0.00287830169830634 -0.0033073740244708573
452 0.0013533057682687262 -0.035076026306002935 -0.01297278659005869
81 0.014349810927750698 0.006267904570249976 -0.010036186954251724
55 0.006524430243074126 0.002312159979894864 0.0012893222871205579
120 -0.006698763256393477 -0.006490833278118112 -0.03609557795378408
167 0.026369189762372916 -0.02142709421545811 -0.00540094403804575
245 0.009150485219540995 -0.03772561713822347 0.002743710608308655
54 0.0013722914795316285 0.0005160293268914744 0.005641955831392732
159 -0.0009343395543272258 -0.003325957226826739 0.0021161422659701024
521 -9.225322654318604e-05 0.005717700765943568 -0.000747380871079096
525 0.007308748805994056 -0.01612534107282466 4.847270231023943e-05
519 -0.002648894733929867 0.003184581102326282 0.001573765421851897
182 -0.0009974475608677986 0.00473186946355224 0.0013062513116613608
237 -0.006387793270085639 0.00933447848787155 0.004921385588521117
58 0.0006927740308151112 0.004274719385828006 0.003350349295108631
117 0.003281534495000957 0.00911550148792675 -0.006176252880907136
582 -0.01056879579433409 0.003392735939249359 0.02139509919316494
267 0.004614828854308173 0.007135006325134544 -0.003972713127553122
570 -0.01161771009758874 0.055457487105224815 -0.0061107171536533755
574 -0.0030745175965407635 0.021136532194173625 0.003137294167167539
181 -0.0014945818133298167 -0.0004987898942760699 0.0015498535132449298
51 -0.022843591573471787 0.02056845910839753 -0.01382491152594129
113 -0.006966924016777033 -0.0018733673462640872 -0.0037303365291574873
114 -0.0037560936695015795 0.0029305523465266953 -0.025809678093977374
61 0.022325140098540894 0.012561375477672523 -0.03173226352824726
190 0.005030580554751801 -0.0059718172547502165 0.0047711734088090665
389 -0.011946119106071532 -0.013759274535667622 -0.003758992842294703
115 0.009072710226334412 0.012929089953503923 -0.009504053256927322
565 -0.01866191732936146 0.013879036074529507 -0.01549717740472129
59 -0.0042062512688037035 -0.004470693740738457 0.0037179962105760656
500 -0.0015303423210244252 -0.0011067094551930716 0.007008949625735244
318 0.02685337133303287 0.0053020459139338175 -0.006174801230753056
201 -0.0027198571357230964 -0.000718959900024635 0.003423167510112723
274 0.0016281757573112631 0.00267899819737542 0.003977999596761079
324 -0.002508534147213906 0.005894841655185814 -0.001946155247822567
211 0.007806628787525746 -0.005838584112132097 -0.004334122945770417
236 -0.022431685885760406 0.0018417890951255653 -0.010039100689248718
214 -0.00015959524783555712 0.014720006664569033 0.012610208022285112
358 0.0025363895188828733 -0.0009395413265873289 0.0019976102537038044
290 0.015496250970149072 -0.012643225123453271 -0.01382775528774079
192 -0.020397336193896522 -0.011254394696039406 0.020238763752021324
520 0.005063814249750648 0.005180410956896072 -0.0009375378075914606
577 0.0013703011436326739 0.0010624291868113365 0.0020532443311863987
579 0.008510345520513947 -0.019916014865776942 0.02017602115279759
536 -0.005045349118924354 0.007294156898163944 -0.0007239293897849227
524 -0.022764012124259315 -0.026685525179668462 0.0024528279848152782
578 -0.00520114237935842 0.0067064812099867895 0.0008215102290386603
485 -0.011796566549431597 0.006542083123204093 0.022644606018131896
484 0.0006598264020322546 -0.0009071452034571761 0.002131752834037518
119 0.014996884792355487 0.02678368885623346 0.005328852946847957
226 0.02106849412096578 -0.004757109810616189 -0.009003135479438526
240 -0.017932426605486097 -0.0005070734625691018 -0.007201335712878002
235 7.636997844957048e-05 -0.010468286914285368 0.007275012553783891
491 -0.008371402191316853 -0.00232821928542447 -0.003023118531230698
460 0.021576455391512952 0.005866744438246684 -0.02396182075687073
580 0.0002817607843260224 0.004769884632704342 0.005089123296096109
239 0.004991572621016675 0.0007318141227295828 -0.006268792124196927
233 0.011240750403559058 0.0016362860650032695 0.0049657456251039536
208 -0.0012912200761626324 -0.007568188635866524 0.0018257953023100059
232 -0.005155577622766353 -0.010130779196012943 0.00026470840030777705
490 -0.003381797393234908 -0.0010696105375217228 -0.004789226524852777
492 -0.00030162686128620283 -9.607051268162713e-05 0.0018304734412527821
487 -0.0022431294950907205 0.0012947232002713208 0.004267985086159895
419 0.008852858908537794 0.013316083909513375 -0.010821912054811126
418 -0.0020632608856814296 0.0013426749301470615 -0.0024709833110754128
414 -0.0024755740766146334 0.002853102189507397 -0.0005605341694660308
417 0.005783194339043651 0.005197421830503608 -0.0011338769663914348
416 -0.0031820966670271663 -0.009464490278191144 0.013950631648372118
415 -0.00023424441510257036 0.001118078851523122 0.007157459030900945
413 -0.011205298012135404 0.0014768506247543332 -0.0017850548028447116
455 0.004457235541539079 -0.005825148297691576 -0.008442213173594363
412 -0.006147022867502653 -0.0058643107853917345 0.004329887075381184
581 0.0036486557632915135 -0.0005519657434559866 -0.013968146724855624
493 -0.010424380133674869 0.014475819339501345 0.008015547408539141
549 -0.009373059342729768 -0.012746631580791538 -0.02230844600044878
234 0.0035010736797699035 0.0013325384401362268 -0.0004912062677734143
209 -0.016619823077971944 0.028641965396108745 0.0033350503002376854
118 -0.001787870525981325 -7.571279190287545e-05 0.007159769677471197
238 -0.002019043038288805 -0.0072823197873826614 0.003679857522019942
454 -0.006992776803059641 0.02031264763386984 -0.006081155845505492
411 0.008286270395120733 0.03789617980196162 0.008498220710024757
309 -0.016839479007454024 9.010880447114034e-05 -2.6578261215772766e-05
310 -0.004032371166243654 0.0016424990539957323 -0.005650388666171772
457 -0.009578387811192478 -0.023723677250314594 0.01710556684940711
456 0.0011511936363941906 0.0027192986063600483 -0.000643809563291968
241 0.0009527446732173253 0.0013105893076584506 -0.001998689945239507
486 0.000830544463308368 -0.0015373060181946125 0.0019016995972154437
494 -0.019308063122566003 0.004773322236813877 0.004128530377997517
488 -0.004435364506391612 0.0070386210661818336 -0.004698664342865928
440 0.0072814167413291445 -0.03166987160342845 0.007245177113027833
229 0.0004947190598004053 0.004763094845369398 0.003566293350801882
228 0.0002450998415222088 0.01901945922878272 0.0010613020298401365
306 -0.0005995846014280998 0.004655010702833214 0.009132012247557384
121 0.0049826422299740925 0.009941605789577687 0.010200501456503148
453 -0.009354516549584538 0.002439238067938164 0.004435803253259287
575 -0.004128797167838638 0.002065702396882872 0.00010347448838317215
230 0.009068786776703986 -0.0003232338214237773 0.02475697820956671
518 -0.027637364159609747 -0.008138959389627238 0.012118307546805476
206 -0.0029082267953454005 0.02673908328083442 -0.033255250101954376
20 0.0045187666003488405 -0.004451659728039819 -0.025675244260177223
231 0.0005687945841421215 0.003468226724620567 -0.004760023941073284
22 -0.002694088245941624 -0.003248157233905515 0.004280204268530637
313 0.0006602557452220028 0.0038415060118597855 0.006700013932881964
77 0.00015558994829436264 -0.00457728851604518 -0.0023358441599699705
79 -0.0029147933970579145 0.006049263090045397 -0.00606031852527021
303 0.027894166909802204 -0.004026255372524606 0.02615252974538847
122 0.021921503837673457 0.01271730433459584 -0.02461512720039084
363 0.011941757084985674 0.01055046853985552 -0.017418912005725252
19 0.021072190905564323 -0.011640596262594964 0.00435656391756357
300 0.0009578682841375175 -0.002972397742886406 0.019421535678301464
242 -0.03389474345154072 0.04729335220673455 -0.00221268241777177
316 0.0027605011217659925 0.004972471948497288 0.0010624749884242575
175 -0.003880505119259951 0.027074480844209478 0.006877490274875002
471 -0.007981582024568787 0.02380591988564781 -0.009269826371279773
243 -0.0033438477291975015 0.00020491277653036328 0.00266015844709664
88 -0.004293782145488668 -0.0072607068942299865 0.0028243906342357563
351 0.006918511609861409 -0.002730547961288438 0.0059958460046768604
173 0.005709293380539728 0.0050156480849753255 -0.0032596191692456688
141 0.019012726145933193 0.001479218799326946 -0.04149308023860869
244 -0.0010630373182410268 -0.002704223820982578 0.0047688617463127565
82 -0.011570418769909814 -0.03227413472404382 -0.0005934378364640853
459 -0.012309939000158478 -0.0295469391654846 0.00949511281147048
253 0.015972151404855046 0.002762620245359154 0.023458359507096776
246 0.003682092447795363 0.006193456321040851 -0.035747706534463505
541 0.005084679621530086 0.0056848382678641105 0.024055287077094374
247 -0.0031926901460547523 0.0036927201188568857 0.0033275840185032473
76 0.007412223278940506 0.014674478981376098 0.007271998976071539
78 0.009989713207148613 -0.002152420589526157 0.002265985379555031
80 0.01164134881499645 -0.042794747185930355 -0.011024947128330931
537 -0.015614752141942051 -0.02220631419365351 -0.00303861007601028
319 -0.0008269787697672503 -0.001913045658638084 -0.011584657143061117
404 -0.0012181342531055379 0.004829208383619298 0.005147798711006486
509 -0.022231878577054408 0.00016485360883891463 0.0036379374718209256
583 0.015915182419394245 -0.006511430520716325 0.010248062271590318
561 -0.0033936447060400454 -0.00045046697259183124 -0.004709585211192798
406 -0.0008207044761060956 7.282500189186186e-06 -0.005876686365282793
405 -0.0010070320842452693 -0.0015294424211455859 0.0013383297002050594
538 -0.03906872779536156 -0.009764546083457353 0.012495533629688828
544 0.005616322369680611 -0.0019006482336384972 -0.001203412493016007
548 -0.039122067436533035 -0.04186241421228776 0.025588519705231603
408 0.005328474165803214 0.006715246351593442 -0.021897683008197052
410 0.006533334465743904 0.006340317982586055 -0.0013382680363902108
543 0.00013629344377902623 0.004663905162526362 -0.004777802332696119
402 -0.008445239814254376 0.0014047509895660092 -0.007028361779404193
510 0.0013537877445520647 0.001747992528594909 -0.002883317606049947
409 -0.005693056598666619 -0.023838282979695175 -0.008911176331062637
511 0.0020218631203066176 -0.010206972693196729 0.001547814361098949
552 0.013503019901980086 0.006772763145513278 -0.023635443211318878
86 -0.009045681156891241 -0.0015758468066459674 -0.006807340643829114
461 0.0043426034491920945 0.0016253390307705163 0.0014230102237302903
252 -0.004970938920491582 0.007962059683530798 0.003676380251698558
462 -0.011034158579655892 0.009057528049224238 -0.006762454325800266
200 -0.004568018569914726 -0.005045263722878812 0.012281245016553612
400 0.00018103306535775066 -0.006409145457042928 0.0016165259363192647
90 -0.020303282486470998 -0.014564307843522271 -0.006167596804532185
197 0.0034819577132614975 -0.004256761058741606 -0.0133235531009911
198 0.008666537560935795 0.01888872540797471 0.02052110492123438
171 0.033513838002412255 -0.01091649708219369 -0.005224635999327089
84 -0.0015705727789749031 -0.00761097460345495 -0.0030122016909806134
144 -0.02553901195985132 -0.0038523264886687176 0.02303680231743869
559 0.0013642496177405806 0.001801413063354912 -0.0009434952622796245
199 0.004481165427349792 -0.004067285073260983 -0.003632762091439792
163 -0.001999131365342387 -0.0015259343359552212 -0.01609386493699269
195 0.0031867313075722363 -0.004014540809841058 0.006162168404815794
558 0.0027755030788385038 -0.005064727526797305 -0.002444346803919751
398 0.015591211152477578 -0.003586357258654955 -0.00695326469841914
147 -3.785491270456152e-05 -0.006918482478389929 -0.01453459728411278
142 -0.007781116619987565 -0.0018911474222117078 -0.0031364888629858323
556 0.004770815244192219 -0.0014094231269578131 0.001968082749659109
149 0.0037145595897695297 -0.0004242781498807877 -0.008846207149493295
311 0.003342207461042165 -0.00035106242015702904 0.008562935478237724
465 -0.006895528352905429 0.010864053805000398 -0.011045336248109829
146 0.001108260318772024 -9.74471669283165e-05 0.0013791265359656116
30 -0.0048524028636071 0.002200093778424259 0.0033861806043447773
31 0.003301759808086912 -0.002793345719918646 -0.005303097857007725
495 0.02062407633953089 -0.0031708528098227757 0.0067606491150652166
259 0.02760191802625937 -0.010504186459309481 -0.003587924716635003
196 0.0006265196029906209 -0.0021032686017316087 -0.012054916757881558
504 0.0008070937429446885 0.0013814544874561697 0.0013438657158015214
434 0.003816517951689809 -0.00796919069100354 -0.00036241664211658707
296 0.018487127227697145 -0.010133117966722758 -0.020652956169075164
255 -0.0009674120308984458 -0.006384136604873637 -0.010428684797424951
501 0.0038822370092208773 0.002775934899960736 -0.00019544914881515556
553 0.007720512204250467 -0.0038605540601167054 -0.006738757084308185
35 -0.0022446460446198303 0.00845496328552071 -0.0028191843271121995
573 0.0003199498636751549 0.004238626245806508 -0.00629933118163679
377 -0.005322560378373638 0.01028567088492043 -0.01696142189733113
304 -0.003304499910493507 -0.0031228282219569487 -0.0053460595316853566
158 0.011410817724452174 0.003890585601749288 -0.03161087909506755
194 -0.0009238130796702943 -0.01014360716875409 0.007358050134992142
37 -0.004717229761530142 0.006239153224301708 0.014109688356208957
34 -0.007784747695949356 0.006319091234280084 -0.006649958091468882
29 0.00656791712027076 -0.0022115777558327837 -0.005102677846326332
431 -0.024549047761982617 -0.01399231329290502 -0.010314963571985553
560 -6.355192651854651e-06 -0.00011548635951747723 0.001087818515851425
557 0.0003613873054350557 0.00507073049648192 -0.0025418759761402093
260 0.0023089406117073785 0.0022521388382724036 0.008019139814440218
298 0.0016352547574732196 -0.0007643037431190731 0.00812392735467358
155 -0.005207666898924499 -0.0054655788451455824 -0.0003769278257963448
153 -0.012992119260954027 0.01364814366400569 0.030728865155960593
25 0.0012555369730848167 0.0029202915786958297 -0.0015244973237455977
23 0.0061232820972740255 0.006916358172020219 0.0010494531880043882
307 -0.0017693475408187963 -0.023864505376755194 0.0060807893576578205
429 -0.028473974122960363 0.012026771597736475 -0.003462089118816197
497 0.0023688868151435084 -0.0036892948637539443 0.002735508999964588
27 -0.002043219872289399 0.012222660858479532 -0.010250200358000484
496 -0.010905099461347585 -0.009028258940165203 -0.039959125271486776
506 -0.0026532830810160586 -0.00040722978093389833 0.00026303558285739
498 0.008935301413126815 -0.002498089179605727 -0.002003021789229894
397 0.002275462634620804 0.00019474201410473515 0.0009115898066177815
437 0.010219456408486387 0.006426883263933577 -0.013322036762902991
396 -0.018823232207527907 0.014710475407445063 -0.019945003274532636
502 0.00014759793724306548 0.004825522660982429 0.00408311110817869
295 -0.003650153415404152 -0.002814713125486753 -0.007632615016683544
305 0.0008378317104262438 0.003782295624892404 0.003202817413180149
395 0.011077444444908987 -0.0008702116982036046 0.03859883038902932
441 -0.024552179810307165 0.00469880200922149 -0.004562887193832839
21 0.026293179235524766 0.0015379024536033715 -0.009362382936792838
265 -0.002815947384210266 0.024751913649866016 -0.0025530420062775737
301 -0.00024274204775705406 0.0019458957328865778 0.003036859174684313
256 -0.00555334792044081 -0.019453644540092796 0.009208012506782624
220 -0.009974560596371357 -8.658779083676904e-05 -0.0032361194682339243
550 0.018732818849494605 -0.029374503405900847 0.016996608113130193
445 0.00300375916920589 0.002856725737167668 0.00023815574804639781
435 0.0032329324370315047 -0.006451079472777746 0.000701156192012452
312 0.002472295599574615 0.003102476783200969 -0.0010885191852912908
438 -0.001926839286054417 0.0026296942794758753 0.0028386679547609582
551 0.0036609477932788475 0.007137276256670919 0.00018492713217608677
442 -0.0008176611881018021 -0.0052347229387625024 0.00640227268216056
393 0.002371058406396273 0.0030909275239980488 -0.004420105237998487
302 -0.0014685282661091805 0.00016202978049731134 0.004347074108903881
499 -0.00675979397541047 -0.0033211592274994374 -0.004339606427727579
503 -0.004295567778535119 -0.0016423668578879203 -0.002068571845172359
555 0.0021815466775736408 -0.011636271031834757 0.005319922759355253
436 0.00207251391377138 -0.004047607454279766 0.0017460668351390114
439 0.004636409038823089 -0.00015924067783366187 0.003686155776598759
463 0.005365823867701233 -0.017344498173177875 -0.005045872720505889
458 0.0018869334821198331 -0.0004114481497809079 0.0058886181369469425
262 -0.0011211794150719889 -0.0036965782515712723 -0.0027580687874367645
433 -0.011580936913687185 0.029791890727624747 0.00969394006350185
261 -0.004854378281986302 -0.004048059180208356 -0.03537123315831545
217 -0.008539907039977156 -0.0013316030037280892 0.005691725897993591
299 -0.0005984532179720066 -0.009653705317704772 -0.006329718833325844
263 0.004050467264465817 0.0030331496706948887 0.00194996340199673
554 0.0022809357787846366 -0.0003717781731103364 -0.004533008715267272
293 0.014465201572296225 0.02371716856054965 -0.008087336341932452
444 -1.283498678749038e-05 -0.011612096229374284 0.004887513674831678
394 -0.0029874524130504804 0.0008524605077830006 -0.002862039467362148
473 -0.002458351601691644 -0.005222445944320685 0.005488579527563757
571 -0.00745006909679171 0.0058533525897435865 0.007502758483754625
157 -0.029153225436438016 -0.04687611575009769 0.034362465241326634
264 -0.024925153604386314 -0.014213514810206149 -0.03502252459612339

Bonds

1 15 283 285
2 13 283 281
3 13 281 278
4 15 278 116
5 13 277 280
6 14 277 275
7 4 282 280
8 1 282 287
9 5 282 279
10 5 282 483
11 13 280 283
12 13 276 277
13 13 276 278
14 12 379 193
15 11 379 378
16 5 403 401
17 5 403 407
18 5 403 399
19 5 287 289
20 5 287 288
21 5 287 489
22 13 49 47
23 14 49 50
24 13 47 174
25 14 47 45
26 16 174 169
27 13 174 176
28 3 223 379
29 7 223 193
30 5 223 222
31 5 223 224
32 13 177 49
33 13 177 124
34 17 286 285
35 17 449 285
36 17 227 116
37 13 15 13
38 13 13 11
39 14 13 53
40 3 41 43
41 7 41 39
42 5 41 42
43 5 41 40
44 8 430 380
45 3 430 379
46 5 430 432
47 5 430 428
48 14 11 10
49 4 56 15
50 4 56 177
51 5 56 132
52 5 56 57
53 7 269 466
54 3 269 472
55 5 269 271
56 5 269 270
57 12 472 466
58 11 472 474
59 12 531 527
60 11 531 533
61 4 345 349
62 1 345 403
63 5 345 346
64 5 345 340
65 13 349 354
66 4 187 186
67 4 187 185
68 5 187 189
69 5 187 183
70 13 17 15
71 14 17 18
72 14 180 179
73 8 168 169
74 3 168 43
75 5 168 167
76 5 168 172
77 8 367 369
78 3 367 368
79 5 367 364
80 5 367 365
81 18 73 139
82 7 528 527
83 3 528 531
84 5 528 507
85 5 528 529
86 14 352 290
87 13 136 135
88 14 136 191
89 13 135 130
90 14 135 137
91 13 185 136
92 13 185 180
93 3 250 251
94 7 250 125
95 5 250 103
96 5 250 102
97 8 131 129
98 3 131 251
99 5 131 134
100 5 131 133
101 13 128 180
102 14 128 126
103 3 532 531
104 8 532 534
105 5 532 508
106 5 532 530
107 16 384 380
108 13 384 388
109 13 343 342
110 14 343 339
111 16 130 129
112 13 130 128
113 13 388 392
114 14 388 387
115 14 392 335
116 13 334 390
117 13 334 392
118 13 386 384
119 14 386 382
120 13 390 386
121 14 390 391
122 13 342 348
123 13 350 343
124 14 350 517
125 16 353 358
126 13 353 350
127 13 353 352
128 3 8 4
129 8 8 9
130 5 8 6
131 5 8 7
132 12 4 1
133 11 4 5
134 7 294 291
135 3 294 123
136 5 294 297
137 5 294 249
138 4 337 342
139 4 337 334
140 5 337 338
141 5 337 336
142 12 123 291
143 11 123 292
144 13 14 17
145 14 14 16
146 16 12 9
147 13 12 14
148 13 12 11
149 7 210 213
150 3 210 211
151 5 210 207
152 5 210 212
153 13 348 352
154 14 348 284
155 12 251 125
156 11 251 248
157 7 3 1
158 3 3 4
159 5 3 99
160 5 3 2
161 16 26 534
162 13 26 22
163 13 26 32
164 12 43 39
165 11 43 170
166 13 321 320
167 15 91 95
168 14 421 420
169 4 447 281
170 5 447 446
171 5 447 450
172 5 447 448
173 13 323 321
174 14 323 324
175 13 425 374
176 14 425 426
177 4 361 356
178 5 361 363
179 5 361 360
180 5 361 362
181 17 355 357
182 15 354 357
183 13 354 356
184 17 359 357
185 10 140 139
186 9 140 138
187 17 540 542
188 17 547 542
189 17 464 317
190 4 152 322
191 5 152 154
192 5 152 151
193 5 152 150
194 17 156 327
195 15 325 327
196 13 326 323
197 13 326 325
198 13 322 325
199 13 320 322
200 15 320 317
201 15 65 542
202 13 65 67
203 13 64 65
204 13 67 70
205 4 69 67
206 5 69 46
207 5 69 44
208 5 69 48
209 15 70 72
210 4 63 64
211 1 63 545
212 5 63 98
213 5 63 539
214 13 66 64
215 14 66 100
216 13 68 66
217 13 68 70
218 17 74 72
219 6 257 72
220 2 257 140
221 5 257 254
222 5 257 258
223 5 545 576
224 5 545 572
225 5 545 546
226 4 71 68
227 5 71 75
228 5 71 101
229 13 423 421
230 14 423 422
231 13 344 349
232 14 344 341
233 3 105 108
234 7 105 107
235 5 105 104
236 5 105 106
237 17 329 327
238 13 356 351
239 1 85 89
240 5 85 110
241 5 85 83
242 5 85 87
243 4 328 326
244 5 328 385
245 5 328 332
246 1 204 71
247 5 204 203
248 5 204 202
249 5 204 205
250 12 568 564
251 11 568 565
252 17 97 95
253 13 33 32
254 14 33 36
255 13 218 425
256 13 218 216
257 4 219 424
258 4 219 218
259 5 219 221
260 5 219 427
261 15 109 155
262 13 109 112
263 4 89 111
264 5 89 225
265 5 89 62
266 1 383 328
267 5 383 512
268 5 383 381
269 5 383 389
270 16 371 369
271 13 371 188
272 13 424 423
273 12 368 370
274 11 368 366
275 13 188 216
276 14 188 184
277 3 372 368
278 7 372 370
279 5 372 375
280 5 372 373
281 4 92 112
282 5 92 93
283 5 92 94
284 5 92 38
285 14 32 535
286 13 268 267
287 14 268 266
288 13 111 268
289 13 111 91
290 14 216 215
291 17 96 95
292 13 112 91
293 13 374 371
294 14 374 376
295 13 148 146
296 14 148 145
297 3 569 568
298 7 569 564
299 5 569 451
300 5 569 567
301 14 124 127
302 13 24 148
303 14 24 28
304 13 176 124
305 14 176 120
306 12 108 107
307 11 108 19
308 13 186 182
309 16 469 467
310 13 469 470
311 13 469 331
312 13 470 585
313 14 470 468
314 14 331 330
315 13 585 516
316 14 585 584
317 13 333 331
318 14 333 272
319 13 516 333
320 4 515 516
321 4 515 475
322 5 515 513
323 5 515 514
324 13 475 477
325 13 475 478
326 13 477 479
327 14 477 562
328 4 165 347
329 5 165 164
330 5 165 166
331 14 478 476
332 1 162 165
333 5 162 160
334 5 162 161
335 5 162 159
336 7 523 519
337 3 523 521
338 5 523 522
339 5 523 526
340 13 479 482
341 14 479 563
342 13 480 478
343 14 480 481
344 13 347 344
345 13 347 351
346 13 60 190
347 14 60 61
348 16 482 484
349 13 482 480
350 3 55 79
351 8 55 59
352 5 55 54
353 5 55 52
354 12 521 519
355 11 521 525
356 13 182 181
357 14 182 178
358 16 58 59
359 13 58 60
360 13 58 181
361 13 267 109
362 14 181 51
363 1 113 274
364 5 113 115
365 5 113 158
366 5 113 157
367 17 114 116
368 13 190 186
369 14 190 192
370 16 500 501
371 13 500 498
372 18 318 559
373 13 201 404
374 14 201 237
375 4 274 276
376 5 274 117
377 5 274 273
378 12 211 213
379 11 211 214
380 3 520 521
381 8 520 358
382 5 520 518
383 5 520 524
384 13 577 578
385 14 577 574
386 14 578 579
387 13 235 239
388 14 235 236
389 13 580 456
390 13 580 578
391 14 239 240
392 13 233 235
393 3 208 211
394 8 208 413
395 5 208 206
396 5 208 209
397 13 232 233
398 14 232 230
399 12 490 486
400 11 490 488
401 3 492 490
402 7 492 486
403 5 492 493
404 5 492 494
405 8 487 484
406 3 487 490
407 5 487 485
408 5 487 491
409 13 418 417
410 14 418 419
411 16 414 413
412 13 414 415
413 13 414 412
414 13 417 455
415 13 415 418
416 14 415 416
417 13 455 412
418 14 455 454
419 14 412 411
420 4 581 417
421 4 581 580
422 5 581 460
423 5 581 549
424 13 234 232
425 14 234 118
426 16 238 241
427 13 238 234
428 13 238 239
429 3 310 312
430 8 310 306
431 5 310 309
432 5 310 377
433 13 456 453
434 14 456 457
435 4 229 233
436 4 229 231
437 5 229 228
438 5 229 226
439 3 121 123
440 8 121 241
441 5 121 119
442 5 121 122
443 13 453 575
444 14 453 452
445 16 575 573
446 13 575 577
447 13 231 201
448 13 231 445
449 13 22 23
450 14 22 20
451 12 79 77
452 11 79 81
453 17 175 173
454 15 351 173
455 7 244 243
456 3 244 247
457 5 244 242
458 5 244 245
459 12 247 243
460 11 247 246
461 7 78 77
462 3 78 79
463 5 78 80
464 5 78 76
465 4 319 321
466 1 319 510
467 5 319 316
468 5 319 465
469 13 404 400
470 14 404 409
471 8 561 558
472 2 561 86
473 5 561 90
474 5 561 537
475 8 406 402
476 3 406 405
477 5 406 410
478 5 406 408
479 12 405 543
480 11 405 538
481 3 544 405
482 7 544 543
483 5 544 548
484 5 544 541
485 5 510 583
486 5 510 509
487 5 510 511
488 10 86 559
489 9 86 88
490 3 252 247
491 8 252 461
492 5 252 253
493 5 252 459
494 16 462 461
495 13 462 255
496 13 462 421
497 16 400 402
498 13 400 397
499 12 197 199
500 11 197 200
501 17 171 173
502 6 84 317
503 2 84 86
504 5 84 82
505 5 84 552
506 3 195 197
507 8 195 394
508 5 195 163
509 5 195 398
510 8 142 143
511 2 142 140
512 5 142 144
513 5 142 141
514 16 556 558
515 13 556 560
516 13 149 25
517 14 149 147
518 7 311 313
519 3 311 312
520 5 311 308
521 5 311 314
522 16 146 143
523 13 146 149
524 13 30 33
525 4 31 30
526 4 31 29
527 5 31 35
528 5 31 34
529 7 196 199
530 3 196 197
531 5 196 198
532 5 196 194
533 8 504 501
534 3 504 108
535 5 504 506
536 5 504 582
537 4 434 436
538 4 434 555
539 5 434 431
540 5 434 429
541 13 255 217
542 14 255 256
543 13 553 554
544 14 553 550
545 16 304 306
546 13 304 301
547 13 304 305
548 17 37 155
549 13 29 24
550 13 29 25
551 13 560 557
552 14 560 536
553 14 557 440
554 13 298 299
555 14 298 296
556 17 153 155
557 14 25 27
558 13 23 30
559 14 23 21
560 14 497 495
561 13 498 497
562 14 498 496
563 13 397 445
564 14 397 396
565 13 502 503
566 14 502 463
567 4 295 299
568 4 295 499
569 5 295 293
570 5 295 458
571 14 305 307
572 13 301 298
573 14 301 300
574 14 445 444
575 13 435 436
576 14 435 433
577 12 312 313
578 11 312 315
579 13 438 435
580 14 438 437
581 16 442 394
582 13 442 438
583 13 442 393
584 14 393 395
585 13 302 305
586 14 302 303
587 13 499 502
588 13 499 497
589 13 503 500
590 14 503 505
591 13 555 553
592 13 555 557
593 13 436 439
594 13 439 393
595 14 439 441
596 4 262 267
597 1 262 263
598 5 262 261
599 5 262 260
600 13 217 424
601 14 217 220
602 13 299 302
603 5 263 264
604 5 263 259
605 5 263 265
606 13 554 556
607 14 554 551
608 3 473 472
609 8 473 467
610 5 473 471
611 5 473 443
612 8 571 573
613 3 571 568
614 5 571 566
615 5 571 570

Angles

1 26 280 283 285
2 24 280 283 281
3 26 281 283 285
4 9 447 281 283
5 24 283 281 278
6 9 447 281 278
7 24 276 278 281
8 26 276 278 116
9 26 281 278 116
10 24 276 277 280
11 25 276 277 275
12 25 280 277 275
13 1 287 282 280
14 23 280 282 279
15 23 280 282 483
16 2 287 282 279
17 29 279 282 483
18 2 287 282 483
19 9 282 280 277
20 24 277 280 283
21 9 282 280 283
22 9 274 276 277
23 9 274 276 278
24 24 277 276 278
25 6 430 379 223
26 8 430 379 193
27 7 430 379 378
28 7 223 379 378
29 34 378 379 193
30 8 223 379 193
31 2 345 403 401
32 2 345 403 407
33 2 345 403 399
34 29 401 403 407
35 29 401 403 399
36 29 407 403 399
37 2 282 287 289
38 2 282 287 288
39 2 282 287 489
40 29 289 287 288
41 29 289 287 489
42 29 288 287 489
43 24 177 49 47
44 25 177 49 50
45 25 47 49 50
46 24 49 47 174
47 25 49 47 45
48 25 174 47 45
49 27 47 174 169
50 24 47 174 176
51 27 176 174 169
52 20 379 223 193
53 19 379 223 222
54 19 379 223 224
55 31 222 223 193
56 29 222 223 224
57 31 224 223 193
58 13 223 193 379
59 9 56 177 49
60 9 56 177 124
61 24 49 177 124
62 28 283 285 286
63 28 283 285 449
64 35 286 285 449
65 14 168 169 174
66 28 278 116 227
67 28 278 116 114
68 35 227 116 114
69 13 269 466 472
70 9 56 15 17
71 24 17 15 13
72 9 56 15 13
73 24 15 13 11
74 25 15 13 53
75 25 11 13 53
76 20 43 41 39
77 19 43 41 42
78 19 43 41 40
79 31 42 41 39
80 29 42 41 40
81 31 40 41 39
82 21 379 430 380
83 32 432 430 380
84 32 428 430 380
85 19 379 430 432
86 29 432 430 428
87 19 379 430 428
88 24 12 11 13
89 25 12 11 10
90 25 13 11 10
91 13 528 527 531
92 22 15 56 177
93 23 15 56 132
94 23 15 56 57
95 23 177 56 132
96 29 132 56 57
97 23 177 56 57
98 31 271 269 466
99 19 472 269 271
100 29 271 269 270
101 31 270 269 466
102 19 472 269 270
103 20 472 269 466
104 6 269 472 473
105 8 269 472 466
106 7 269 472 474
107 7 473 472 474
108 34 474 472 466
109 8 473 472 466
110 6 528 531 532
111 8 528 531 527
112 7 528 531 533
113 7 532 531 533
114 34 533 531 527
115 8 532 531 527
116 1 403 345 349
117 23 349 345 346
118 23 349 345 340
119 2 403 345 346
120 29 346 345 340
121 2 403 345 340
122 9 345 349 344
123 24 344 349 354
124 9 345 349 354
125 22 186 187 185
126 23 186 187 189
127 23 186 187 183
128 23 185 187 189
129 29 189 187 183
130 23 185 187 183
131 24 14 17 15
132 25 14 17 18
133 25 15 17 18
134 24 185 180 128
135 25 185 180 179
136 25 128 180 179
137 21 43 168 169
138 32 167 168 169
139 32 172 168 169
140 19 43 168 167
141 29 167 168 172
142 19 43 168 172
143 21 368 367 369
144 32 364 367 369
145 32 365 367 369
146 19 368 367 364
147 29 364 367 365
148 19 368 367 365
149 31 507 528 527
150 19 531 528 507
151 29 507 528 529
152 31 529 528 527
153 19 531 528 529
154 20 531 528 527
155 18 140 139 73
156 24 353 352 348
157 25 353 352 290
158 25 348 352 290
159 24 185 136 135
160 25 185 136 191
161 25 135 136 191
162 24 136 135 130
163 25 136 135 137
164 25 130 135 137
165 9 187 185 136
166 9 187 185 180
167 24 136 185 180
168 20 251 250 125
169 19 251 250 103
170 19 251 250 102
171 31 103 250 125
172 29 103 250 102
173 31 102 250 125
174 21 251 131 129
175 32 134 131 129
176 32 133 131 129
177 19 251 131 134
178 29 134 131 133
179 19 251 131 133
180 24 130 128 180
181 25 130 128 126
182 25 180 128 126
183 21 531 532 534
184 19 531 532 508
185 19 531 532 530
186 32 508 532 534
187 29 508 532 530
188 32 530 532 534
189 14 430 380 384
190 27 386 384 380
191 24 386 384 388
192 27 388 384 380
193 24 350 343 342
194 25 350 343 339
195 25 342 343 339
196 27 135 130 129
197 24 135 130 128
198 27 128 130 129
199 24 384 388 392
200 25 384 388 387
201 25 392 388 387
202 24 334 392 388
203 25 334 392 335
204 25 388 392 335
205 9 337 334 390
206 9 337 334 392
207 24 390 334 392
208 24 390 386 384
209 25 390 386 382
210 25 384 386 382
211 24 334 390 386
212 25 334 390 391
213 25 386 390 391
214 13 250 125 251
215 9 337 342 343
216 24 343 342 348
217 9 337 342 348
218 24 353 350 343
219 25 353 350 517
220 25 343 350 517
221 27 350 353 358
222 27 352 353 358
223 24 350 353 352
224 21 4 8 9
225 19 4 8 6
226 19 4 8 7
227 32 6 8 9
228 29 6 8 7
229 32 7 8 9
230 6 3 4 8
231 8 3 4 1
232 7 3 4 5
233 7 8 4 5
234 34 5 4 1
235 8 8 4 1
236 31 297 294 291
237 19 123 294 297
238 29 297 294 249
239 31 249 294 291
240 19 123 294 249
241 20 123 294 291
242 22 342 337 334
243 23 342 337 338
244 23 342 337 336
245 23 334 337 338
246 29 338 337 336
247 23 334 337 336
248 13 210 213 211
249 6 294 123 121
250 8 294 123 291
251 7 294 123 292
252 7 121 123 292
253 34 292 123 291
254 8 121 123 291
255 13 294 291 123
256 24 12 14 17
257 25 12 14 16
258 25 17 14 16
259 14 131 129 130
260 14 8 9 12
261 27 14 12 9
262 27 11 12 9
263 24 14 12 11
264 14 532 534 26
265 31 207 210 213
266 19 211 210 207
267 29 207 210 212
268 31 212 210 213
269 19 211 210 212
270 20 211 210 213
271 13 3 1 4
272 24 342 348 352
273 25 342 348 284
274 25 352 348 284
275 6 131 251 250
276 8 131 251 125
277 7 131 251 248
278 7 250 251 248
279 34 248 251 125
280 8 250 251 125
281 31 99 3 1
282 19 4 3 99
283 29 99 3 2
284 31 2 3 1
285 19 4 3 2
286 20 4 3 1
287 27 22 26 534
288 27 32 26 534
289 24 22 26 32
290 6 168 43 41
291 8 168 43 39
292 7 168 43 170
293 7 41 43 170
294 34 170 43 39
295 8 41 43 39
296 9 319 321 323
297 24 323 321 320
298 9 319 321 320
299 24 111 91 112
300 26 111 91 95
301 26 112 91 95
302 24 462 421 423
303 25 462 421 420
304 25 423 421 420
305 23 281 447 446
306 23 281 447 450
307 23 281 447 448
308 29 446 447 450
309 29 446 447 448
310 29 450 447 448
311 24 326 323 321
312 25 326 323 324
313 25 321 323 324
314 24 218 425 374
315 25 218 425 426
316 25 374 425 426
317 23 356 361 363
318 23 356 361 360
319 23 356 361 362
320 29 363 361 360
321 29 363 361 362
322 29 360 361 362
323 26 349 354 357
324 24 349 354 356
325 26 356 354 357
326 28 354 357 359
327 28 354 357 355
328 35 359 357 355
329 3 257 140 142
330 5 257 140 139
331 4 257 140 138
332 4 142 140 138
333 33 138 140 139
334 5 142 140 139
335 23 322 152 154
336 23 322 152 151
337 23 322 152 150
338 29 154 152 151
339 29 154 152 150
340 29 151 152 150
341 28 325 327 156
342 28 325 327 329
343 35 156 327 329
344 24 326 325 322
345 26 326 325 327
346 26 322 325 327
347 9 328 326 323
348 9 328 326 325
349 24 323 326 325
350 9 152 322 320
351 24 320 322 325
352 9 152 322 325
353 24 321 320 322
354 26 322 320 317
355 26 321 320 317
356 26 64 65 542
357 24 64 65 67
358 26 67 65 542
359 28 65 542 547
360 28 65 542 540
361 35 547 542 540
362 9 63 64 66
363 24 66 64 65
364 9 63 64 65
365 9 69 67 65
366 24 65 67 70
367 9 69 67 70
368 23 67 69 46
369 23 67 69 44
370 23 67 69 48
371 29 46 69 44
372 29 46 69 48
373 29 44 69 48
374 24 68 70 67
375 26 68 70 72
376 26 67 70 72
377 1 545 63 64
378 23 64 63 98
379 23 64 63 539
380 2 545 63 98
381 29 98 63 539
382 2 545 63 539
383 24 68 66 64
384 25 68 66 100
385 25 64 66 100
386 11 257 72 70
387 28 70 72 74
388 12 257 72 74
389 9 71 68 66
390 9 71 68 70
391 24 66 68 70
392 16 140 257 72
393 30 254 257 72
394 30 258 257 72
395 15 140 257 254
396 29 254 257 258
397 15 140 257 258
398 2 63 545 576
399 2 63 545 572
400 2 63 545 546
401 29 576 545 572
402 29 576 545 546
403 29 572 545 546
404 11 84 317 320
405 28 320 317 464
406 12 84 317 464
407 1 204 71 68
408 2 204 71 75
409 2 204 71 101
410 23 68 71 75
411 29 75 71 101
412 23 68 71 101
413 24 424 423 421
414 25 424 423 422
415 25 421 423 422
416 13 105 107 108
417 13 569 564 568
418 24 347 344 349
419 25 347 344 341
420 25 349 344 341
421 20 108 105 107
422 19 108 105 104
423 19 108 105 106
424 31 104 105 107
425 29 104 105 106
426 31 106 105 107
427 9 361 356 354
428 24 354 356 351
429 9 361 356 351
430 2 89 85 110
431 29 110 85 83
432 29 110 85 87
433 2 89 85 83
434 29 83 85 87
435 2 89 85 87
436 1 383 328 326
437 2 383 328 385
438 2 383 328 332
439 23 326 328 385
440 29 385 328 332
441 23 326 328 332
442 2 71 204 203
443 29 203 204 202
444 29 203 204 205
445 2 71 204 202
446 29 202 204 205
447 2 71 204 205
448 6 571 568 569
449 8 571 568 564
450 7 571 568 565
451 7 569 568 565
452 34 565 568 564
453 8 569 568 564
454 24 30 33 32
455 25 30 33 36
456 25 32 33 36
457 28 91 95 97
458 28 91 95 96
459 35 97 95 96
460 9 219 218 425
461 9 219 218 216
462 24 425 218 216
463 22 424 219 218
464 23 424 219 221
465 23 424 219 427
466 23 218 219 221
467 29 221 219 427
468 23 218 219 427
469 26 267 109 155
470 24 267 109 112
471 26 112 109 155
472 1 85 89 111
473 2 85 89 225
474 2 85 89 62
475 23 111 89 225
476 29 225 89 62
477 23 111 89 62
478 2 328 383 512
479 29 512 383 381
480 29 512 383 389
481 2 328 383 381
482 29 381 383 389
483 2 328 383 389
484 27 374 371 369
485 24 374 371 188
486 27 188 371 369
487 9 219 424 217
488 24 217 424 423
489 9 219 424 423
490 6 367 368 372
491 8 367 368 370
492 7 367 368 366
493 7 372 368 366
494 34 366 368 370
495 8 372 368 370
496 13 41 39 43
497 24 371 188 216
498 25 371 188 184
499 25 216 188 184
500 20 368 372 370
501 19 368 372 375
502 19 368 372 373
503 31 375 372 370
504 29 375 372 373
505 31 373 372 370
506 23 112 92 93
507 23 112 92 94
508 23 112 92 38
509 29 93 92 94
510 29 93 92 38
511 29 94 92 38
512 24 26 32 33
513 25 26 32 535
514 25 33 32 535
515 24 111 268 267
516 25 111 268 266
517 25 267 268 266
518 9 89 111 268
519 9 89 111 91
520 24 268 111 91
521 24 218 216 188
522 25 218 216 215
523 25 188 216 215
524 14 367 369 371
525 9 92 112 109
526 24 109 112 91
527 9 92 112 91
528 24 425 374 371
529 25 425 374 376
530 25 371 374 376
531 13 372 370 368
532 24 24 148 146
533 25 24 148 145
534 25 146 148 145
535 20 568 569 564
536 19 568 569 451
537 19 568 569 567
538 31 451 569 564
539 29 451 569 567
540 31 567 569 564
541 24 177 124 176
542 25 177 124 127
543 25 176 124 127
544 24 29 24 148
545 25 29 24 28
546 25 148 24 28
547 24 174 176 124
548 25 174 176 120
549 25 124 176 120
550 14 142 143 146
551 6 504 108 105
552 8 504 108 107
553 7 504 108 19
554 7 105 108 19
555 34 19 108 107
556 8 105 108 107
557 9 187 186 190
558 24 190 186 182
559 9 187 186 182
560 27 470 469 467
561 27 331 469 467
562 24 470 469 331
563 24 469 470 585
564 25 469 470 468
565 25 585 470 468
566 24 469 331 333
567 25 469 331 330
568 25 333 331 330
569 24 470 585 516
570 25 470 585 584
571 25 516 585 584
572 24 516 333 331
573 25 516 333 272
574 25 331 333 272
575 9 515 516 585
576 24 585 516 333
577 9 515 516 333
578 22 516 515 475
579 23 516 515 513
580 23 516 515 514
581 23 475 515 513
582 29 513 515 514
583 23 475 515 514
584 9 515 475 477
585 9 515 475 478
586 24 477 475 478
587 24 475 477 479
588 25 475 477 562
589 25 479 477 562
590 1 162 165 347
591 2 162 165 164
592 2 162 165 166
593 23 347 165 164
594 29 164 165 166
595 23 347 165 166
596 24 475 478 480
597 25 475 478 476
598 25 480 478 476
599 2 165 162 160
600 29 160 162 161
601 29 160 162 159
602 2 165 162 161
603 29 161 162 159
604 2 165 162 159
605 31 522 523 519
606 19 521 523 522
607 29 522 523 526
608 31 526 523 519
609 19 521 523 526
610 20 521 523 519
611 24 477 479 482
612 25 477 479 563
613 25 482 479 563
614 24 482 480 478
615 25 482 480 481
616 25 478 480 481
617 9 165 347 344
618 9 165 347 351
619 24 344 347 351
620 24 58 60 190
621 25 58 60 61
622 25 190 60 61
623 27 479 482 484
624 24 479 482 480
625 27 480 482 484
626 14 473 467 469
627 21 79 55 59
628 19 79 55 54
629 19 79 55 52
630 32 54 55 59
631 29 54 55 52
632 32 52 55 59
633 6 523 521 520
634 8 523 521 519
635 7 523 521 525
636 7 520 521 525
637 34 525 521 519
638 8 520 521 519
639 13 523 519 521
640 24 186 182 181
641 25 186 182 178
642 25 181 182 178
643 27 60 58 59
644 27 181 58 59
645 24 60 58 181
646 9 262 267 268
647 24 268 267 109
648 9 262 267 109
649 24 58 181 182
650 25 58 181 51
651 25 182 181 51
652 2 274 113 115
653 29 115 113 158
654 29 115 113 157
655 2 274 113 158
656 29 158 113 157
657 2 274 113 157
658 24 60 190 186
659 25 60 190 192
660 25 186 190 192
661 14 55 59 58
662 27 503 500 501
663 24 503 500 498
664 27 498 500 501
665 24 231 201 404
666 25 231 201 237
667 25 404 201 237
668 1 113 274 276
669 2 113 274 117
670 2 113 274 273
671 23 276 274 117
672 29 117 274 273
673 23 276 274 273
674 6 210 211 208
675 8 210 211 213
676 7 210 211 214
677 7 208 211 214
678 34 214 211 213
679 8 208 211 213
680 14 520 358 353
681 21 521 520 358
682 19 521 520 518
683 19 521 520 524
684 32 518 520 358
685 29 518 520 524
686 32 524 520 358
687 24 575 577 578
688 25 575 577 574
689 25 578 577 574
690 24 580 578 577
691 25 580 578 579
692 25 577 578 579
693 14 487 484 482
694 24 233 235 239
695 25 233 235 236
696 25 239 235 236
697 9 581 580 456
698 9 581 580 578
699 24 456 580 578
700 24 238 239 235
701 25 238 239 240
702 25 235 239 240
703 9 229 233 232
704 24 232 233 235
705 9 229 233 235
706 21 211 208 413
707 19 211 208 206
708 19 211 208 209
709 32 206 208 413
710 29 206 208 209
711 32 209 208 413
712 24 234 232 233
713 25 234 232 230
714 25 233 232 230
715 6 487 490 492
716 8 487 490 486
717 7 487 490 488
718 7 492 490 488
719 34 488 490 486
720 8 492 490 486
721 20 490 492 486
722 19 490 492 493
723 19 490 492 494
724 31 493 492 486
725 29 493 492 494
726 31 494 492 486
727 21 490 487 484
728 32 485 487 484
729 32 491 487 484
730 19 490 487 485
731 29 485 487 491
732 19 490 487 491
733 24 415 418 417
734 25 415 418 419
735 25 417 418 419
736 27 415 414 413
737 27 412 414 413
738 24 415 414 412
739 9 581 417 418
740 24 418 417 455
741 9 581 417 455
742 24 414 415 418
743 25 414 415 416
744 25 418 415 416
745 14 208 413 414
746 24 417 455 412
747 25 417 455 454
748 25 412 455 454
749 24 414 412 455
750 25 414 412 411
751 25 455 412 411
752 22 417 581 580
753 23 417 581 460
754 23 417 581 549
755 23 580 581 460
756 29 460 581 549
757 23 580 581 549
758 24 238 234 232
759 25 238 234 118
760 25 232 234 118
761 27 234 238 241
762 27 239 238 241
763 24 234 238 239
764 21 312 310 306
765 19 312 310 309
766 19 312 310 377
767 32 309 310 306
768 29 309 310 377
769 32 377 310 306
770 24 580 456 453
771 25 580 456 457
772 25 453 456 457
773 14 121 241 238
774 13 492 486 490
775 22 233 229 231
776 23 233 229 228
777 23 233 229 226
778 23 231 229 228
779 29 228 229 226
780 23 231 229 226
781 14 310 306 304
782 21 123 121 241
783 19 123 121 119
784 19 123 121 122
785 32 119 121 241
786 29 119 121 122
787 32 122 121 241
788 24 456 453 575
789 25 456 453 452
790 25 575 453 452
791 27 453 575 573
792 24 453 575 577
793 27 577 575 573
794 9 229 231 201
795 9 229 231 445
796 24 201 231 445
797 24 26 22 23
798 25 26 22 20
799 25 23 22 20
800 13 311 313 312
801 13 78 77 79
802 6 78 79 55
803 8 78 79 77
804 7 78 79 81
805 7 55 79 81
806 34 81 79 77
807 8 55 79 77
808 13 244 243 247
809 24 347 351 356
810 26 347 351 173
811 26 356 351 173
812 28 351 173 171
813 28 351 173 175
814 35 171 173 175
815 31 242 244 243
816 19 247 244 242
817 29 242 244 245
818 31 245 244 243
819 19 247 244 245
820 20 247 244 243
821 6 244 247 252
822 8 244 247 243
823 7 244 247 246
824 7 252 247 246
825 34 246 247 243
826 8 252 247 243
827 31 80 78 77
828 19 79 78 80
829 29 80 78 76
830 31 76 78 77
831 19 79 78 76
832 20 79 78 77
833 1 510 319 321
834 23 321 319 316
835 23 321 319 465
836 2 510 319 316
837 29 316 319 465
838 2 510 319 465
839 24 201 404 400
840 25 201 404 409
841 25 400 404 409
842 17 86 561 558
843 15 86 561 90
844 15 86 561 537
845 32 90 561 558
846 29 90 561 537
847 32 537 561 558
848 21 405 406 402
849 32 410 406 402
850 32 408 406 402
851 19 405 406 410
852 29 410 406 408
853 19 405 406 408
854 6 406 405 544
855 8 406 405 543
856 7 406 405 538
857 7 544 405 538
858 34 538 405 543
859 8 544 405 543
860 20 405 544 543
861 19 405 544 548
862 19 405 544 541
863 31 548 544 543
864 29 548 544 541
865 31 541 544 543
866 13 544 543 405
867 14 406 402 400
868 2 319 510 583
869 2 319 510 509
870 2 319 510 511
871 29 583 510 509
872 29 583 510 511
873 29 509 510 511
874 3 84 86 561
875 5 84 86 559
876 4 84 86 88
877 4 561 86 88
878 33 88 86 559
879 5 561 86 559
880 14 252 461 462
881 21 247 252 461
882 19 247 252 253
883 19 247 252 459
884 32 253 252 461
885 29 253 252 459
886 32 459 252 461
887 27 255 462 461
888 27 421 462 461
889 24 255 462 421
890 27 404 400 402
891 24 404 400 397
892 27 397 400 402
893 6 196 197 195
894 8 196 197 199
895 7 196 197 200
896 7 195 197 200
897 34 200 197 199
898 8 195 197 199
899 16 86 84 317
900 30 82 84 317
901 30 552 84 317
902 15 86 84 82
903 29 82 84 552
904 15 86 84 552
905 18 86 559 318
906 13 196 199 197
907 21 197 195 394
908 19 197 195 163
909 19 197 195 398
910 32 163 195 394
911 29 163 195 398
912 32 398 195 394
913 14 561 558 556
914 17 140 142 143
915 15 140 142 144
916 15 140 142 141
917 32 144 142 143
918 29 144 142 141
919 32 141 142 143
920 27 554 556 558
921 24 554 556 560
922 27 560 556 558
923 24 146 149 25
924 25 146 149 147
925 25 25 149 147
926 31 308 311 313
927 19 312 311 308
928 29 308 311 314
929 31 314 311 313
930 19 312 311 314
931 20 312 311 313
932 27 148 146 143
933 24 148 146 149
934 27 149 146 143
935 9 31 30 23
936 24 23 30 33
937 9 31 30 33
938 22 30 31 29
939 23 30 31 35
940 23 30 31 34
941 23 29 31 35
942 29 35 31 34
943 23 29 31 34
944 31 198 196 199
945 19 197 196 198
946 29 198 196 194
947 31 194 196 199
948 19 197 196 194
949 20 197 196 199
950 21 108 504 501
951 32 506 504 501
952 32 582 504 501
953 19 108 504 506
954 29 506 504 582
955 19 108 504 582
956 22 436 434 555
957 23 436 434 431
958 23 436 434 429
959 23 555 434 431
960 29 431 434 429
961 23 555 434 429
962 24 462 255 217
963 25 462 255 256
964 25 217 255 256
965 14 504 501 500
966 24 555 553 554
967 25 555 553 550
968 25 554 553 550
969 14 571 573 575
970 27 301 304 306
971 27 305 304 306
972 24 301 304 305
973 9 31 29 24
974 9 31 29 25
975 24 24 29 25
976 24 556 560 557
977 25 556 560 536
978 25 557 560 536
979 24 555 557 560
980 25 555 557 440
981 25 560 557 440
982 24 301 298 299
983 25 301 298 296
984 25 299 298 296
985 28 109 155 153
986 28 109 155 37
987 35 153 155 37
988 24 29 25 149
989 25 29 25 27
990 25 149 25 27
991 24 22 23 30
992 25 22 23 21
993 25 30 23 21
994 24 499 497 498
995 25 499 497 495
996 25 498 497 495
997 24 500 498 497
998 25 500 498 496
999 25 497 498 496
1000 24 400 397 445
1001 25 400 397 396
1002 25 445 397 396
1003 24 499 502 503
1004 25 499 502 463
1005 25 503 502 463
1006 22 299 295 499
1007 23 299 295 293
1008 23 299 295 458
1009 23 499 295 293
1010 29 293 295 458
1011 23 499 295 458
1012 24 304 305 302
1013 25 304 305 307
1014 25 302 305 307
1015 24 304 301 298
1016 25 304 301 300
1017 25 298 301 300
1018 24 231 445 397
1019 25 231 445 444
1020 25 397 445 444
1021 24 438 435 436
1022 25 438 435 433
1023 25 436 435 433
1024 6 311 312 310
1025 8 311 312 313
1026 7 311 312 315
1027 7 310 312 315
1028 34 315 312 313
1029 8 310 312 313
1030 24 442 438 435
1031 25 442 438 437
1032 25 435 438 437
1033 27 438 442 394
1034 27 393 442 394
1035 24 438 442 393
1036 24 442 393 439
1037 25 442 393 395
1038 25 439 393 395
1039 24 299 302 305
1040 25 299 302 303
1041 25 305 302 303
1042 9 295 499 502
1043 9 295 499 497
1044 24 502 499 497
1045 24 502 503 500
1046 25 502 503 505
1047 25 500 503 505
1048 9 434 555 553
1049 9 434 555 557
1050 24 553 555 557
1051 9 434 436 435
1052 24 435 436 439
1053 9 434 436 439
1054 24 436 439 393
1055 25 436 439 441
1056 25 393 439 441
1057 1 263 262 267
1058 23 267 262 261
1059 23 267 262 260
1060 2 263 262 261
1061 29 261 262 260
1062 2 263 262 260
1063 24 255 217 424
1064 25 255 217 220
1065 25 424 217 220
1066 9 295 299 298
1067 24 298 299 302
1068 9 295 299 302
1069 2 262 263 264
1070 2 262 263 259
1071 2 262 263 265
1072 29 264 263 259
1073 29 264 263 265
1074 29 259 263 265
1075 24 553 554 556
1076 25 553 554 551
1077 25 556 554 551
1078 14 195 394 442
1079 21 472 473 467
1080 19 472 473 471
1081 19 472 473 443
1082 32 471 473 467
1083 29 471 473 443
1084 32 443 473 467
1085 21 568 571 573
1086 32 566 571 573
1087 32 570 571 573
1088 19 568 571 566
1089 29 566 571 570
1090 19 568 571 570

Dihedrals

1 30 280 283 285 286
2 30 280 283 285 449
3 26 280 283 281 278
4 30 281 283 285 286
5 30 281 283 285 449
6 10 447 281 278 276
7 10 447 281 283 280
8 25 283 281 447 446
9 25 283 281 447 450
10 25 283 281 447 448
11 28 283 281 278 116
12 28 278 281 283 285
13 25 278 281 447 446
14 25 278 281 447 450
15 25 278 281 447 448
16 12 447 281 278 116
17 12 447 281 283 285
18 26 276 278 281 283
19 30 276 278 116 227
20 30 276 278 116 114
21 30 281 278 116 227
22 30 281 278 116 114
23 26 276 277 280 283
24 26 280 277 276 278
25 1 287 282 280 277
26 23 280 282 287 289
27 23 280 282 287 288
28 23 280 282 287 489
29 1 287 282 280 283
30 33 279 282 287 289
31 33 279 282 287 288
32 33 279 282 287 489
33 33 483 282 287 289
34 33 483 282 287 288
35 33 483 282 287 489
36 10 282 280 277 276
37 25 277 280 282 279
38 25 277 280 282 483
39 28 277 280 283 285
40 26 277 280 283 281
41 11 282 280 277 275
42 27 283 280 277 275
43 25 283 280 282 279
44 25 283 280 282 483
45 10 282 280 283 281
46 12 282 280 283 285
47 10 274 276 277 280
48 11 274 276 277 275
49 10 274 276 278 281
50 12 274 276 278 116
51 25 277 276 274 117
52 25 278 276 274 117
53 25 277 276 274 273
54 25 278 276 274 273
55 26 277 276 278 281
56 28 277 276 278 116
57 27 278 276 277 275
58 8 223 379 430 380
59 47 193 379 430 380
60 43 378 379 430 380
61 7 430 379 223 193
62 6 430 379 223 222
63 6 430 379 223 224
64 9 430 379 193 223
65 6 223 379 430 432
66 6 223 379 430 428
67 42 378 379 223 193
68 26 177 49 47 174
69 27 177 49 47 45
70 44 50 49 47 45
71 26 47 49 177 124
72 29 49 47 174 169
73 26 49 47 174 176
74 27 174 47 49 50
75 45 45 47 174 169
76 26 47 174 176 124
77 27 47 174 176 120
78 27 176 174 47 45
79 36 222 223 379 378
80 36 224 223 379 378
81 37 222 223 379 193
82 37 224 223 379 193
83 22 379 193 223 222
84 22 379 193 223 224
85 16 223 193 379 378
86 10 56 177 49 47
87 11 56 177 49 50
88 10 56 177 124 176
89 11 56 177 124 127
90 25 49 177 56 132
91 25 124 177 56 132
92 25 49 177 56 57
93 25 124 177 56 57
94 26 49 177 124 176
95 27 49 177 124 127
96 27 124 177 49 50
97 17 168 169 174 47
98 32 174 169 168 167
99 32 174 169 168 172
100 17 168 169 174 176
101 16 269 466 472 474
102 22 472 466 269 271
103 22 472 466 269 270
104 10 56 15 17 14
105 25 17 15 56 132
106 25 17 15 56 57
107 26 17 15 13 11
108 27 17 15 13 53
109 11 56 15 17 18
110 27 13 15 17 18
111 25 13 15 56 132
112 25 13 15 56 57
113 11 56 15 13 53
114 10 56 15 13 11
115 27 15 13 11 10
116 44 53 13 11 10
117 36 42 41 43 170
118 36 40 41 43 170
119 37 42 41 43 39
120 37 40 41 43 39
121 21 379 430 380 384
122 37 432 430 379 193
123 36 432 430 379 378
124 37 428 430 379 193
125 36 428 430 379 378
126 29 13 11 12 9
127 45 10 11 12 9
128 26 12 11 13 15
129 27 12 11 13 53
130 16 528 527 531 533
131 22 531 527 528 507
132 22 531 527 528 529
133 24 177 56 15 17
134 24 15 56 177 49
135 24 15 56 177 124
136 24 177 56 15 13
137 37 271 269 472 466
138 36 271 269 472 474
139 37 270 269 472 466
140 36 270 269 472 474
141 9 473 472 466 269
142 8 269 472 473 467
143 6 269 472 473 471
144 6 269 472 473 443
145 6 473 472 269 271
146 6 473 472 269 270
147 42 474 472 269 466
148 43 474 472 473 467
149 47 466 472 473 467
150 7 473 472 269 466
151 9 532 531 527 528
152 8 528 531 532 534
153 6 528 531 532 508
154 6 528 531 532 530
155 6 532 531 528 507
156 6 532 531 528 529
157 42 533 531 528 527
158 43 533 531 532 534
159 47 527 531 532 534
160 7 532 531 528 527
161 1 403 345 349 344
162 23 349 345 403 401
163 23 349 345 403 407
164 23 349 345 403 399
165 1 403 345 349 354
166 33 346 345 403 401
167 33 346 345 403 407
168 33 346 345 403 399
169 33 340 345 403 401
170 33 340 345 403 407
171 33 340 345 403 399
172 10 345 349 344 347
173 25 344 349 345 346
174 25 344 349 345 340
175 28 344 349 354 357
176 26 344 349 354 356
177 11 345 349 344 341
178 27 354 349 344 341
179 25 354 349 345 346
180 25 354 349 345 340
181 10 345 349 354 356
182 12 345 349 354 357
183 24 185 187 186 190
184 24 186 187 185 136
185 24 186 187 185 180
186 24 185 187 186 182
187 26 14 17 15 13
188 27 15 17 14 16
189 26 185 180 128 130
190 27 185 180 128 126
191 21 43 168 169 174
192 37 167 168 43 39
193 36 167 168 43 170
194 37 172 168 43 39
195 36 172 168 43 170
196 21 368 367 369 371
197 37 364 367 368 370
198 36 364 367 368 366
199 37 365 367 368 370
200 36 365 367 368 366
201 37 507 528 531 527
202 36 507 528 531 533
203 37 529 528 531 527
204 36 529 528 531 533
205 29 348 352 353 358
206 45 290 352 353 358
207 26 353 352 348 342
208 27 353 352 348 284
209 26 185 136 135 130
210 27 185 136 135 137
211 44 191 136 135 137
212 26 135 136 185 180
213 29 136 135 130 129
214 26 136 135 130 128
215 27 130 135 136 191
216 45 137 135 130 129
217 10 187 185 136 135
218 11 187 185 136 191
219 10 187 185 180 128
220 11 187 185 180 179
221 25 136 185 187 189
222 25 180 185 187 189
223 25 136 185 187 183
224 25 180 185 187 183
225 26 136 185 180 128
226 27 136 185 180 179
227 27 180 185 136 191
228 36 103 250 251 248
229 36 102 250 251 248
230 37 103 250 251 125
231 37 102 250 251 125
232 21 251 131 129 130
233 37 134 131 251 125
234 36 134 131 251 248
235 37 133 131 251 125
236 36 133 131 251 248
237 27 130 128 180 179
238 45 126 128 130 129
239 44 126 128 180 179
240 29 180 128 130 129
241 21 531 532 534 26
242 36 508 532 531 533
243 36 530 532 531 533
244 37 508 532 531 527
245 37 530 532 531 527
246 17 430 380 384 386
247 32 384 380 430 432
248 32 384 380 430 428
249 17 430 380 384 388
250 26 386 384 388 392
251 27 386 384 388 387
252 27 388 384 386 382
253 26 350 343 342 348
254 27 342 343 350 517
255 26 135 130 128 180
256 27 135 130 128 126
257 27 128 130 135 137
258 27 384 388 392 335
259 45 387 388 384 380
260 44 387 388 392 335
261 29 392 388 384 380
262 26 334 392 388 384
263 27 334 392 388 387
264 10 337 334 390 386
265 11 337 334 390 391
266 10 337 334 392 388
267 11 337 334 392 335
268 25 390 334 337 338
269 25 392 334 337 338
270 25 390 334 337 336
271 25 392 334 337 336
272 26 390 334 392 388
273 27 390 334 392 335
274 27 392 334 390 391
275 29 390 386 384 380
276 26 390 386 384 388
277 27 384 386 390 391
278 45 382 386 384 380
279 26 334 390 386 384
280 27 334 390 386 382
281 44 391 390 386 382
282 26 386 390 334 392
283 22 251 125 250 103
284 22 251 125 250 102
285 16 250 125 251 248
286 10 337 342 343 350
287 25 343 342 337 338
288 25 343 342 337 336
289 26 343 342 348 352
290 27 343 342 348 284
291 11 337 342 343 339
292 27 348 342 343 339
293 25 348 342 337 338
294 25 348 342 337 336
295 11 337 342 348 284
296 10 337 342 348 352
297 29 343 350 353 358
298 45 517 350 353 358
299 26 353 350 343 342
300 27 353 350 343 339
301 44 517 350 343 339
302 26 343 350 353 352
303 26 350 353 352 348
304 27 350 353 352 290
305 27 352 353 350 517
306 21 4 8 9 12
307 36 6 8 4 5
308 36 7 8 4 5
309 37 6 8 4 1
310 37 7 8 4 1
311 9 8 4 1 3
312 8 3 4 8 9
313 6 3 4 8 6
314 6 3 4 8 7
315 6 8 4 3 99
316 6 8 4 3 2
317 42 5 4 3 1
318 43 5 4 8 9
319 47 1 4 8 9
320 7 8 4 3 1
321 37 297 294 123 291
322 36 297 294 123 292
323 37 249 294 123 291
324 36 249 294 123 292
325 24 334 337 342 343
326 24 342 337 334 390
327 24 342 337 334 392
328 24 334 337 342 348
329 16 210 213 211 214
330 22 211 213 210 207
331 22 211 213 210 212
332 9 121 123 291 294
333 8 294 123 121 241
334 6 294 123 121 119
335 6 294 123 121 122
336 6 121 123 294 297
337 6 121 123 294 249
338 42 292 123 294 291
339 43 292 123 121 241
340 47 291 123 121 241
341 7 121 123 294 291
342 16 294 291 123 292
343 22 123 291 294 297
344 22 123 291 294 249
345 29 17 14 12 9
346 45 16 14 12 9
347 26 12 14 17 15
348 27 12 14 17 18
349 44 16 14 17 18
350 26 17 14 12 11
351 17 131 129 130 135
352 32 130 129 131 134
353 32 130 129 131 133
354 17 131 129 130 128
355 17 8 9 12 14
356 17 8 9 12 11
357 32 12 9 8 6
358 32 12 9 8 7
359 26 14 12 11 13
360 27 14 12 11 10
361 27 11 12 14 16
362 17 532 534 26 22
363 17 532 534 26 32
364 32 26 534 532 508
365 32 26 534 532 530
366 37 207 210 211 213
367 36 207 210 211 214
368 37 212 210 211 213
369 36 212 210 211 214
370 16 3 1 4 5
371 22 4 1 3 99
372 22 4 1 3 2
373 27 342 348 352 290
374 44 284 348 352 290
375 8 250 251 131 129
376 47 125 251 131 129
377 43 248 251 131 129
378 7 131 251 250 125
379 6 131 251 250 103
380 6 131 251 250 102
381 9 131 251 125 250
382 6 250 251 131 134
383 6 250 251 131 133
384 42 248 251 250 125
385 37 99 3 4 1
386 36 99 3 4 5
387 37 2 3 4 1
388 36 2 3 4 5
389 26 22 26 32 33
390 27 22 26 32 535
391 27 32 26 22 20
392 8 41 43 168 169
393 47 39 43 168 169
394 43 170 43 168 169
395 7 168 43 41 39
396 6 168 43 41 42
397 6 168 43 41 40
398 9 168 43 39 41
399 6 41 43 168 167
400 6 41 43 168 172
401 42 170 43 41 39
402 10 319 321 323 326
403 25 323 321 319 316
404 25 323 321 319 465
405 26 323 321 320 322
406 11 319 321 323 324
407 27 320 321 323 324
408 25 320 321 319 316
409 25 320 321 319 465
410 10 319 321 320 322
411 12 319 321 320 317
412 28 323 321 320 317
413 26 111 91 112 109
414 30 111 91 95 97
415 30 111 91 95 96
416 30 112 91 95 97
417 30 112 91 95 96
418 29 423 421 462 461
419 45 420 421 462 461
420 26 462 421 423 424
421 27 462 421 423 422
422 26 326 323 321 320
423 26 321 323 326 325
424 26 218 425 374 371
425 27 218 425 374 376
426 44 426 425 374 376
427 26 374 425 218 216
428 30 349 354 357 359
429 30 349 354 357 355
430 26 349 354 356 351
431 30 356 354 357 359
432 30 356 354 357 355
433 3 142 140 257 72
434 39 138 140 257 72
435 4 257 140 142 143
436 2 257 140 142 144
437 2 257 140 142 141
438 5 257 140 139 73
439 2 142 140 257 254
440 2 142 140 257 258
441 40 138 140 142 143
442 41 138 140 139 73
443 5 142 140 139 73
444 26 326 325 322 320
445 30 326 325 327 156
446 30 326 325 327 329
447 30 322 325 327 156
448 30 322 325 327 329
449 10 328 326 323 321
450 11 328 326 323 324
451 10 328 326 325 322
452 12 328 326 325 327
453 25 323 326 328 385
454 25 325 326 328 385
455 25 323 326 328 332
456 25 325 326 328 332
457 26 323 326 325 322
458 28 323 326 325 327
459 27 325 326 323 324
460 10 152 322 325 326
461 10 152 322 320 321
462 25 320 322 152 154
463 25 320 322 152 151
464 25 320 322 152 150
465 28 320 322 325 327
466 25 325 322 152 154
467 25 325 322 152 151
468 25 325 322 152 150
469 12 152 322 325 327
470 12 152 322 320 317
471 28 325 322 320 317
472 26 321 320 322 325
473 30 322 320 317 464
474 30 321 320 317 464
475 30 64 65 542 547
476 30 64 65 542 540
477 26 64 65 67 70
478 30 67 65 542 547
479 30 67 65 542 540
480 10 63 64 66 68
481 25 66 64 63 98
482 25 66 64 63 539
483 28 66 64 65 542
484 26 66 64 65 67
485 11 63 64 66 100
486 27 65 64 66 100
487 25 65 64 63 98
488 25 65 64 63 539
489 10 63 64 65 67
490 12 63 64 65 542
491 10 69 67 70 68
492 10 69 67 65 64
493 25 65 67 69 46
494 25 65 67 69 44
495 25 65 67 69 48
496 28 70 67 65 542
497 25 70 67 69 46
498 25 70 67 69 44
499 25 70 67 69 48
500 12 69 67 65 542
501 12 69 67 70 72
502 28 65 67 70 72
503 26 68 70 67 65
504 30 68 70 72 74
505 30 67 70 72 74
506 1 545 63 64 66
507 23 64 63 545 576
508 23 64 63 545 572
509 23 64 63 545 546
510 1 545 63 64 65
511 33 98 63 545 576
512 33 98 63 545 572
513 33 98 63 545 546
514 33 539 63 545 576
515 33 539 63 545 572
516 33 539 63 545 546
517 26 68 66 64 65
518 26 64 66 68 70
519 15 257 72 70 68
520 31 70 72 257 254
521 31 70 72 257 258
522 15 257 72 70 67
523 10 71 68 66 64
524 11 71 68 66 100
525 10 71 68 70 67
526 25 66 68 71 75
527 25 70 68 71 75
528 25 66 68 71 101
529 25 70 68 71 101
530 26 66 68 70 67
531 27 70 68 66 100
532 12 71 68 70 72
533 28 66 68 70 72
534 18 140 257 72 70
535 46 72 257 140 139
536 19 140 257 72 74
537 38 254 257 72 74
538 38 258 257 72 74
539 35 254 257 140 139
540 34 254 257 140 138
541 35 258 257 140 139
542 34 258 257 140 138
543 15 84 317 320 322
544 31 320 317 84 82
545 31 320 317 84 552
546 15 84 317 320 321
547 1 204 71 68 66
548 1 204 71 68 70
549 23 68 71 204 203
550 23 68 71 204 202
551 23 68 71 204 205
552 27 424 423 421 420
553 44 422 423 421 420
554 22 108 107 105 104
555 22 108 107 105 106
556 16 105 107 108 19
557 22 568 564 569 451
558 22 568 564 569 567
559 16 569 564 568 565
560 26 347 344 349 354
561 26 349 344 347 351
562 36 104 105 108 19
563 36 106 105 108 19
564 37 104 105 108 107
565 37 106 105 108 107
566 10 361 356 351 347
567 10 361 356 354 349
568 25 354 356 361 363
569 25 354 356 361 360
570 25 354 356 361 362
571 28 354 356 351 173
572 28 351 356 354 357
573 25 351 356 361 363
574 25 351 356 361 360
575 25 351 356 361 362
576 12 361 356 351 173
577 12 361 356 354 357
578 33 110 85 89 225
579 33 110 85 89 62
580 33 83 85 89 225
581 33 83 85 89 62
582 33 87 85 89 225
583 33 87 85 89 62
584 1 383 328 326 323
585 1 383 328 326 325
586 23 326 328 383 512
587 23 326 328 383 381
588 23 326 328 383 389
589 33 203 204 71 75
590 33 203 204 71 101
591 33 202 204 71 75
592 33 202 204 71 101
593 33 205 204 71 75
594 33 205 204 71 101
595 8 569 568 571 573
596 47 564 568 571 573
597 43 565 568 571 573
598 7 571 568 569 564
599 6 571 568 569 451
600 6 571 568 569 567
601 9 571 568 564 569
602 6 569 568 571 566
603 6 569 568 571 570
604 42 565 568 569 564
605 27 30 33 32 535
606 44 36 33 32 535
607 10 219 218 425 374
608 11 219 218 425 426
609 10 219 218 216 188
610 11 219 218 216 215
611 25 425 218 219 221
612 25 216 218 219 221
613 25 425 218 219 427
614 25 216 218 219 427
615 26 425 218 216 188
616 27 425 218 216 215
617 27 216 218 425 426
618 24 218 219 424 217
619 24 424 219 218 425
620 24 424 219 218 216
621 24 218 219 424 423
622 30 267 109 155 153
623 30 267 109 155 37
624 26 267 109 112 91
625 30 112 109 155 153
626 30 112 109 155 37
627 1 85 89 111 268
628 1 85 89 111 91
629 23 111 89 85 110
630 23 111 89 85 83
631 23 111 89 85 87
632 33 512 383 328 385
633 33 512 383 328 332
634 33 381 383 328 385
635 33 381 383 328 332
636 33 389 383 328 385
637 33 389 383 328 332
638 26 374 371 188 216
639 27 374 371 188 184
640 27 188 371 374 376
641 10 219 424 217 255
642 25 217 424 219 221
643 25 217 424 219 427
644 26 217 424 423 421
645 27 217 424 423 422
646 11 219 424 217 220
647 27 423 424 217 220
648 25 423 424 219 221
649 25 423 424 219 427
650 11 219 424 423 422
651 10 219 424 423 421
652 8 372 368 367 369
653 47 370 368 367 369
654 43 366 368 367 369
655 7 367 368 372 370
656 6 367 368 372 375
657 6 367 368 372 373
658 9 367 368 370 372
659 6 372 368 367 364
660 6 372 368 367 365
661 42 366 368 372 370
662 22 43 39 41 42
663 22 43 39 41 40
664 16 41 39 43 170
665 27 371 188 216 215
666 45 184 188 371 369
667 44 184 188 216 215
668 29 216 188 371 369
669 36 375 372 368 366
670 36 373 372 368 366
671 37 375 372 368 370
672 37 373 372 368 370
673 29 33 32 26 534
674 45 535 32 26 534
675 26 26 32 33 30
676 27 26 32 33 36
677 26 111 268 267 109
678 26 267 268 111 91
679 10 89 111 268 267
680 11 89 111 268 266
681 10 89 111 91 112
682 12 89 111 91 95
683 25 268 111 89 225
684 25 91 111 89 225
685 25 268 111 89 62
686 25 91 111 89 62
687 26 268 111 91 112
688 28 268 111 91 95
689 27 91 111 268 266
690 26 218 216 188 371
691 27 218 216 188 184
692 17 367 369 371 374
693 32 371 369 367 364
694 32 371 369 367 365
695 17 367 369 371 188
696 10 92 112 91 111
697 10 92 112 109 267
698 25 109 112 92 93
699 25 109 112 92 94
700 25 109 112 92 38
701 28 109 112 91 95
702 28 91 112 109 155
703 25 91 112 92 93
704 25 91 112 92 94
705 25 91 112 92 38
706 12 92 112 91 95
707 12 92 112 109 155
708 29 425 374 371 369
709 26 425 374 371 188
710 27 371 374 425 426
711 45 376 374 371 369
712 22 368 370 372 375
713 22 368 370 372 373
714 16 372 370 368 366
715 29 24 148 146 143
716 26 24 148 146 149
717 27 146 148 24 28
718 45 145 148 146 143
719 36 451 569 568 565
720 36 567 569 568 565
721 37 451 569 568 564
722 37 567 569 568 564
723 26 177 124 176 174
724 27 177 124 176 120
725 26 29 24 148 146
726 27 29 24 148 145
727 44 28 24 148 145
728 26 148 24 29 25
729 27 174 176 124 127
730 45 120 176 174 169
731 44 120 176 124 127
732 29 124 176 174 169
733 17 142 143 146 148
734 17 142 143 146 149
735 32 146 143 142 141
736 32 146 143 142 144
737 8 105 108 504 501
738 47 107 108 504 501
739 43 19 108 504 501
740 7 504 108 105 107
741 6 504 108 105 104
742 6 504 108 105 106
743 9 504 108 107 105
744 6 105 108 504 506
745 6 105 108 504 582
746 42 19 108 105 107
747 10 187 186 190 60
748 25 190 186 187 189
749 25 190 186 187 183
750 26 190 186 182 181
751 27 190 186 182 178
752 11 187 186 190 192
753 27 182 186 190 192
754 25 182 186 187 189
755 25 182 186 187 183
756 11 187 186 182 178
757 10 187 186 182 181
758 26 470 469 331 333
759 27 470 469 331 330
760 27 331 469 470 468
761 29 585 470 469 467
762 45 468 470 469 467
763 26 469 470 585 516
764 27 469 470 585 584
765 44 468 470 585 584
766 26 585 470 469 331
767 29 333 331 469 467
768 45 330 331 469 467
769 26 469 331 333 516
770 27 469 331 333 272
771 26 470 585 516 333
772 27 516 585 470 468
773 27 516 333 331 330
774 44 272 333 331 330
775 10 515 516 585 470
776 25 585 516 515 513
777 25 585 516 515 514
778 26 585 516 333 331
779 27 585 516 333 272
780 11 515 516 585 584
781 27 333 516 585 584
782 25 333 516 515 513
783 25 333 516 515 514
784 11 515 516 333 272
785 10 515 516 333 331
786 24 475 515 516 585
787 24 516 515 475 477
788 24 516 515 475 478
789 24 475 515 516 333
790 10 515 475 477 479
791 11 515 475 477 562
792 10 515 475 478 480
793 11 515 475 478 476
794 25 477 475 515 513
795 25 478 475 515 513
796 25 477 475 515 514
797 25 478 475 515 514
798 26 477 475 478 480
799 27 477 475 478 476
800 27 478 475 477 562
801 26 475 477 479 482
802 27 475 477 479 563
803 44 562 477 479 563
804 26 479 477 475 478
805 1 162 165 347 344
806 1 162 165 347 351
807 23 347 165 162 160
808 23 347 165 162 161
809 23 347 165 162 159
810 26 475 478 480 482
811 27 475 478 480 481
812 33 160 162 165 164
813 33 160 162 165 166
814 33 161 162 165 164
815 33 161 162 165 166
816 33 159 162 165 164
817 33 159 162 165 166
818 37 522 523 521 519
819 36 522 523 521 525
820 37 526 523 521 519
821 36 526 523 521 525
822 29 477 479 482 484
823 26 477 479 482 480
824 27 482 479 477 562
825 45 563 479 482 484
826 27 482 480 478 476
827 45 481 480 482 484
828 44 481 480 478 476
829 29 478 480 482 484
830 10 165 347 344 349
831 11 165 347 344 341
832 10 165 347 351 356
833 12 165 347 351 173
834 25 344 347 165 164
835 25 351 347 165 164
836 25 344 347 165 166
837 25 351 347 165 166
838 26 344 347 351 356
839 28 344 347 351 173
840 27 351 347 344 341
841 29 190 60 58 59
842 45 61 60 58 59
843 26 58 60 190 186
844 27 58 60 190 192
845 44 61 60 190 192
846 26 190 60 58 181
847 26 479 482 480 478
848 27 479 482 480 481
849 27 480 482 479 563
850 17 473 467 469 470
851 17 473 467 469 331
852 32 469 467 473 471
853 32 469 467 473 443
854 21 79 55 59 58
855 36 54 55 79 81
856 36 52 55 79 81
857 37 54 55 79 77
858 37 52 55 79 77
859 9 520 521 519 523
860 8 523 521 520 358
861 6 523 521 520 518
862 6 523 521 520 524
863 6 520 521 523 522
864 6 520 521 523 526
865 42 525 521 523 519
866 43 525 521 520 358
867 47 519 521 520 358
868 7 520 521 523 519
869 16 523 519 521 525
870 22 521 519 523 522
871 22 521 519 523 526
872 27 186 182 181 51
873 44 178 182 181 51
874 26 60 58 181 182
875 27 60 58 181 51
876 27 181 58 60 61
877 10 262 267 268 111
878 25 268 267 262 261
879 25 268 267 262 260
880 28 268 267 109 155
881 26 268 267 109 112
882 11 262 267 268 266
883 27 109 267 268 266
884 25 109 267 262 261
885 25 109 267 262 260
886 10 262 267 109 112
887 12 262 267 109 155
888 29 182 181 58 59
889 45 51 181 58 59
890 26 58 181 182 186
891 27 58 181 182 178
892 33 115 113 274 117
893 33 115 113 274 273
894 33 158 113 274 117
895 33 158 113 274 273
896 33 157 113 274 117
897 33 157 113 274 273
898 26 60 190 186 182
899 27 186 190 60 61
900 17 55 59 58 60
901 17 55 59 58 181
902 32 58 59 55 54
903 32 58 59 55 52
904 26 503 500 498 497
905 27 503 500 498 496
906 27 498 500 503 505
907 26 231 201 404 400
908 27 231 201 404 409
909 44 237 201 404 409
910 26 404 201 231 445
911 1 113 274 276 277
912 1 113 274 276 278
913 23 276 274 113 115
914 23 276 274 113 158
915 23 276 274 113 157
916 9 208 211 213 210
917 8 210 211 208 413
918 6 210 211 208 206
919 6 210 211 208 209
920 6 208 211 210 207
921 6 208 211 210 212
922 42 214 211 210 213
923 43 214 211 208 413
924 47 213 211 208 413
925 7 208 211 210 213
926 17 520 358 353 350
927 17 520 358 353 352
928 32 353 358 520 518
929 32 353 358 520 524
930 21 521 520 358 353
931 36 518 520 521 525
932 36 524 520 521 525
933 37 518 520 521 519
934 37 524 520 521 519
935 27 575 577 578 579
936 45 574 577 575 573
937 44 574 577 578 579
938 29 578 577 575 573
939 26 580 578 577 575
940 27 580 578 577 574
941 17 487 484 482 479
942 32 482 484 487 485
943 32 482 484 487 491
944 17 487 484 482 480
945 27 233 235 239 240
946 44 236 235 239 240
947 10 581 580 456 453
948 11 581 580 456 457
949 10 581 580 578 577
950 11 581 580 578 579
951 25 456 580 581 460
952 25 578 580 581 460
953 25 456 580 581 549
954 25 578 580 581 549
955 26 456 580 578 577
956 27 456 580 578 579
957 27 578 580 456 457
958 29 235 239 238 241
959 45 240 239 238 241
960 26 238 239 235 233
961 27 238 239 235 236
962 10 229 233 232 234
963 25 232 233 229 228
964 25 232 233 229 226
965 26 232 233 235 239
966 27 232 233 235 236
967 11 229 233 232 230
968 27 235 233 232 230
969 25 235 233 229 228
970 25 235 233 229 226
971 11 229 233 235 236
972 10 229 233 235 239
973 21 211 208 413 414
974 36 206 208 211 214
975 36 209 208 211 214
976 37 206 208 211 213
977 37 209 208 211 213
978 26 234 232 233 235
979 27 233 232 234 118
980 8 492 490 487 484
981 47 486 490 487 484
982 43 488 490 487 484
983 7 487 490 492 486
984 6 487 490 492 493
985 6 487 490 492 494
986 9 487 490 486 492
987 6 492 490 487 485
988 6 492 490 487 491
989 42 488 490 492 486
990 36 493 492 490 488
991 36 494 492 490 488
992 37 493 492 490 486
993 37 494 492 490 486
994 21 490 487 484 482
995 37 485 487 490 486
996 36 485 487 490 488
997 37 491 487 490 486
998 36 491 487 490 488
999 26 415 418 417 455
1000 27 417 418 415 416
1001 26 415 414 412 455
1002 27 415 414 412 411
1003 27 412 414 415 416
1004 10 581 417 418 415
1005 25 418 417 581 460
1006 25 418 417 581 549
1007 26 418 417 455 412
1008 27 418 417 455 454
1009 11 581 417 418 419
1010 27 455 417 418 419
1011 25 455 417 581 460
1012 25 455 417 581 549
1013 11 581 417 455 454
1014 10 581 417 455 412
1015 29 418 415 414 413
1016 45 416 415 414 413
1017 26 414 415 418 417
1018 27 414 415 418 419
1019 44 416 415 418 419
1020 26 418 415 414 412
1021 17 208 413 414 415
1022 17 208 413 414 412
1023 32 414 413 208 206
1024 32 414 413 208 209
1025 27 417 455 412 411
1026 44 454 455 412 411
1027 29 455 412 414 413
1028 45 411 412 414 413
1029 26 414 412 455 417
1030 27 414 412 455 454
1031 24 580 581 417 418
1032 24 417 581 580 456
1033 24 417 581 580 578
1034 24 580 581 417 455
1035 29 232 234 238 241
1036 45 118 234 238 241
1037 26 238 234 232 233
1038 27 238 234 232 230
1039 44 118 234 232 230
1040 26 232 234 238 239
1041 26 234 238 239 235
1042 27 234 238 239 240
1043 27 239 238 234 118
1044 21 312 310 306 304
1045 36 309 310 312 315
1046 36 377 310 312 315
1047 37 309 310 312 313
1048 37 377 310 312 313
1049 26 580 456 453 575
1050 27 580 456 453 452
1051 44 457 456 453 452
1052 26 453 456 580 578
1053 17 121 241 238 234
1054 17 121 241 238 239
1055 32 238 241 121 119
1056 32 238 241 121 122
1057 22 490 486 492 493
1058 22 490 486 492 494
1059 16 492 486 490 488
1060 24 231 229 233 232
1061 24 233 229 231 201
1062 24 233 229 231 445
1063 24 231 229 233 235
1064 17 310 306 304 301
1065 17 310 306 304 305
1066 32 304 306 310 309
1067 32 304 306 310 377
1068 21 123 121 241 238
1069 36 119 121 123 292
1070 36 122 121 123 292
1071 37 119 121 123 291
1072 37 122 121 123 291
1073 29 456 453 575 573
1074 26 456 453 575 577
1075 27 575 453 456 457
1076 45 452 453 575 573
1077 26 453 575 577 578
1078 27 453 575 577 574
1079 27 577 575 453 452
1080 10 229 231 201 404
1081 11 229 231 201 237
1082 10 229 231 445 397
1083 11 229 231 445 444
1084 25 201 231 229 228
1085 25 445 231 229 228
1086 25 201 231 229 226
1087 25 445 231 229 226
1088 26 201 231 445 397
1089 27 201 231 445 444
1090 27 445 231 201 237
1091 29 23 22 26 534
1092 45 20 22 26 534
1093 26 26 22 23 30
1094 27 26 22 23 21
1095 44 20 22 23 21
1096 26 23 22 26 32
1097 16 311 313 312 315
1098 22 312 313 311 308
1099 22 312 313 311 314
1100 16 78 77 79 81
1101 22 79 77 78 80
1102 22 79 77 78 76
1103 9 55 79 77 78
1104 8 78 79 55 59
1105 6 78 79 55 54
1106 6 78 79 55 52
1107 6 55 79 78 80
1108 6 55 79 78 76
1109 42 81 79 78 77
1110 43 81 79 55 59
1111 47 77 79 55 59
1112 7 55 79 78 77
1113 16 244 243 247 246
1114 22 247 243 244 242
1115 22 247 243 244 245
1116 26 347 351 356 354
1117 30 347 351 173 171
1118 30 347 351 173 175
1119 30 356 351 173 171
1120 30 356 351 173 175
1121 37 242 244 247 243
1122 36 242 244 247 246
1123 37 245 244 247 243
1124 36 245 244 247 246
1125 9 252 247 243 244
1126 8 244 247 252 461
1127 6 244 247 252 253
1128 6 244 247 252 459
1129 6 252 247 244 242
1130 6 252 247 244 245
1131 42 246 247 244 243
1132 43 246 247 252 461
1133 47 243 247 252 461
1134 7 252 247 244 243
1135 37 80 78 79 77
1136 36 80 78 79 81
1137 37 76 78 79 77
1138 36 76 78 79 81
1139 1 510 319 321 323
1140 23 321 319 510 583
1141 23 321 319 510 509
1142 23 321 319 510 511
1143 1 510 319 321 320
1144 33 316 319 510 583
1145 33 316 319 510 509
1146 33 316 319 510 511
1147 33 465 319 510 583
1148 33 465 319 510 509
1149 33 465 319 510 511
1150 29 201 404 400 402
1151 26 201 404 400 397
1152 27 400 404 201 237
1153 45 409 404 400 402
1154 20 86 561 558 556
1155 34 90 561 86 88
1156 34 537 561 86 88
1157 48 558 561 86 559
1158 35 90 561 86 559
1159 35 537 561 86 559
1160 21 405 406 402 400
1161 37 410 406 405 543
1162 36 410 406 405 538
1163 37 408 406 405 543
1164 36 408 406 405 538
1165 8 544 405 406 402
1166 47 543 405 406 402
1167 43 538 405 406 402
1168 7 406 405 544 543
1169 6 406 405 544 548
1170 6 406 405 544 541
1171 9 406 405 543 544
1172 6 544 405 406 410
1173 6 544 405 406 408
1174 42 538 405 544 543
1175 36 548 544 405 538
1176 36 541 544 405 538
1177 37 548 544 405 543
1178 37 541 544 405 543
1179 22 405 543 544 548
1180 22 405 543 544 541
1181 16 544 543 405 538
1182 17 406 402 400 404
1183 32 400 402 406 410
1184 32 400 402 406 408
1185 17 406 402 400 397
1186 3 561 86 84 317
1187 39 88 86 84 317
1188 4 84 86 561 558
1189 2 84 86 561 90
1190 2 84 86 561 537
1191 5 84 86 559 318
1192 2 561 86 84 82
1193 2 561 86 84 552
1194 40 88 86 561 558
1195 41 88 86 559 318
1196 5 561 86 559 318
1197 17 252 461 462 255
1198 17 252 461 462 421
1199 32 462 461 252 253
1200 32 462 461 252 459
1201 21 247 252 461 462
1202 36 253 252 247 246
1203 36 459 252 247 246
1204 37 253 252 247 243
1205 37 459 252 247 243
1206 26 255 462 421 423
1207 27 255 462 421 420
1208 27 421 462 255 256
1209 26 404 400 397 445
1210 27 404 400 397 396
1211 27 397 400 404 409
1212 9 195 197 199 196
1213 8 196 197 195 394
1214 6 196 197 195 163
1215 6 196 197 195 398
1216 6 195 197 196 198
1217 6 195 197 196 194
1218 42 200 197 196 199
1219 43 200 197 195 394
1220 47 199 197 195 394
1221 7 195 197 196 199
1222 18 86 84 317 320
1223 46 317 84 86 559
1224 19 86 84 317 464
1225 38 82 84 317 464
1226 38 552 84 317 464
1227 35 82 84 86 559
1228 34 82 84 86 88
1229 35 552 84 86 559
1230 34 552 84 86 88
1231 16 196 199 197 200
1232 22 197 199 196 198
1233 22 197 199 196 194
1234 21 197 195 394 442
1235 36 163 195 197 200
1236 36 398 195 197 200
1237 37 163 195 197 199
1238 37 398 195 197 199
1239 17 561 558 556 554
1240 17 561 558 556 560
1241 32 556 558 561 537
1242 32 556 558 561 90
1243 20 140 142 143 146
1244 34 144 142 140 138
1245 34 141 142 140 138
1246 48 143 142 140 139
1247 35 144 142 140 139
1248 35 141 142 140 139
1249 26 554 556 560 557
1250 27 554 556 560 536
1251 27 560 556 554 551
1252 27 146 149 25 27
1253 45 147 149 146 143
1254 44 147 149 25 27
1255 29 25 149 146 143
1256 37 308 311 312 313
1257 36 308 311 312 315
1258 37 314 311 312 313
1259 36 314 311 312 315
1260 26 148 146 149 25
1261 27 148 146 149 147
1262 27 149 146 148 145
1263 10 31 30 23 22
1264 25 23 30 31 35
1265 25 23 30 31 34
1266 26 23 30 33 32
1267 27 23 30 33 36
1268 11 31 30 23 21
1269 27 33 30 23 21
1270 25 33 30 31 35
1271 25 33 30 31 34
1272 11 31 30 33 36
1273 10 31 30 33 32
1274 24 29 31 30 23
1275 24 30 31 29 24
1276 24 30 31 29 25
1277 24 29 31 30 33
1278 37 198 196 197 199
1279 36 198 196 197 200
1280 37 194 196 197 199
1281 36 194 196 197 200
1282 21 108 504 501 500
1283 37 506 504 108 107
1284 36 506 504 108 19
1285 37 582 504 108 107
1286 36 582 504 108 19
1287 24 555 434 436 435
1288 24 436 434 555 553
1289 24 436 434 555 557
1290 24 555 434 436 439
1291 29 217 255 462 461
1292 45 256 255 462 461
1293 26 462 255 217 424
1294 27 462 255 217 220
1295 44 256 255 217 220
1296 26 217 255 462 421
1297 17 504 501 500 503
1298 32 500 501 504 506
1299 32 500 501 504 582
1300 17 504 501 500 498
1301 26 555 553 554 556
1302 27 555 553 554 551
1303 44 550 553 554 551
1304 26 554 553 555 557
1305 17 571 573 575 453
1306 32 575 573 571 566
1307 32 575 573 571 570
1308 17 571 573 575 577
1309 26 301 304 305 302
1310 27 301 304 305 307
1311 27 305 304 301 300
1312 10 31 29 24 148
1313 11 31 29 24 28
1314 10 31 29 25 149
1315 11 31 29 25 27
1316 25 24 29 31 35
1317 25 25 29 31 35
1318 25 24 29 31 34
1319 25 25 29 31 34
1320 26 24 29 25 149
1321 27 24 29 25 27
1322 27 25 29 24 28
1323 27 556 560 557 440
1324 45 536 560 556 558
1325 44 536 560 557 440
1326 29 557 560 556 558
1327 26 555 557 560 556
1328 27 555 557 560 536
1329 26 301 298 299 302
1330 27 299 298 301 300
1331 26 29 25 149 146
1332 27 29 25 149 147
1333 26 22 23 30 33
1334 27 30 23 22 20
1335 26 499 497 498 500
1336 27 499 497 498 496
1337 27 500 498 497 495
1338 45 496 498 500 501
1339 44 496 498 497 495
1340 29 497 498 500 501
1341 27 400 397 445 444
1342 45 396 397 400 402
1343 44 396 397 445 444
1344 29 445 397 400 402
1345 26 499 502 503 500
1346 27 499 502 503 505
1347 44 463 502 503 505
1348 26 503 502 499 497
1349 24 499 295 299 298
1350 24 299 295 499 502
1351 24 299 295 499 497
1352 24 499 295 299 302
1353 29 302 305 304 306
1354 45 307 305 304 306
1355 26 304 305 302 299
1356 27 304 305 302 303
1357 29 298 301 304 306
1358 45 300 301 304 306
1359 26 304 301 298 299
1360 27 304 301 298 296
1361 44 300 301 298 296
1362 26 298 301 304 305
1363 26 231 445 397 400
1364 27 231 445 397 396
1365 26 438 435 436 439
1366 27 436 435 438 437
1367 9 310 312 313 311
1368 8 311 312 310 306
1369 6 311 312 310 309
1370 6 311 312 310 377
1371 6 310 312 311 308
1372 6 310 312 311 314
1373 42 315 312 311 313
1374 43 315 312 310 306
1375 47 313 312 310 306
1376 7 310 312 311 313
1377 29 435 438 442 394
1378 45 437 438 442 394
1379 26 442 438 435 436
1380 27 442 438 435 433
1381 44 437 438 435 433
1382 26 435 438 442 393
1383 26 438 442 393 439
1384 27 438 442 393 395
1385 27 393 442 438 437
1386 29 439 393 442 394
1387 45 395 393 442 394
1388 26 442 393 439 436
1389 27 442 393 439 441
1390 27 299 302 305 307
1391 44 303 302 305 307
1392 10 295 499 502 503
1393 11 295 499 502 463
1394 10 295 499 497 498
1395 11 295 499 497 495
1396 25 502 499 295 293
1397 25 497 499 295 293
1398 25 502 499 295 458
1399 25 497 499 295 458
1400 26 502 499 497 498
1401 27 502 499 497 495
1402 27 497 499 502 463
1403 29 502 503 500 501
1404 26 502 503 500 498
1405 27 500 503 502 463
1406 45 505 503 500 501
1407 10 434 555 553 554
1408 11 434 555 553 550
1409 10 434 555 557 560
1410 11 434 555 557 440
1411 25 553 555 434 431
1412 25 557 555 434 431
1413 25 553 555 434 429
1414 25 557 555 434 429
1415 26 553 555 557 560
1416 27 553 555 557 440
1417 27 557 555 553 550
1418 10 434 436 435 438
1419 25 435 436 434 431
1420 25 435 436 434 429
1421 26 435 436 439 393
1422 27 435 436 439 441
1423 11 434 436 435 433
1424 27 439 436 435 433
1425 25 439 436 434 431
1426 25 439 436 434 429
1427 11 434 436 439 441
1428 10 434 436 439 393
1429 27 436 439 393 395
1430 44 441 439 393 395
1431 1 263 262 267 268
1432 23 267 262 263 264
1433 23 267 262 263 259
1434 23 267 262 263 265
1435 1 263 262 267 109
1436 33 261 262 263 264
1437 33 261 262 263 259
1438 33 261 262 263 265
1439 33 260 262 263 264
1440 33 260 262 263 259
1441 33 260 262 263 265
1442 26 255 217 424 423
1443 27 424 217 255 256
1444 10 295 299 298 301
1445 25 298 299 295 293
1446 25 298 299 295 458
1447 26 298 299 302 305
1448 27 298 299 302 303
1449 11 295 299 298 296
1450 27 302 299 298 296
1451 25 302 299 295 293
1452 25 302 299 295 458
1453 11 295 299 302 303
1454 10 295 299 302 305
1455 29 553 554 556 558
1456 26 553 554 556 560
1457 27 556 554 553 550
1458 45 551 554 556 558
1459 17 195 394 442 438
1460 17 195 394 442 393
1461 32 442 394 195 163
1462 32 442 394 195 398
1463 21 472 473 467 469
1464 36 471 473 472 474
1465 36 443 473 472 474
1466 37 471 473 472 466
1467 37 443 473 472 466
1468 21 568 571 573 575
1469 37 566 571 568 564
1470 36 566 571 568 565
1471 37 570 571 568 564
1472 36 570 571 568 565

Impropers

1 26 281 283 280 285
2 24 447 281 278 283
3 26 276 278 281 116
4 25 276 277 280 275
5 2 287 282 279 280
6 2 287 282 483 280
7 13 280 282 279 483
8 3 287 282 279 483
9 24 282 280 283 277
10 24 274 276 277 278
11 22 430 379 223 193
12 21 430 379 223 378
13 23 430 379 193 378
14 23 223 379 193 378
15 3 345 403 401 407
16 3 345 403 401 399
17 3 345 403 407 399
18 14 401 403 407 399
19 3 282 287 289 288
20 3 282 287 289 489
21 3 282 287 288 489
22 14 289 287 288 489
23 25 177 49 47 50
24 25 49 47 174 45
25 27 176 174 47 169
26 10 379 223 193 222
27 10 379 223 193 224
28 7 379 223 222 224
29 16 222 223 224 193
30 24 56 177 49 124
31 30 283 285 286 449
32 30 278 116 227 114
33 24 56 15 13 17
34 25 15 13 11 53
35 10 43 41 39 42
36 10 43 41 39 40
37 7 43 41 42 40
38 16 42 41 40 39
39 9 379 430 432 380
40 9 379 430 428 380
41 17 432 430 428 380
42 7 379 430 432 428
43 25 13 11 12 10
44 12 15 56 177 132
45 12 15 56 177 57
46 13 15 56 132 57
47 13 177 56 132 57
48 8 472 269 271 466
49 8 472 269 270 466
50 16 271 269 270 466
51 7 472 269 271 270
52 22 269 472 473 466
53 21 269 472 473 474
54 23 269 472 466 474
55 23 473 472 466 474
56 22 528 531 532 527
57 21 528 531 532 533
58 23 528 531 527 533
59 23 532 531 527 533
60 2 403 345 346 349
61 2 403 345 340 349
62 13 349 345 346 340
63 3 403 345 346 340
64 24 345 349 354 344
65 12 186 187 185 189
66 12 186 187 185 183
67 13 186 187 189 183
68 13 185 187 189 183
69 25 14 17 15 18
70 25 128 180 185 179
71 9 43 168 167 169
72 9 43 168 172 169
73 17 167 168 172 169
74 7 43 168 167 172
75 9 368 367 364 369
76 9 368 367 365 369
77 17 364 367 365 369
78 7 368 367 364 365
79 8 531 528 507 527
80 8 531 528 529 527
81 16 507 528 529 527
82 7 531 528 507 529
83 25 348 352 353 290
84 25 185 136 135 191
85 25 136 135 130 137
86 24 187 185 136 180
87 10 251 250 125 103
88 10 251 250 125 102
89 7 251 250 103 102
90 16 103 250 102 125
91 9 251 131 134 129
92 9 251 131 133 129
93 17 134 131 133 129
94 7 251 131 134 133
95 25 130 128 180 126
96 11 531 532 534 508
97 11 531 532 534 530
98 7 531 532 508 530
99 17 508 532 530 534
100 27 388 384 386 380
101 25 350 343 342 339
102 27 128 130 135 129
103 25 384 388 392 387
104 25 388 392 334 335
105 24 337 334 390 392
106 25 390 386 384 382
107 25 334 390 386 391
108 24 337 342 348 343
109 25 353 350 343 517
110 27 350 353 352 358
111 11 4 8 9 6
112 11 4 8 9 7
113 7 4 8 6 7
114 17 6 8 7 9
115 22 3 4 8 1
116 21 3 4 8 5
117 23 3 4 1 5
118 23 8 4 1 5
119 8 123 294 297 291
120 8 123 294 249 291
121 16 297 294 249 291
122 7 123 294 297 249
123 12 342 337 334 338
124 12 342 337 334 336
125 13 342 337 338 336
126 13 334 337 338 336
127 22 294 123 121 291
128 21 294 123 121 292
129 23 294 123 291 292
130 23 121 123 291 292
131 25 12 14 17 16
132 27 14 12 11 9
133 8 211 210 207 213
134 8 211 210 212 213
135 16 207 210 212 213
136 7 211 210 207 212
137 25 342 348 352 284
138 22 131 251 250 125
139 21 131 251 250 248
140 23 131 251 125 248
141 23 250 251 125 248
142 8 4 3 99 1
143 8 4 3 2 1
144 16 99 3 2 1
145 7 4 3 99 2
146 27 22 26 32 534
147 22 168 43 41 39
148 21 168 43 41 170
149 23 168 43 39 170
150 23 41 43 39 170
151 24 319 321 320 323
152 26 111 91 112 95
153 25 423 421 462 420
154 13 281 447 446 450
155 13 281 447 446 448
156 13 281 447 450 448
157 14 446 447 450 448
158 25 326 323 321 324
159 25 218 425 374 426
160 13 356 361 363 360
161 13 356 361 363 362
162 13 356 361 360 362
163 14 363 361 360 362
164 26 356 354 349 357
165 30 354 357 359 355
166 19 257 140 142 139
167 18 257 140 142 138
168 20 257 140 139 138
169 20 142 140 139 138
170 13 322 152 154 151
171 13 322 152 154 150
172 13 322 152 151 150
173 14 154 152 151 150
174 30 325 327 156 329
175 26 326 325 322 327
176 24 328 326 323 325
177 24 152 322 325 320
178 26 321 320 322 317
179 26 67 65 64 542
180 30 65 542 547 540
181 24 63 64 65 66
182 24 69 67 70 65
183 13 67 69 46 44
184 13 67 69 46 48
185 13 67 69 44 48
186 14 46 69 44 48
187 26 67 70 68 72
188 2 545 63 98 64
189 2 545 63 539 64
190 13 64 63 98 539
191 3 545 63 98 539
192 25 68 66 64 100
193 29 257 72 74 70
194 24 71 68 66 70
195 5 140 257 254 72
196 5 140 257 258 72
197 15 254 257 258 72
198 4 140 257 254 258
199 3 63 545 576 572
200 3 63 545 576 546
201 3 63 545 572 546
202 14 576 545 572 546
203 29 84 317 464 320
204 1 204 71 68 75
205 1 204 71 68 101
206 3 204 71 75 101
207 13 68 71 75 101
208 25 424 423 421 422
209 25 347 344 349 341
210 10 108 105 107 104
211 10 108 105 107 106
212 7 108 105 104 106
213 16 104 105 106 107
214 24 361 356 351 354
215 3 89 85 110 83
216 3 89 85 110 87
217 3 89 85 83 87
218 14 110 85 83 87
219 1 383 328 326 385
220 1 383 328 326 332
221 3 383 328 385 332
222 13 326 328 385 332
223 3 71 204 203 202
224 3 71 204 203 205
225 3 71 204 202 205
226 14 203 204 202 205
227 22 571 568 569 564
228 21 571 568 569 565
229 23 571 568 564 565
230 23 569 568 564 565
231 25 30 33 32 36
232 30 91 95 97 96
233 24 219 218 425 216
234 12 424 219 218 221
235 12 424 219 218 427
236 13 424 219 221 427
237 13 218 219 221 427
238 26 112 109 267 155
239 1 85 89 111 225
240 1 85 89 111 62
241 3 85 89 225 62
242 13 111 89 225 62
243 3 328 383 512 381
244 3 328 383 512 389
245 3 328 383 381 389
246 14 512 383 381 389
247 27 188 371 374 369
248 24 219 424 423 217
249 22 367 368 372 370
250 21 367 368 372 366
251 23 367 368 370 366
252 23 372 368 370 366
253 25 371 188 216 184
254 10 368 372 370 375
255 10 368 372 370 373
256 7 368 372 375 373
257 16 375 372 373 370
258 13 112 92 93 94
259 13 112 92 93 38
260 13 112 92 94 38
261 14 93 92 94 38
262 25 33 32 26 535
263 25 111 268 267 266
264 24 89 111 268 91
265 25 188 216 218 215
266 24 92 112 91 109
267 25 425 374 371 376
268 25 24 148 146 145
269 10 568 569 564 451
270 10 568 569 564 567
271 7 568 569 451 567
272 16 451 569 567 564
273 25 176 124 177 127
274 25 29 24 148 28
275 25 174 176 124 120
276 22 504 108 105 107
277 21 504 108 105 19
278 23 504 108 107 19
279 23 105 108 107 19
280 24 187 186 182 190
281 27 470 469 331 467
282 25 469 470 585 468
283 25 333 331 469 330
284 25 470 585 516 584
285 25 516 333 331 272
286 24 515 516 333 585
287 12 516 515 475 513
288 12 516 515 475 514
289 13 516 515 513 514
290 13 475 515 513 514
291 24 515 475 477 478
292 25 475 477 479 562
293 1 162 165 347 164
294 1 162 165 347 166
295 3 162 165 164 166
296 13 347 165 164 166
297 25 480 478 475 476
298 3 165 162 160 161
299 3 165 162 160 159
300 3 165 162 161 159
301 14 160 162 161 159
302 8 521 523 522 519
303 8 521 523 526 519
304 16 522 523 526 519
305 7 521 523 522 526
306 25 477 479 482 563
307 25 482 480 478 481
308 24 165 347 344 351
309 25 58 60 190 61
310 27 480 482 479 484
311 11 79 55 59 54
312 11 79 55 59 52
313 7 79 55 54 52
314 17 54 55 52 59
315 22 523 521 520 519
316 21 523 521 520 525
317 23 523 521 519 525
318 23 520 521 519 525
319 25 186 182 181 178
320 27 60 58 181 59
321 24 262 267 109 268
322 25 182 181 58 51
323 3 274 113 115 158
324 3 274 113 115 157
325 3 274 113 158 157
326 14 115 113 158 157
327 25 60 190 186 192
328 27 498 500 503 501
329 25 231 201 404 237
330 1 113 274 276 117
331 1 113 274 276 273
332 3 113 274 117 273
333 13 276 274 117 273
334 22 210 211 208 213
335 21 210 211 208 214
336 23 210 211 213 214
337 23 208 211 213 214
338 11 521 520 358 518
339 11 521 520 358 524
340 7 521 520 518 524
341 17 518 520 524 358
342 25 575 577 578 574
343 25 577 578 580 579
344 25 233 235 239 236
345 24 581 580 456 578
346 25 235 239 238 240
347 24 229 233 235 232
348 11 211 208 413 206
349 11 211 208 413 209
350 7 211 208 206 209
351 17 206 208 209 413
352 25 234 232 233 230
353 22 487 490 492 486
354 21 487 490 492 488
355 23 487 490 486 488
356 23 492 490 486 488
357 10 490 492 486 493
358 10 490 492 486 494
359 7 490 492 493 494
360 16 493 492 494 486
361 9 490 487 485 484
362 9 490 487 491 484
363 17 485 487 491 484
364 7 490 487 485 491
365 25 415 418 417 419
366 27 415 414 412 413
367 24 581 417 455 418
368 25 414 415 418 416
369 25 417 455 412 454
370 25 455 412 414 411
371 12 417 581 580 460
372 12 417 581 580 549
373 13 417 581 460 549
374 13 580 581 460 549
375 25 238 234 232 118
376 27 234 238 239 241
377 11 312 310 306 309
378 11 312 310 306 377
379 7 312 310 309 377
380 17 309 310 377 306
381 25 580 456 453 457
382 12 233 229 231 228
383 12 233 229 231 226
384 13 233 229 228 226
385 13 231 229 228 226
386 11 123 121 241 119
387 11 123 121 241 122
388 7 123 121 119 122
389 17 119 121 122 241
390 25 456 453 575 452
391 27 577 575 453 573
392 24 229 231 201 445
393 25 26 22 23 20
394 22 78 79 55 77
395 21 78 79 55 81
396 23 78 79 77 81
397 23 55 79 77 81
398 26 347 351 356 173
399 30 351 173 171 175
400 8 247 244 242 243
401 8 247 244 245 243
402 16 242 244 245 243
403 7 247 244 242 245
404 22 244 247 252 243
405 21 244 247 252 246
406 23 244 247 243 246
407 23 252 247 243 246
408 8 79 78 80 77
409 8 79 78 76 77
410 16 80 78 76 77
411 7 79 78 80 76
412 2 510 319 316 321
413 2 510 319 465 321
414 13 321 319 316 465
415 3 510 319 316 465
416 25 201 404 400 409
417 6 86 561 558 90
418 6 86 561 558 537
419 4 86 561 90 537
420 17 90 561 537 558
421 9 405 406 410 402
422 9 405 406 408 402
423 17 410 406 408 402
424 7 405 406 410 408
425 22 406 405 544 543
426 21 406 405 544 538
427 23 406 405 543 538
428 23 544 405 543 538
429 10 405 544 543 548
430 10 405 544 543 541
431 7 405 544 548 541
432 16 548 544 541 543
433 3 319 510 583 509
434 3 319 510 583 511
435 3 319 510 509 511
436 14 583 510 509 511
437 19 84 86 561 559
438 18 84 86 561 88
439 20 84 86 559 88
440 20 561 86 559 88
441 11 247 252 461 253
442 11 247 252 461 459
443 7 247 252 253 459
444 17 253 252 459 461
445 27 255 462 421 461
446 27 397 400 404 402
447 22 196 197 195 199
448 21 196 197 195 200
449 23 196 197 199 200
450 23 195 197 199 200
451 5 86 84 82 317
452 5 86 84 552 317
453 15 82 84 552 317
454 4 86 84 82 552
455 11 197 195 394 163
456 11 197 195 394 398
457 7 197 195 163 398
458 17 163 195 398 394
459 6 140 142 143 144
460 6 140 142 143 141
461 4 140 142 144 141
462 17 144 142 141 143
463 27 560 556 554 558
464 25 146 149 25 147
465 8 312 311 308 313
466 8 312 311 314 313
467 16 308 311 314 313
468 7 312 311 308 314
469 27 149 146 148 143
470 24 31 30 33 23
471 12 30 31 29 35
472 12 30 31 29 34
473 13 30 31 35 34
474 13 29 31 35 34
475 8 197 196 198 199
476 8 197 196 194 199
477 16 198 196 194 199
478 7 197 196 198 194
479 9 108 504 506 501
480 9 108 504 582 501
481 17 506 504 582 501
482 7 108 504 506 582
483 12 436 434 555 431
484 12 436 434 555 429
485 13 436 434 431 429
486 13 555 434 431 429
487 25 462 255 217 256
488 25 555 553 554 550
489 27 301 304 305 306
490 24 31 29 24 25
491 25 556 560 557 536
492 25 560 557 555 440
493 25 301 298 299 296
494 30 109 155 153 37
495 25 149 25 29 27
496 25 22 23 30 21
497 25 498 497 499 495
498 25 500 498 497 496
499 25 400 397 445 396
500 25 499 502 503 463
501 12 299 295 499 293
502 12 299 295 499 458
503 13 299 295 293 458
504 13 499 295 293 458
505 25 302 305 304 307
506 25 304 301 298 300
507 25 397 445 231 444
508 25 438 435 436 433
509 22 311 312 310 313
510 21 311 312 310 315
511 23 311 312 313 315
512 23 310 312 313 315
513 25 442 438 435 437
514 27 438 442 393 394
515 25 439 393 442 395
516 25 299 302 305 303
517 24 295 499 502 497
518 25 502 503 500 505
519 24 434 555 553 557
520 24 434 436 439 435
521 25 436 439 393 441
522 2 263 262 261 267
523 2 263 262 260 267
524 13 267 262 261 260
525 3 263 262 261 260
526 25 255 217 424 220
527 24 295 299 302 298
528 3 262 263 264 259
529 3 262 263 264 265
530 3 262 263 259 265
531 14 264 263 259 265
532 25 553 554 556 551
533 11 472 473 467 471
534 11 472 473 467 443
535 7 472 473 471 443
536 17 471 473 443 467
537 9 568 571 566 573
538 9 568 571 570 573
539 17 566 571 570 573
540 7 568 571 566 570
