LAMMPS data file via write_data, version 4 Jul 2026, timestep = 637500, units = real

585 atoms
11 atom types
615 bonds
18 bond types
1090 angles
35 angle types
1478 dihedrals
48 dihedral types
540 impropers
30 improper types

1.3268638332018696 19.82691517679833 xlo xhi
1.3268638332018696 19.82691517679833 ylo yhi
1.3268638332018696 19.82691517679833 zlo zhi

Masses

1 12.01115
2 12.01115
3 12.01115
4 12.01115
5 1.00797
6 1.00797
7 1.00797
8 14.0067
9 15.9994
10 15.9994
11 15.9994

Pair Coeffs # lj/class2/coul/long

1 0.054 4.01
2 0.054 4.01
3 0.054 4.01
4 0.064 4.01
5 0.02 2.995
6 0.013 1.098
7 0.013 1.098
8 0.065 4.07
9 0.24 3.535
10 0.24 3.535
11 0.24 3.535

Bond Coeffs # class2

1 1.53 299.67 -501.77 679.81
2 1.53 299.67 -501.77 679.81
3 1.53 299.67 -501.77 679.81
4 1.501 321.902 -521.821 572.163
5 1.101 345 -691.89 844.6
6 1.457 365.805 -699.637 998.484
7 1.42 400.395 -835.195 1313.01
8 1.42 400.395 -835.195 1313.01
9 1.101 345 -691.89 844.6
10 1.42 400.395 -835.195 1313.01
11 1.101 345 -691.89 844.6
12 1.42 400.395 -835.195 1313.01
13 1.417 470.836 -627.618 1327.63
14 1.0982 372.825 -803.453 894.317
15 1.412 257.775 0 0
16 1.3768 428.88 -738.235 1114.97
17 1.006 466.74 -1073.6 1251.11
18 0.965 532.506 -1282.9 2004.77

Angle Coeffs # class2

1 108.4 43.9594 -8.3924 -9.3379
2 110.77 41.453 -10.604 5.129
3 112.67 39.516 -7.443 -9.5583
4 110.77 41.453 -10.604 5.129
5 111.27 54.5381 -8.3642 -13.0838
6 112.67 39.516 -7.443 -9.5583
7 110.77 41.453 -10.604 5.129
8 111.27 54.5381 -8.3642 -13.0838
9 120.05 44.7148 -22.7352 0
10 112.444 47.2337 -10.6612 -10.2062
11 109 80 0 0
12 110.954 50.8652 -4.4522 -10.0298
13 104.5 35.7454 -10.0067 -6.2729
14 102.969 38.9739 -6.2595 -8.171
15 110.77 41.453 -10.604 5.129
16 111.91 60.7147 -13.3366 -13.0785
17 111.27 54.5381 -8.3642 -13.0838
18 105.8 52.7061 -12.109 -9.8681
19 110.77 41.453 -10.604 5.129
20 111.27 54.5381 -8.3642 -13.0838
21 111.27 54.5381 -8.3642 -13.0838
22 111 44.3234 -9.4454 0
23 111 44.3234 -9.4454 0
24 118.9 61.0226 -34.9931 0
25 117.94 35.1558 -12.4682 0
26 120 102 0 0
27 123.42 73.6781 -21.6787 0
28 110 41.6 0 0
29 107.66 39.641 -12.921 -2.4318
30 110.62 51.3137 -6.7198 -2.6003
31 108.728 58.5446 -10.8088 -12.4006
32 108.728 58.5446 -10.8088 -12.4006
33 108.728 58.5446 -10.8088 -12.4006
34 108.728 58.5446 -10.8088 -12.4006
35 107.067 45.252 -7.5558 -9.512

BondBond Coeffs

1 0 1.53 1.501
2 3.3872 1.53 1.101
3 0 1.53 1.53
4 3.3872 1.53 1.101
5 11.4318 1.53 1.42
6 0 1.53 1.53
7 3.3872 1.53 1.101
8 11.4318 1.53 1.42
9 12.0676 1.501 1.417
10 -2.1113 1.457 1.457
11 0 1.457 1.412
12 -6.4168 1.457 1.006
13 -7.1131 1.42 1.42
14 0 1.42 1.3768
15 3.3872 1.53 1.101
16 4.6217 1.53 1.457
17 11.4318 1.53 1.42
18 -9.6879 1.42 0.965
19 3.3872 1.53 1.101
20 11.4318 1.53 1.42
21 11.4318 1.53 1.42
22 0 1.501 1.501
23 2.9168 1.501 1.101
24 68.2856 1.417 1.417
25 1.0795 1.417 1.0982
26 0 1.417 1.412
27 48.4754 1.417 1.3768
28 0 1.412 1.006
29 5.3316 1.101 1.101
30 12.426 1.101 1.457
31 23.1979 1.101 1.42
32 23.1979 1.101 1.42
33 23.1979 1.101 1.42
34 23.1979 1.101 1.42
35 -1.8749 1.006 1.006

BondAngle Coeffs

1 0 0 1.53 1.501
2 20.754 11.421 1.53 1.101
3 8.016 8.016 1.53 1.53
4 20.754 11.421 1.53 1.101
5 2.6868 20.4033 1.53 1.42
6 8.016 8.016 1.53 1.53
7 20.754 11.421 1.53 1.101
8 2.6868 20.4033 1.53 1.42
9 47.0579 31.0771 1.501 1.417
10 -7.2229 -7.2229 1.457 1.457
11 0 0 1.457 1.412
12 31.8096 20.5799 1.457 1.006
13 -2.8112 -2.8112 1.42 1.42
14 0 0 1.42 1.3768
15 20.754 11.421 1.53 1.101
16 6.0876 16.5702 1.53 1.457
17 2.6868 20.4033 1.53 1.42
18 28.58 18.9277 1.42 0.965
19 20.754 11.421 1.53 1.101
20 2.6868 20.4033 1.53 1.42
21 2.6868 20.4033 1.53 1.42
22 0 0 1.501 1.501
23 26.4608 11.7717 1.501 1.101
24 28.8708 28.8708 1.417 1.417
25 20.0033 24.2183 1.417 1.0982
26 0 0 1.417 1.412
27 58.479 107.681 1.417 1.3768
28 0 0 1.412 1.006
29 18.103 18.103 1.101 1.101
30 13.4582 42.4332 1.101 1.457
31 4.6189 55.327 1.101 1.42
32 4.6189 55.327 1.101 1.42
33 4.6189 55.327 1.101 1.42
34 4.6189 55.327 1.101 1.42
35 28.0322 28.0322 1.006 1.006

Dihedral Coeffs # class2

1 -0.2802 0 -0.0678 0 -0.0122 0
2 0 0 0.0316 0 -0.1681 0
3 0.1764 0 0.1766 0 -0.5206 0
4 0.7137 0 0.266 0 -0.2545 0
5 -0.6732 0 -0.4778 0 -0.167 0
6 0 0 0.0316 0 -0.1681 0
7 0.7137 0 0.266 0 -0.2545 0
8 0.7137 0 0.266 0 -0.2545 0
9 -0.5203 0 -0.3028 0 -0.345 0
10 0 0 4.4072 0 0 0
11 0 0 1.559 0 0 0
12 0 0 3 0 0 0
13 -0.1406 0 0.4168 0 0.015 0
14 0.1904 0 -0.1342 0 -0.246 0
15 0 0 2.25 0 0 0
16 0.5302 0 0 0 -0.3966 0
17 0 0 1.5 0 0 0
18 0 0 0 0 0.05 180
19 -1.1506 0 -0.6344 0 -0.1845 0
20 0 0 0 0 0.13 180
21 0 0 0 0 0.13 180
22 0.5302 0 0 0 -0.3966 0
23 -0.0228 0 0.028 0 -0.1863 0
24 -0.2802 0 -0.0678 0 -0.0122 0
25 -0.2801 0 -0.0678 0 -0.0122 0
26 8.3667 0 1.1932 0 0 0
27 0 0 3.9661 0 0 0
28 0 0 3 0 0 0
29 0 0 4.8498 0 0 0
30 0 0 2.25 0 0 0
31 0 0 0 0 0.05 180
32 0.9513 0 0.1155 0 0.072 0
33 -0.1432 0 0.0617 0 -0.1083 0
34 -0.1432 0 0.0617 0 -0.1083 0
35 -0.1435 0 0.253 0 -0.0905 0
36 -0.1432 0 0.0617 0 -0.1083 0
37 -0.1435 0 0.253 0 -0.0905 0
38 -0.5187 0 -0.4837 0 -0.1692 0
39 -0.2428 0 0.4065 0 -0.3079 0
40 -0.1435 0 0.253 0 -0.0905 0
41 0.1863 0 -0.4338 0 -0.2121 0
42 -0.1435 0 0.253 0 -0.0905 0
43 -0.1435 0 0.253 0 -0.0905 0
44 0 0 1.8769 0 0 0
45 0 0 1.7234 0 0 0
46 0 0 0 0 0.158 180
47 -0.182 0 -0.1084 0 -0.7047 0
48 -0.182 0 -0.1084 0 -0.7047 0

AngleAngleTorsion Coeffs

1 0 108.4 120.05
2 -16.164 112.67 110.77
3 -27.3953 112.67 111.91
4 -29.042 112.67 111.27
5 -12.1038 111.27 105.8
6 -16.164 112.67 110.77
7 -29.042 112.67 111.27
8 -29.042 112.67 111.27
9 -19.0059 111.27 104.5
10 -14.4097 120.05 118.9
11 4.4444 120.05 117.94
12 0 120.05 120
13 -24.3818 112.444 111.91
14 -12.5567 112.444 110.62
15 0 109 120
16 -16.4438 104.5 108.728
17 0 102.969 123.42
18 0 111.91 109
19 -7.5499 111.91 110.954
20 0 111.27 102.969
21 0 111.27 102.969
22 -16.4438 104.5 108.728
23 0 108.4 110.77
24 0 111 120.05
25 -5.8888 120.05 111
26 0 118.9 118.9
27 -4.8141 118.9 117.94
28 0 118.9 120
29 -21.0247 118.9 123.42
30 0 120 110
31 0 109 110.62
32 0 102.969 108.728
33 -12.564 110.77 110.77
34 -12.564 110.77 110.77
35 -20.2006 110.77 111.27
36 -12.564 110.77 110.77
37 -20.2006 110.77 111.27
38 -10.4258 110.62 110.954
39 -15.7572 110.77 111.91
40 -20.2006 110.77 111.27
41 -10.5093 108.728 105.8
42 -20.2006 110.77 111.27
43 -20.2006 110.77 111.27
44 0.3598 117.94 117.94
45 4.2296 117.94 123.42
46 0 111.91 111.27
47 -14.0484 111.27 111.27
48 -14.0484 111.27 111.27

EndBondTorsion Coeffs

1 0 0 0 0 0 0 1.53 1.417
2 0.2486 0.2422 -0.0925 0.0814 0.0591 0.2219 1.53 1.101
3 0.1032 0.5896 -0.4836 0.0579 -0.0043 -0.1906 1.53 1.457
4 -0.319 0.4411 -0.7174 1.1538 0.8409 -0.9138 1.53 1.42
5 -0.58 0.9004 0 0 0.5343 0.9025 1.53 0.965
6 0.2486 0.2422 -0.0925 0.0814 0.0591 0.2219 1.53 1.101
7 -0.319 0.4411 -0.7174 1.1538 0.8409 -0.9138 1.53 1.42
8 -0.319 0.4411 -0.7174 1.1538 0.8409 -0.9138 1.53 1.42
9 -0.2456 1.0517 -0.7795 0.4741 1.2635 0.5576 1.53 1.42
10 0 0.2421 0 0 -0.6918 0 1.501 1.417
11 0 -1.797 0 0 -0.4879 0 1.501 1.0982
12 0 0 0 0 0 0 1.501 1.412
13 -0.0128 -0.0495 -0.1079 0.0997 -0.0046 -0.2657 1.457 1.53
14 0.0628 0.0873 -0.0882 -0.5892 0.714 0.3505 1.457 1.101
15 0 0 0 0 0 0 1.457 1.417
16 -0.162 0.1564 -1.1408 -0.6054 1.3339 0.9648 1.42 1.101
17 0 0 0 0 0 0 1.42 1.417
18 0 0 0 0 0 0 1.53 1.412
19 -0.9466 0.9356 -0.5542 0.057 0.0625 0.4112 1.53 1.006
20 0 0 0 0 0 0 1.53 1.3768
21 0 0 0 0 0 0 1.53 1.3768
22 -0.162 0.1564 -1.1408 -0.6054 1.3339 0.9648 1.42 1.101
23 0 0 0 0 0 0 1.501 1.101
24 0 0 0 0 0 0 1.501 1.417
25 -0.5835 1.122 0.3978 1.3997 0.7756 0 1.417 1.101
26 -0.1185 6.3204 0 -0.1185 6.3204 0 1.417 1.417
27 0 -6.8958 0 0 -0.4669 0 1.417 1.0982
28 0 0 0 0 0 0 1.417 1.412
29 0 0.2655 0 0 4.8905 0 1.417 1.3768
30 0 0 0 0 0 0 1.417 1.006
31 0 0 0 0 0 0 1.412 1.101
32 0 0 0 0 0 0 1.3768 1.101
33 0.213 0.312 0.0777 0.213 0.312 0.0777 1.101 1.101
34 0.213 0.312 0.0777 0.213 0.312 0.0777 1.101 1.101
35 0.9681 0.9551 0.0436 0.5903 0.6669 0.8584 1.101 1.42
36 0.213 0.312 0.0777 0.213 0.312 0.0777 1.101 1.101
37 0.9681 0.9551 0.0436 0.5903 0.6669 0.8584 1.101 1.42
38 -1.1685 0.9266 -0.0993 0.085 0.3061 0.2104 1.101 1.006
39 0.196 0.7056 0.112 0.1022 0.209 0.6433 1.101 1.457
40 0.9681 0.9551 0.0436 0.5903 0.6669 0.8584 1.101 1.42
41 -1.7554 1.3145 0.2263 0.2493 0.6803 0 1.101 0.965
42 0.9681 0.9551 0.0436 0.5903 0.6669 0.8584 1.101 1.42
43 0.9681 0.9551 0.0436 0.5903 0.6669 0.8584 1.101 1.42
44 0 -0.689 0 0 -0.689 0 1.0982 1.0982
45 0 -1.5867 0 0 4.2641 0 1.0982 1.3768
46 0 0 0 0 0 0 1.457 1.42
47 1.0165 0.7553 -0.4609 1.0165 0.7553 -0.4609 1.42 1.42
48 1.0165 0.7553 -0.4609 1.0165 0.7553 -0.4609 1.42 1.42

MiddleBondTorsion Coeffs

1 0 0 0 1.501
2 -14.879 -3.6581 -0.3138 1.53
3 -15.4174 -7.3055 -1.0749 1.53
4 -21.8842 -7.6764 -0.6868 1.53
5 1.2472 0 0.7485 1.42
6 -14.879 -3.6581 -0.3138 1.53
7 -21.8842 -7.6764 -0.6868 1.53
8 -21.8842 -7.6764 -0.6868 1.53
9 -5.9288 -2.7007 -0.3175 1.42
10 0 9.1792 0 1.417
11 0 3.9421 0 1.417
12 0 0 0 1.417
13 -8.0036 -7.7321 -3.064 1.457
14 -6.4529 -6.8122 -1.1632 1.457
15 0 0 0 1.412
16 -6.8007 -4.6546 -1.4101 1.42
17 0 0 0 1.3768
18 0 0 0 1.457
19 -2.2208 0.5479 -0.3527 1.457
20 0 0 0 1.42
21 0 0 0 1.42
22 -6.8007 -4.6546 -1.4101 1.42
23 0 0 0 1.53
24 0 0 0 1.501
25 -5.5679 1.4083 0.301 1.501
26 27.5989 -2.312 0 1.417
27 0 -1.1521 0 1.417
28 0 0 0 1.417
29 0 4.8255 0 1.417
30 0 0 0 1.412
31 0 0 0 1.457
32 0 0 0 1.42
33 -14.261 -0.5322 -0.4864 1.53
34 -14.261 -0.5322 -0.4864 1.53
35 -16.7975 -1.2296 -0.275 1.53
36 -14.261 -0.5322 -0.4864 1.53
37 -16.7975 -1.2296 -0.275 1.53
38 -3.4611 1.6996 -0.6007 1.457
39 -10.4959 -0.7647 -0.0545 1.53
40 -16.7975 -1.2296 -0.275 1.53
41 0 0.9241 -0.5889 1.42
42 -16.7975 -1.2296 -0.275 1.53
43 -16.7975 -1.2296 -0.275 1.53
44 0 4.8228 0 1.417
45 0 5.5432 0 1.417
46 0 0 0 1.53
47 -17.2585 -3.6157 -0.8364 1.53
48 -17.2585 -3.6157 -0.8364 1.53

BondBond13 Coeffs

1 0 1.53 1.417
2 0 1.53 1.101
3 0 1.53 1.457
4 0 1.53 1.42
5 0 1.53 0.965
6 0 1.53 1.101
7 0 1.53 1.42
8 0 1.53 1.42
9 0 1.53 1.42
10 2.5085 1.501 1.417
11 0.8743 1.501 1.0982
12 0 1.501 1.412
13 0 1.457 1.53
14 0 1.457 1.101
15 0 1.457 1.417
16 0 1.42 1.101
17 0 1.42 1.417
18 0 1.53 1.412
19 0 1.53 1.006
20 0 1.53 1.3768
21 0 1.53 1.3768
22 0 1.42 1.101
23 0 1.501 1.101
24 0 1.501 1.417
25 -3.4826 1.417 1.101
26 53 1.417 1.417
27 -6.2741 1.417 1.0982
28 0 1.417 1.412
29 -2.2436 1.417 1.3768
30 0 1.417 1.006
31 0 1.412 1.101
32 0 1.3768 1.101
33 0 1.101 1.101
34 0 1.101 1.101
35 0 1.101 1.42
36 0 1.101 1.101
37 0 1.101 1.42
38 0 1.101 1.006
39 0 1.101 1.457
40 0 1.101 1.42
41 0 1.101 0.965
42 0 1.101 1.42
43 0 1.101 1.42
44 -1.7077 1.0982 1.0982
45 2.0517 1.0982 1.3768
46 0 1.457 1.42
47 0 1.42 1.42
48 0 1.42 1.42

AngleTorsion Coeffs

1 0 0 0 0 0 0 108.4 120.05
2 -0.2454 0 -0.1136 0.3113 0.4516 -0.1988 112.67 110.77
3 -1.9225 -1.345 0.221 2.0125 0.944 -2.7612 112.67 111.91
4 0.5623 -0.3041 -0.4015 0.9672 -0.7566 -1.2331 112.67 111.27
5 -3.5903 2.5225 0.4888 0.8726 -0.3577 0.3888 111.27 105.8
6 -0.2454 0 -0.1136 0.3113 0.4516 -0.1988 112.67 110.77
7 0.5623 -0.3041 -0.4015 0.9672 -0.7566 -1.2331 112.67 111.27
8 0.5623 -0.3041 -0.4015 0.9672 -0.7566 -1.2331 112.67 111.27
9 -2.7466 1.4877 -0.8955 0.5676 0.945 0.0703 111.27 104.5
10 0 -4.4683 0 0 3.8987 0 120.05 118.9
11 0 -0.1242 0 0 3.4601 0 120.05 117.94
12 0 0 0 0 0 0 120.05 120
13 1.2031 1.3645 -0.7071 -2.7883 1.5193 1.4796 112.444 111.91
14 -1.3582 0.1465 -0.5729 -2.6321 0.9353 -0.8398 112.444 110.62
15 0 0 0 0 0 0 109 120
16 -0.7777 0.434 -0.6653 -1.8234 1.6393 0.5144 104.5 108.728
17 0 0 0 0 0 0 102.969 123.42
18 0 0 0 0 0 0 111.91 109
19 -3.343 4.4558 -0.0346 0.2873 -0.8072 -0.096 111.91 110.954
20 0 0 0 0 0 0 111.27 102.969
21 0 0 0 0 0 0 111.27 102.969
22 -0.7777 0.434 -0.6653 -1.8234 1.6393 0.5144 104.5 108.728
23 0 0 0 0 0 0 108.4 110.77
24 0 0 0 0 0 0 111 120.05
25 0.2251 0.6548 0.1237 4.6266 0.1632 0.0461 120.05 111
26 1.9767 1.0239 0 1.9767 1.0239 0 118.9 118.9
27 0 2.5014 0 0 2.7147 0 118.9 117.94
28 0 0 0 0 0 0 118.9 120
29 0 10.0155 0 0 1.7404 0 118.9 123.42
30 0 0 0 0 0 0 120 110
31 0 0 0 0 0 0 109 110.62
32 0 0 0 0 0 0 102.969 108.728
33 -0.8085 0.5569 -0.2466 -0.8085 0.5569 -0.2466 110.77 110.77
34 -0.8085 0.5569 -0.2466 -0.8085 0.5569 -0.2466 110.77 110.77
35 2.3668 2.492 -1.0122 -0.1892 0.4918 0.7273 110.77 111.27
36 -0.8085 0.5569 -0.2466 -0.8085 0.5569 -0.2466 110.77 110.77
37 2.3668 2.492 -1.0122 -0.1892 0.4918 0.7273 110.77 111.27
38 -3.9582 2.0063 0.3213 -0.4294 -0.4442 -0.6141 110.62 110.954
39 0.5111 1.6328 -1.0155 -1.1075 0.282 0.8318 110.77 111.91
40 2.3668 2.492 -1.0122 -0.1892 0.4918 0.7273 110.77 111.27
41 -3.406 1.6396 0.0737 0 -0.281 -0.5944 108.728 105.8
42 2.3668 2.492 -1.0122 -0.1892 0.4918 0.7273 110.77 111.27
43 2.3668 2.492 -1.0122 -0.1892 0.4918 0.7273 110.77 111.27
44 0 2.4501 0 0 2.4501 0 117.94 117.94
45 0 1.8729 0 0 2.5706 0 117.94 123.42
46 0 0 0 0 0 0 111.91 111.27
47 0.5511 0.9737 -0.6673 0.5511 0.9737 -0.6673 111.27 111.27
48 0.5511 0.9737 -0.6673 0.5511 0.9737 -0.6673 111.27 111.27

Improper Coeffs # class2

1 0 0
2 0 0
3 0 0
4 0 0
5 0 0
6 0 0
7 0 0
8 0 0
9 0 0
10 0 0
11 0 0
12 0 0
13 0 0
14 0 0
15 0 0
16 0 0
17 0 0
18 0 0
19 0 0
20 0 0
21 0 0
22 0 0
23 0 0
24 7.8153 0
25 4.8912 0
26 0 0
27 13.0421 0
28 0 0
29 0 0
30 0 0

AngleAngle Coeffs

1 2.0403 -1.8202 1.0827 108.4 110.77 111
2 1.0827 -1.8202 2.0403 110.77 108.4 111
3 0.2738 -0.4825 0.2738 110.77 110.77 107.66
4 0.2738 -0.4825 0.2738 110.77 110.77 107.66
5 2.4286 0.5381 -2.5301 110.77 111.91 110.62
6 0.1689 2.5926 3.9177 111.27 110.77 108.728
7 0.2738 -0.4825 0.2738 110.77 110.77 107.66
8 3.9177 2.5926 0.1689 110.77 111.27 108.728
9 3.9177 2.5926 0.1689 110.77 111.27 108.728
10 0.1689 2.5926 3.9177 111.27 110.77 108.728
11 0.1689 2.5926 3.9177 111.27 110.77 108.728
12 0 0 0 111 111 111
13 2.3794 3.0118 2.3794 111 111 107.66
14 -0.3157 -0.3157 -0.3157 107.66 107.66 107.66
15 2.4321 2.4321 -3.5496 107.66 110.62 110.62
16 2.4259 2.4259 2.1283 107.66 108.728 108.728
17 2.4259 2.4259 2.1283 107.66 108.728 108.728
18 -1.3199 -1.3199 0.1184 112.67 110.77 110.77
19 -0.833 -0.833 -3.5744 112.67 111.27 111.27
20 0.1689 2.5926 3.9177 111.27 110.77 108.728
21 -1.3199 -1.3199 0.1184 112.67 110.77 110.77
22 -0.833 -0.833 -3.5744 112.67 111.27 111.27
23 0.1689 2.5926 3.9177 111.27 110.77 108.728
24 0 0 0 120.05 120.05 118.9
25 0 0 0 118.9 117.94 117.94
26 0 0 0 118.9 120 120
27 0 0 0 118.9 123.42 123.42
28 0 0 0 112.444 109 109
29 0 0 0 110.954 109 110
30 0 0 0 110 110 107.067

Atoms # full

283 1 4 0 5.390710062583372 9.599292027796846 6.01801861348514 0 0 0
281 1 4 0 6.673727537740904 10.096007251612507 6.113281953265264 0 0 0
278 1 4 0 7.555378833711179 9.770950060230746 7.14391845294865 0 0 0
277 1 4 -0.1268 5.788517522231258 8.606682473553803 8.134018504533138 0 0 0
282 1 1 -0.106 3.5020869431225994 8.372121358970325 7.297037214943861 0 0 0
280 1 4 0 4.940950473968588 8.85666796997954 7.092500461272556 0 0 0
276 1 4 0 7.071151618213504 9.020627936770193 8.213531806531252 0 0 0
275 1 5 0.1268 5.519353699260354 7.939140104390191 8.936516737395905 0 0 0
287 1 1 -0.159 3.37724382922414 6.823269626119642 7.583770427807712 0 0 0
45 1 5 0.1268 6.03104856741651 4.97896125930499 4.449401822884656 0 0 0
49 1 4 -0.1268 7.450617996660951 3.865767935652641 3.2715000943202877 0 0 0
47 1 4 -0.1268 6.715071392279718 4.994314625286689 3.5955011482711883 0 0 0
174 1 4 0.0265 7.04565057729084 6.227386060379682 3.0435095915008428 0 0 0
40 1 5 0.053 4.166270409248382 7.910907727330649 4.552966651922782 0 0 0
169 1 10 -0.1595 6.413710076835326 7.296866503382807 3.568647425589254 0 0 0
41 1 1 -0.0233 3.9813745109967495 8.895099989368106 4.116140991937964 0 0 0
349 8 4 0 5.506101805261052 2.7285975246174656 8.488530968792006 0 1 0
403 8 1 -0.159 7.635494831013615 2.9222611644488223 7.121806221365465 0 1 0
344 8 4 -0.1268 5.404917203736779 3.9842225577626236 9.161202669176033 0 1 0
341 8 5 0.1268 5.893565875012933 4.892358931048431 8.763511846968445 0 1 0
43 1 2 0.08 4.559833065269309 8.815437976017888 2.6045692286530304 0 0 0
274 1 1 -0.106 7.969046738576113 8.69470445593905 9.420957529270764 0 0 0
50 1 5 0.1268 7.234857482312969 2.937778293198317 3.6732513480709916 0 0 0
168 1 1 0.027 6.111172728209314 8.40004205820436 2.6330020249819786 0 0 0
42 1 5 0.053 2.966094018117804 9.1988148545489 4.117315102719568 0 0 0
285 1 8 -0.3314 4.5404437648286375 9.987176579780774 4.972602221704111 0 0 0
177 1 4 0 8.292039447097299 3.8534121797191148 2.1372452927924037 0 0 0
56 1 1 -0.106 8.98327932280326 2.5482761808986303 1.7397631830388547 0 0 0
270 12 5 0.053 2.9724512622562953 6.05979392090214 3.5079722540390272 1 1 1
269 12 1 0.027 1.9324252392681998 5.8345054438692 3.0906091458581884 1 1 1
378 10 5 0.053 9.826995782065215 6.873565096200632 5.083723616190733 -1 0 0
113 1 1 -0.159 8.164366362931585 7.17757174057454 9.386187181480635 0 0 0
345 8 1 -0.106 6.095739256362578 2.785273336313898 7.069900025286397 0 1 0
346 8 5 0.053 5.6347710657413685 3.6813547538965543 6.547525239857147 0 1 0
489 1 5 0.053 2.3411354421856716 6.565539564092878 7.8454240616277895 0 0 0
116 1 8 -0.4974 8.925841814543446 10.327033706197673 7.125423428006869 0 0 0
158 1 5 0.053 8.649475258694473 7.014257090503682 8.422341118887545 0 0 0
289 1 5 0.053 3.638724261154687 6.288146853891702 6.661854896710396 0 0 0
279 1 5 0.053 3.26086346808379 8.942477343836472 8.17844797898167 0 0 0
483 1 5 0.053 2.8792513988861046 8.617211260376562 6.3955570582213035 0 0 0
180 5 4 -0.1268 10.233963467094904 9.078435911646295 1.5896703254635267 0 0 0
170 1 5 0.053 4.005902573550588 8.036754910753253 2.0738229428873924 0 0 0
167 1 5 0.053 6.624194098426808 9.26268684956478 3.074472186658797 0 0 0
407 8 5 0.053 8.045062009161681 3.0174462338421995 6.140114369107196 0 1 0
157 1 5 0.053 7.183063985014135 6.658216168621823 9.544672906556675 0 0 0
399 8 5 0.053 8.087828976370744 3.7917888173735563 7.657682968166995 0 1 0
114 1 6 0.2487 9.689383151556633 9.979183640132725 7.730522835985534 0 0 0
288 1 5 0.053 3.9165476899985983 6.443526888316763 8.484669443280449 0 0 0
572 3 5 0.053 5.304885206417168 19.71759026534065 2.8398037263813154 0 0 0
273 1 5 0.053 8.864674260383293 9.306732528972336 9.445022034862381 0 0 0
472 12 3 0.08 1.7388128368358446 5.147656794117006 1.77065179719619 1 1 1
176 1 4 -0.1268 7.932616842321598 6.262900027149828 1.9377005881922007 0 0 0
401 8 5 0.053 8.025320681669657 2.0165634850433007 7.532415358144833 0 1 0
466 12 9 -0.266 1.717115231488041 4.398961010173016 3.0118115642203698 1 1 1
39 1 11 -0.5571 4.436057739475903 9.968407488601963 1.820120786129608 0 0 0
15 1 4 0 10.312206130118966 2.3132999205230944 2.366467892482153 0 0 0
533 3 5 0.053 1.8610902938051925 3.993673425627997 7.4551411152242855 1 0 1
340 8 5 0.053 5.807686093560118 1.8780341379960683 6.506290855952473 0 1 0
106 2 5 0.053 3.113136332628287 19.244065535249906 1.908118508869429 1 -1 1
117 1 5 0.053 7.434948231073485 8.899077048898834 10.334358719966835 0 0 0
193 10 9 -0.266 10.11700319940839 4.908046462625878 5.826665762084413 -1 0 0
222 10 5 0.053 10.908772564029 4.881072676152774 3.826758240370774 -1 0 0
354 8 4 0 4.856813828912928 1.624711368398563 9.036544179373212 0 1 0
356 8 4 0 4.219733748816213 1.6897935366181807 10.222092566775522 0 1 0
144 3 5 0.053 2.8686635441452557 13.486938002834561 10.336174645146475 1 -1 1
379 10 3 0.08 10.604912814238235 6.254552536553919 5.565499445708324 -1 0 0
570 11 5 0.053 11.631322974378923 12.73958508889209 9.937787960529677 0 0 0
53 1 5 0.1268 9.644860387890121 2.015710756275474 4.37536873502941 0 0 0
13 1 4 -0.1268 10.53402265940979 1.9058312381816729 3.6832803010068034 0 0 0
576 3 5 0.053 4.410926081901963 19.703602497055957 4.394036774042089 0 0 0
57 1 5 0.053 8.308505679218499 1.7584745343949821 1.9363652189653362 0 0 0
172 1 5 0.053 6.510387978404735 8.183193488779152 1.6355637352477017 0 0 0
347 8 4 0 4.910478233286877 4.03506586828769 10.455892704806946 0 1 0
464 6 6 0.2487 3.9633687353347287 14.995508630259984 1.3388515749782082 0 -1 1
271 12 5 0.053 19.679081938931898 6.473581997863288 3.6715295602547338 0 1 1
17 1 4 -0.1268 11.371247897531493 2.2014992775529305 1.5380058198213509 0 0 0
530 3 5 0.053 19.75563664704661 1.8836973109119524 8.456281397436971 0 0 1
315 2 5 0.053 10.67877480412571 2.5430920680830744 9.86782098144264 0 0 0
339 10 5 0.1268 19.68123568655978 9.74717462330846 9.536814531128938 -1 0 0
126 5 5 0.1268 10.406055036636046 6.996406522284692 2.4309474756855076 0 0 0
20 3 5 0.1268 18.9644871929418 19.320935443555346 10.430069038328464 0 -1 1
119 7 5 0.053 15.91564554793028 2.8644883540179795 10.108775197940574 -1 0 0
212 11 5 0.053 18.57812336328067 9.08115308807249 1.892460720472873 0 0 1
121 7 1 0.027 15.275427879339585 3.7276755193842606 10.255197857067301 -1 0 0
223 10 1 0.027 11.201208366955154 5.059732728465291 4.867725149155895 -1 0 0
432 10 5 0.053 11.347188766156933 8.142790281499607 6.359673600329036 -1 0 0
508 3 5 0.053 18.896778418222922 3.117791241066017 9.491172795202852 0 0 1
527 3 9 -0.266 18.568424168459874 5.114505216311411 7.347631941541421 0 0 1
531 3 3 0.08 19.292672721092174 3.7567431405341005 7.471802490146432 0 0 1
529 3 5 0.053 18.85545935169996 4.523088017123096 5.240417224483776 0 0 1
532 3 1 0.027 18.92589572587067 2.59925377069177 8.50415253335781 0 0 1
507 3 5 0.053 17.61139514868083 3.65775496681553 6.10856330395687 0 0 1
528 3 1 0.027 18.541419976233474 4.177348720906176 6.268842656091556 0 0 1
428 10 5 0.053 10.625074508397514 7.084420329437509 7.530391976972777 -1 0 0
342 10 4 0 17.69381298235167 8.920395592546097 10.060084521573748 -1 0 0
128 5 4 -0.1268 10.869161309173041 8.007156863537737 2.2121003533567496 0 0 0
224 10 5 0.053 12.145819412798266 4.6793952122101095 5.267800937071527 -1 0 0
248 5 5 0.053 16.159010507065844 5.6022066697466215 3.209556290007542 0 0 0
297 7 5 0.053 12.669067881110877 2.344961759386038 8.160924070218389 -1 0 0
430 10 1 0.027 11.326404266367227 7.056116940130824 6.647986111039301 -1 0 0
250 5 1 0.027 14.483028122025216 4.257915142561803 3.1152714298559534 0 0 0
380 10 10 -0.1595 12.608244879924342 6.511586931100562 6.9248950649731915 -1 0 0
382 10 5 0.1268 12.408324276439355 8.696660723783083 8.571393363461144 -1 0 0
384 10 4 0.0265 13.64322382932437 7.215831740523954 7.473029017662423 -1 0 0
123 7 3 0.08 14.161359748696738 3.6541908932681726 9.291749360591577 -1 0 0
387 10 5 0.1268 15.097423493600743 5.840269560555556 6.6863535176690885 -1 0 0
130 5 4 0.0265 12.264567476198362 7.985293746708392 2.424887780873913 0 0 0
388 10 4 -0.1268 14.95476504130209 6.917937461794364 7.15306851748746 -1 0 0
335 10 5 0.1268 17.07465747510894 7.57368387647348 7.094806792213343 -1 0 0
392 10 4 -0.1268 16.04471195673901 7.683205434289954 7.511502378392049 -1 0 0
334 10 4 0 15.79292506720937 8.783058676570498 8.329256433873951 -1 0 0
386 10 4 -0.1268 13.439135620446308 8.385451618309393 8.239512531211428 -1 0 0
390 10 4 -0.1268 14.516391126387619 9.089962989422824 8.743730160474124 -1 0 0
133 5 5 0.053 14.593516212672949 7.625588256495245 3.844188511116697 0 0 0
337 10 1 -0.106 16.896084148266503 9.601558642581542 8.872628162630447 -1 0 0
129 5 10 -0.1595 12.874879891118256 6.891875075743907 2.938514095139076 0 0 0
251 5 3 0.08 15.070959791607274 5.562380319249941 3.266843359829255 0 0 0
103 5 5 0.053 13.431530530866523 4.02769956549811 2.8694126497106356 0 0 0
102 5 5 0.053 15.117265662224623 3.3909349516786853 2.905803660580118 0 0 0
125 5 9 -0.266 14.550824506374784 4.788640163062787 4.3819735697457105 0 0 0
131 5 1 0.027 14.31232877033491 6.8919580912570675 3.077748527430952 0 0 0
291 7 9 -0.266 14.644755205723744 3.14597718628222 8.015634435602887 -1 0 0
294 7 1 0.027 13.626757192817092 2.337394160427298 8.713093840348003 -1 0 0
292 7 5 0.053 13.414037817056643 4.438620337557852 9.286337023935232 -1 0 0
5 1 5 0.053 16.414921556265114 19.732778250202145 6.0987396906692615 0 -1 0
534 3 10 -0.1595 17.63884694446681 1.9975971381681132 8.326147586032041 0 0 1
135 5 4 -0.1268 12.933416570273142 9.161196723866809 1.9977102380926564 0 0 0
6 1 5 0.053 14.058957272696034 1.5987998566173731 5.456916124115513 0 0 0
137 5 5 0.1268 14.057974415554288 9.249582980304076 1.9163488062960834 0 0 0
99 1 5 0.053 17.587154637147393 1.9012386722718793 3.9022389006076397 0 0 0
134 5 5 0.053 14.714254004574785 7.364268460081154 2.183994156912797 0 0 0
4 1 3 0.08 16.020265143637967 19.370252791331545 5.106550770630825 0 -1 0
336 10 5 0.053 17.760864141754436 9.918155686323521 8.164960393583922 -1 0 0
136 5 4 -0.1268 12.254789304993261 10.30811928771048 1.5084825508062991 0 0 0
207 11 5 0.053 17.250832819015162 7.777502324463335 1.6437214165777652 0 0 1
364 9 5 0.053 12.582264930263534 10.049654458720017 4.906405016220666 0 0 0
249 7 5 0.053 13.994112509968138 1.3856268840571075 9.02067836515748 -1 0 0
391 10 5 0.1268 14.31970770187959 9.861476421065994 9.521922754064159 -1 0 0
343 10 4 -0.1268 19.078104838495772 9.132896148559405 10.225325127946812 -1 0 0
122 7 5 0.053 15.951186683757841 4.52494898182084 9.882168043885573 -1 0 0
14 1 4 -0.1268 12.57165064531918 1.5895516115456414 1.955196721468598 0 0 0
366 9 5 0.053 14.624701138736134 10.54629320434079 3.8827369561707403 0 0 0
338 10 5 0.053 16.398651570152325 10.594505955937025 9.24621978950432 -1 0 0
373 9 5 0.053 16.537969557733952 10.463551756814574 5.384247725559919 0 0 0
368 9 3 0.08 14.423213197761443 10.9504275634003 4.894875279827834 0 0 0
11 1 4 -0.1268 11.752296971617636 1.4639653385812914 4.192563532207991 0 0 0
12 1 4 0.0265 12.758049877939005 19.69290633776631 3.325147195092229 0 -1 0
448 1 5 0.053 8.088770779155496 10.263772913585159 4.505009813433256 0 0 0
227 1 6 0.2487 9.205559792270872 10.615861812040448 6.209035830586968 0 0 0
286 1 6 0.2487 4.903473885470374 10.719278309779945 4.366000381514882 0 0 0
447 1 1 -0.159 7.273934003299508 10.858156928500856 4.915082466252549 0 0 0
546 3 5 0.053 6.123092721372368 19.5724707731173 4.460872516009506 0 0 0
105 2 1 0.027 2.010402945894262 19.23133574578435 1.8872971397699805 1 -1 1
566 11 5 0.053 10.616037894178696 11.279109339844656 9.600579074611886 0 0 0
369 9 10 -0.1595 12.443395654955408 11.346339024508726 6.593418678945663 0 0 0
545 3 1 -0.159 5.2337976785838585 19.266792137575553 3.8218071758292953 0 0 0
450 1 5 0.053 6.464110587243595 10.989072861771596 4.166526115982597 0 0 0
446 1 5 0.053 7.668833671516842 11.826246175440835 5.069564463157254 0 0 0
355 8 6 0.2487 5.698522118498319 18.627996788077184 7.682949772816071 0 0 0
322 6 4 0 6.228215119754316 14.743603562992796 2.16632985229986 0 -1 1
138 3 5 0.053 4.100972771705933 11.116283272059592 8.672201663205716 1 -1 1
539 3 5 0.053 5.873455579225741 17.33538853202324 3.0553923562448415 0 0 0
357 8 8 -0.4974 5.095171437676604 18.799692545783817 8.462797562048893 0 0 0
142 3 1 0.027 2.7997613929548564 12.442296709327593 9.79368859830145 1 -1 1
359 8 6 0.2487 4.753779034939112 17.989706969496776 8.910124141360626 0 0 0
140 3 2 0.08 4.1869872675873285 12.135489372321603 9.117286776249127 1 -1 1
254 3 5 0.053 5.534162332397746 12.735500367785614 7.645903825895225 1 -1 1
258 3 5 0.053 3.8109764422876777 12.804454687444062 7.099939616160695 1 -1 1
540 3 6 0.2487 7.250352115905306 17.09467909346084 4.2722224197877985 0 0 0
547 3 6 0.2487 8.029414765065088 16.11959508527771 5.268329149927077 0 0 0
154 6 5 0.053 5.26713609154733 12.8661587693409 2.219821982917945 0 -1 1
151 6 5 0.053 4.364713141541969 14.13500709180429 3.196423735147082 0 -1 1
152 6 1 -0.159 5.348894446257551 13.800446083750211 2.8659465634730426 0 -1 1
156 6 6 0.2487 7.604232411391903 13.081858837086777 3.7327933293315065 0 -1 1
327 6 8 -0.4974 8.142629944268752 13.900666380118468 3.4321698232085986 0 -1 1
325 6 4 0 7.604470453705195 14.768737576418484 2.487355188545297 0 -1 1
65 3 4 0 6.14149967442627 16.467594197704425 5.620182976974184 0 0 0
542 3 8 -0.4974 7.398991824105687 16.896410058700845 5.227715007279606 0 0 0
46 3 5 0.053 6.950038180977557 14.417704641733094 8.290993565922108 0 0 0
64 3 4 0 5.024516638634989 17.02233207844351 4.961218063697439 0 0 0
48 3 5 0.053 7.718131477261362 15.915734780457237 7.906310198052336 0 0 0
67 3 4 0 5.993676146593137 15.668978786508582 6.731411473979727 0 0 0
69 3 1 -0.159 7.216247110207766 15.080136876511125 7.393902771896326 0 0 0
44 3 5 0.053 7.837691583169874 14.49793660782429 6.7320629640026 0 0 0
70 3 4 0 4.686990702865898 15.450040983106932 7.213325345029387 0 0 0
63 3 1 -0.106 5.043622184974346 17.77903936920923 3.6151423790497472 0 0 0
66 3 4 -0.1268 3.769384605401035 16.857466134435143 5.531819007593365 0 0 0
72 3 8 -0.3314 4.530864085239748 14.525601310765454 8.32703099767085 0 0 0
68 3 4 0 3.5723779995766596 16.090990104365062 6.679139192325915 0 0 0
74 3 6 0.2487 3.619104153970055 14.722555784987327 8.72700667748777 0 0 0
257 3 1 -0.0233 4.504654313666705 13.07595420284902 7.900494514538621 1 -1 1
98 3 5 0.053 4.10734852561014 17.508935366015802 3.030162110074442 0 0 0
100 3 5 0.1268 2.9862353799941115 17.297684394938244 4.926675031032708 0 0 0
329 6 6 0.2487 9.151003284002439 13.692327338771445 3.446212457024328 0 -1 1
420 9 5 0.1268 7.7184140491079445 18.445201803363265 9.94959839553866 0 0 0
421 9 4 -0.1268 8.603515320279307 17.805549686706957 10.042710412065786 0 0 0
422 9 5 0.1268 9.22079895963398 18.134789850575924 8.025662765735747 0 0 0
73 3 7 0.4241 5.969761462329972 11.950477520480913 9.815120310522863 0 0 0
423 9 4 -0.1268 9.5191507408091 17.69075549800403 8.99238320362059 0 0 0
564 11 9 -0.266 8.169860873731524 12.712585549594996 10.29633856260854 0 0 0
139 3 11 -0.5571 5.111535539483814 12.094027274751767 10.203303886042065 1 -1 1
568 11 3 0.08 9.48991637759025 13.147857178461985 9.912004309425175 0 0 0
150 6 5 0.053 5.7332919358601595 13.32318888605405 3.7696551154287192 0 -1 1
71 3 1 -0.106 2.21460977917157 15.900291853004704 7.271396307410985 0 0 0
101 3 5 0.053 2.3548013286390455 15.819810428271635 8.377691286238415 0 0 0
565 11 5 0.053 9.565988180386567 13.502717616576138 8.849609951473365 0 0 0
183 5 5 0.053 9.564946911886869 12.023863747353973 1.4450962121727897 0 0 0
328 6 1 -0.106 9.910787193194931 15.937237462419134 2.3792206738242987 0 -1 1
326 6 4 0 8.451027907181754 15.691226200741529 1.9116505747627641 0 -1 1
426 9 5 0.1268 10.312716409905711 15.341640819568383 5.9715173766966 0 0 0
360 8 5 0.053 2.894399762994893 18.431696777285595 10.067871819052849 0 0 0
571 11 1 0.027 10.689828920404077 12.200493347291065 10.223565374992356 0 0 0
19 2 5 0.053 2.0769131730065453 17.190208697056466 2.579016390351078 1 -1 1
108 2 3 0.08 1.330928795241921 17.974370386063445 2.2357011999121066 1 -1 1
143 3 10 -0.1595 1.6310858911985646 12.401900268610893 8.968500528993225 1 -1 1
75 3 5 0.053 1.7349450794061438 14.945051269094972 6.905929126559322 0 0 0
385 6 5 0.053 10.127554388002768 15.243493514187293 3.2953888196296166 0 -1 1
203 3 5 0.053 1.7951962131465042 17.94682760946952 7.571172733850326 0 0 0
567 11 5 0.053 8.163148629672065 14.910100280345091 10.33337386875409 0 0 0
376 9 5 0.1268 10.481918044713153 13.001520145479628 5.583780012537614 0 0 0
93 4 5 0.053 19.32341729595425 12.066156751427885 3.992249229836929 0 0 0
107 2 9 -0.266 19.819383727175467 19.053002109214557 3.2027846660254005 0 -1 1
332 6 5 0.053 10.059164266701702 16.93472448691579 2.8519151330986707 0 -1 1
221 9 5 0.053 11.18807369482402 17.389949030885866 6.937195205983329 0 0 0
424 9 4 0 10.74681714496649 16.97454368179436 9.04078061643186 0 0 0
95 4 8 -0.4974 17.170742861023776 14.930600954326286 5.07890842003167 0 0 0
28 3 5 0.1268 16.531918629464844 14.873190515600132 8.324968129720002 0 -1 1
3 1 1 0.027 16.771559668925043 19.714855646232515 3.8731222135943817 0 -1 0
8 1 1 0.027 14.424195676660025 19.207122954311775 4.987684805800919 0 -1 0
425 9 4 -0.1268 11.103350448217142 14.812807371457518 6.5384758474921405 0 0 0
372 9 1 0.027 15.646905275692701 10.932953706573004 5.778051094965077 0 0 0
504 2 1 0.027 18.517024044333215 17.353408970803372 1.6512537010846626 0 -1 1
94 4 5 0.053 19.143951578589608 13.508299005728004 5.091566995580507 0 0 0
389 6 5 0.053 11.949042737928304 15.469581071423098 1.7598264539683588 0 -1 1
582 2 5 0.053 17.953593637062657 16.769526892839927 2.460960345257136 0 -1 1
24 3 4 -0.1268 17.16512343801319 14.412551229074511 9.136896089894517 0 -1 1
32 3 4 -0.1268 16.114018105889095 18.774765097416964 8.70605441851363 0 -1 1
535 3 5 0.1268 15.41908753503305 19.10738087584198 7.958116500578333 0 -1 1
10 1 5 0.1268 11.827247589579981 19.449826346958627 5.210360864347017 0 -1 0
370 9 9 -0.266 15.302568542238808 12.064695482032242 5.09063100866425 0 0 0
7 1 5 0.053 14.055669972343516 18.364574637807006 5.580394367039576 0 -1 0
219 9 1 -0.106 11.659876428198336 16.893559427518888 7.802355990843343 0 0 0
111 4 4 0 15.89448829045973 14.652244573690767 2.9476273152109824 0 0 0
204 3 1 -0.159 19.728702088684454 17.129262201152002 7.143477065116381 -1 0 0
205 3 5 0.053 19.500450924636404 17.31049723976121 6.110582997805646 -1 0 0
22 3 4 -0.1268 18.007857328014225 18.875452438043613 10.14584734143988 0 -1 1
36 3 5 0.1268 14.836058711424217 17.128608829243028 9.0676717067802 0 -1 1
427 9 5 0.053 12.600024120132165 17.448321544930295 7.912640318157797 0 0 0
220 9 5 0.1268 12.12096599288512 16.076678459560924 10.340855674335227 0 0 0
2 1 5 0.053 16.270798383737542 1.3398780045074936 2.907859710002622 0 0 0
371 9 4 0.0265 12.279982653355683 12.711222453504988 6.852783777402645 0 0 0
91 4 4 0 17.0433708943134 14.369389802078151 3.7453785946550116 0 0 0
30 3 4 0 16.52067947191398 17.02849281356322 10.338778027245327 0 -1 1
449 1 7 0.4241 3.4951645945426204 10.015389079307381 1.4766818390928587 0 0 0
37 4 6 0.2487 19.712713551632216 11.999588011388562 1.759318369455706 0 0 0
9 1 10 -0.1595 13.959794884495095 19.234179612479416 3.63803432274521 0 -1 0
96 4 6 0.2487 16.62227911175193 15.767688481347909 5.125645160122721 0 0 0
217 9 4 -0.1268 11.109861702910584 16.55638696920088 10.2820240498409 0 0 0
184 9 5 0.1268 13.830824494114554 12.692319036092242 8.295400952839419 0 0 0
374 9 4 -0.1268 11.249811498374653 13.488885809547874 6.269776022409406 0 0 0
92 4 1 -0.159 19.26418655075107 13.19528793573513 4.0693213815864295 0 0 0
38 4 5 0.053 1.7647027515112625 13.542411795976456 3.6969231658262927 1 0 0
268 4 4 -0.1268 15.677604448387 14.016813491756638 1.7618816505370853 0 0 0
110 4 5 0.053 12.622825733552029 15.525576876807628 4.221654032168212 0 0 0
202 3 5 0.053 18.854489487960794 16.9443698589793 7.849850661304626 -1 0 0
146 3 4 0.0265 19.060351981715478 13.005383150149868 9.513954630230312 0 -1 1
109 4 4 0 17.831688093565376 13.047198297688988 1.94892632679479 0 0 0
33 3 4 -0.1268 15.729004020810393 17.698860361176134 9.366246606955249 0 -1 1
375 9 5 0.053 15.601184343545471 10.962557351763527 6.916821217211383 0 0 0
62 4 5 0.053 15.130874966005113 16.324607060340917 4.218899478930085 0 0 0
29 3 4 0 16.975334542375624 14.582208999517622 10.489778008955078 0 -1 1
1 1 9 -0.266 16.767209515877866 18.36964947695426 4.492292803238862 0 -1 0
367 9 1 0.027 12.910899476993654 11.066562027665004 5.23825666603597 0 0 0
365 9 5 0.053 12.466611917443563 11.853017430571887 4.597913832953152 0 0 0
188 9 4 -0.1268 13.114552435061759 13.326884810790567 7.778991828459667 0 0 0
87 4 5 0.053 13.1516809887385 14.284723020962502 3.133544205982526 0 0 0
148 3 4 -0.1268 18.116024695433875 13.546641433748647 8.650127469161264 0 -1 1
89 4 1 -0.106 14.784658455077032 15.66500706186749 3.4422896181687967 0 0 0
97 4 6 0.2487 18.126558138840515 14.973285677618733 5.236508339282457 0 0 0
26 3 4 0.0265 17.244019760104592 19.463245901418723 9.151186615003102 0 -1 1
215 9 5 0.1268 13.540440903664887 15.263568072123622 8.71767925271254 0 0 0
218 9 4 0 11.883750224418597 15.431659655889163 7.479369263142324 0 0 0
83 4 5 0.053 13.882823134178798 14.363110270753168 4.888643183927336 0 0 0
112 4 4 0 18.04094137381739 13.579520523920012 3.2046728610884454 0 0 0
225 4 5 0.053 14.547068715217513 16.369879275300363 2.5403475376888056 0 0 0
85 4 1 -0.159 13.537959477452013 14.895926951639206 3.932984325061208 0 0 0
216 9 4 -0.1268 12.946429957914818 14.6873675998093 8.04565175143787 0 0 0
145 3 5 0.1268 18.17265724547458 13.33184796896258 7.574467686905191 0 -1 1
124 1 4 -0.1268 8.584059598614974 5.091279251322501 1.567936274805214 0 0 0
179 5 5 0.1268 9.181794111574291 8.953635362380604 1.391871858830379 0 0 0
164 8 5 0.053 5.098416715092014 6.131977111060036 10.523648643527501 0 1 0
141 3 5 0.053 2.758770233764798 11.704649004412335 10.561439650804802 1 -1 1
383 6 1 -0.159 10.948687985465009 15.551113960162594 1.3647428293332062 0 -1 1
185 5 4 0 10.879595153560645 10.304959678685261 1.3974919884412955 0 0 0
115 1 5 0.053 8.963693387236244 6.807151074319937 10.073788316373085 0 0 0
584 12 5 0.1268 6.425382855959434 6.83962318566525 15.833241504313182 1 1 0
469 12 4 0.0265 5.008406214834544 5.1310248577549125 18.39260107565184 1 1 0
470 12 4 -0.1268 5.183864137643791 6.120862255255801 17.45245231822684 1 1 0
331 12 4 -0.1268 5.7393186119418065 3.932548839553969 18.277935779255014 1 1 0
272 12 5 0.1268 7.314627337723097 2.8503719375590437 17.243224963398866 1 1 0
585 12 4 -0.1268 6.149313220137646 5.991053648981929 16.460762455886655 1 1 0
333 12 4 -0.1268 6.723965030007384 3.7854134798178074 17.288617833270976 1 1 0
516 12 4 0 6.968263914647761 4.857090021814027 16.4234367561029 1 1 0
515 12 1 -0.106 8.08570138457653 4.676605538817499 15.322615155027702 1 1 0
514 12 5 0.053 7.729253734958032 3.8577724095651553 14.65530383433227 1 1 0
513 12 5 0.053 7.8288793002196035 5.633500054810277 14.747480110118797 1 1 0
330 12 5 0.1268 5.627328941346206 3.2008959481994967 19.07705188200115 1 1 0
468 12 5 0.1268 4.626607954119253 7.114808405788135 17.437531708138682 1 1 0
574 11 5 0.1268 9.1227946781042 10.068705777393093 12.831784825854115 0 0 0
161 8 5 0.053 6.264491169795411 4.342678134067761 12.601844437314405 0 1 0
77 5 9 -0.266 4.391406320946523 8.452248541991423 13.544647344459046 0 0 -1
525 10 5 0.053 2.6607594336830998 6.655055047623229 15.181569389455806 0 0 0
526 10 5 0.053 3.3170387227181255 4.230066752555906 15.74159305687565 0 0 0
523 10 1 0.027 2.416769750124908 4.419980367836443 15.20978612420491 0 0 0
467 12 10 -0.1595 4.186851005576328 5.331182104421867 19.494077434610997 1 1 0
308 2 5 0.053 8.838435384005777 2.703426632275746 12.38419110162574 0 0 0
162 8 1 -0.159 5.988691413759157 5.354492641213573 12.307089192416736 0 1 0
160 8 5 0.053 5.615463248645154 5.847740333072136 13.22804430690091 0 1 0
471 12 5 0.053 2.558276687887698 4.581037405287079 18.296852067382144 1 1 0
52 5 5 0.053 6.68527780598688 8.67425598939219 14.382684038539807 0 0 -1
55 5 1 0.027 6.4275716620359855 9.697251266244232 14.135439961293452 0 0 -1
311 2 1 0.027 9.207267753775687 3.016350216607557 11.41655664188022 0 0 0
79 5 3 0.08 5.247376018697203 9.53543249263716 13.130884986023869 0 0 -1
521 10 3 0.08 2.0261039946568573 5.825954747595638 14.911463690409885 0 0 0
127 1 5 0.1268 9.302076309575158 5.067483220814417 19.17150207312275 0 0 -1
562 12 5 0.1268 9.74013302529367 6.262464784548489 16.929966647111563 1 1 0
475 12 4 0 9.469878068086446 4.381364085565938 15.77608904595031 1 1 0
476 12 5 0.1268 9.455571310924071 2.4077833813912015 14.950143416641 1 1 0
61 5 5 0.1268 8.844871355299968 10.133131518688131 15.07670662877945 0 0 -1
577 11 4 -0.1268 10.15290059243129 9.66969375890801 12.632719887664722 0 0 0
175 8 6 0.2487 3.5934379677176898 3.852315090429495 12.768429678628976 0 1 0
60 5 4 -0.1268 8.461272278611435 10.477590158693365 16.014676383502895 0 0 -1
478 12 4 -0.1268 10.027964147829717 3.1375518437844194 15.534681032541089 1 1 0
59 5 10 -0.1595 6.10484838384459 10.442922079506063 15.330929913492888 0 0 -1
477 12 4 -0.1268 10.169305090780346 5.245299375679643 16.62488524953164 1 1 0
78 5 1 0.027 3.8521667312351724 9.773306917443179 13.423103992058723 0 0 -1
313 2 9 -0.266 10.300343278468802 3.9109883220200032 11.480754909789985 0 0 0
245 9 5 0.053 6.478336317088516 1.807734419206084 14.122897522630515 0 1 0
522 10 5 0.053 2.068511368644171 3.594615418969552 14.653730510206069 0 0 0
58 5 4 0.0265 7.102020665899834 10.637820621001094 16.26802721716121 0 0 -1
517 10 5 0.1268 2.441035290041513 8.545817339199463 11.170803863348945 0 0 0
120 1 5 0.1268 8.076802304704538 7.148844419577156 19.767031500186274 0 0 -1
519 10 9 -0.266 1.4062529588029173 5.050692551389874 15.969497544034796 0 0 0
358 10 10 -0.1595 1.6082468969993446 6.53088153635188 12.614003312103868 0 0 0
173 8 8 -0.4974 3.5230936895705987 2.969463383736703 12.208997055893763 0 1 0
350 10 4 -0.1268 1.3596782394217706 8.31708690220526 11.056357894098339 0 0 0
81 5 5 0.053 5.500003891030452 9.562051715146639 12.099172560714846 0 0 -1
80 5 5 0.053 3.130488368083267 10.036939167521158 12.620609063068024 0 0 -1
159 8 5 0.053 6.884343994279174 5.965485341381623 12.013820095031642 0 1 0
351 8 4 0 4.222990589349068 2.903613970969358 10.927685872834692 0 1 0
23 3 4 -0.1268 17.648473337710918 17.704976652245143 10.802912315070367 0 -1 1
166 8 5 0.053 4.013526712522818 5.633706606150554 11.558656475473526 0 1 0
165 8 1 -0.106 4.9550997000523775 5.35321125292665 11.206796919577123 0 1 0
132 1 5 0.053 9.042017362416791 2.4397335878555286 19.084579035495583 0 0 -1
579 11 5 0.1268 9.833679323518885 7.8269583293100995 13.525419158373085 0 0 0
242 9 5 0.053 6.277119331861143 19.4555047315475 15.701418776359013 0 0 0
171 8 6 0.2487 3.4699318594931476 2.16168531020206 12.783564724240714 0 1 0
473 12 1 0.027 2.888127594821087 4.668237005189892 19.376186994289302 1 1 0
191 5 5 0.1268 12.94581910154878 11.083632829209591 19.61932161514881 0 0 -1
506 2 5 0.053 18.919338354517066 16.568766847909018 19.541775183625088 0 -1 0
443 12 5 0.053 3.072913066015306 3.662685281961003 19.742029699598376 1 1 0
575 11 4 0.0265 11.04540238334263 10.56530713620572 11.921253999383332 0 0 0
18 1 5 0.1268 11.257584285039362 2.533015115642283 18.978866254460694 0 0 -1
474 12 5 0.053 19.226356578438505 5.152902246747879 19.725669146693036 0 1 0
536 6 5 0.1268 1.8326427272696644 9.542913685051316 15.011245669462138 0 0 0
312 2 3 0.08 10.53118607382782 2.5889796402972847 10.963101039020083 0 0 0
213 11 9 -0.266 19.013553272772906 7.530574179335727 18.946748584185002 0 0 0
578 11 4 -0.1268 10.581887328874254 8.455372406607534 13.086259437296533 0 0 0
309 2 5 0.053 12.454910268983543 2.1721874864785797 12.0371539476027 0 0 0
520 10 1 0.027 19.48567507391754 6.069178935572017 13.880198352705563 -1 0 0
518 10 5 0.053 18.76512976518546 6.882798421744763 14.13064518627181 -1 0 0
524 10 5 0.053 18.958248405775663 5.112714169691261 13.669320116515696 -1 0 0
491 12 5 0.053 13.329176504154221 3.9268066828587567 19.181871232933915 1 1 0
353 10 4 0.0265 19.24641415748963 7.377246064661652 11.916856082027403 -1 0 0
480 12 4 -0.1268 11.269829801877568 2.8030392370098136 15.979415506833282 1 1 0
481 12 5 0.1268 11.73688285064018 1.8447326134986644 15.625349133618982 1 1 0
290 10 5 0.1268 17.424422523580407 6.47106322908187 12.471282894526707 -1 0 0
236 7 5 0.1268 18.945560772993847 2.3122375516742535 13.00656426818668 -1 0 0
241 7 10 -0.1595 14.8727296065055 3.846302376565343 11.596115626404472 -1 0 0
479 12 4 -0.1268 11.44297635782996 4.971740476788057 17.04929221598488 1 1 0
563 12 5 0.1268 12.105982676562823 5.849191887319783 17.364920396441796 1 1 0
482 12 4 0.0265 11.976956743033139 3.7242959210607647 16.75618112923216 1 1 0
484 12 10 -0.1595 13.295874875579559 3.346049485000617 17.111691504250935 1 1 0
235 7 4 -0.1268 17.93624807336434 2.5396623282565365 13.294682553224485 -1 0 0
460 11 5 0.053 11.324707026245607 6.05449789733615 13.657967206132948 0 0 0
580 11 4 0 11.822492211776613 7.969651824515431 12.65950944837958 0 0 0
239 7 4 -0.1268 17.13657633972573 3.1576702252581836 12.312917889593258 -1 0 0
208 11 1 0.027 17.312252281896527 8.4797624552918 17.114911148348973 0 0 0
490 12 3 0.08 15.399933147059587 3.562563220042256 18.433733838835174 1 1 0
487 12 1 0.027 13.921267893296193 4.094162942722409 18.230803851483127 1 1 0
419 11 5 0.1268 14.989224849139967 6.464566217285393 13.041212023421265 0 0 0
418 11 4 -0.1268 14.729346895511593 6.790631057398711 14.059916382903475 0 0 0
414 11 4 0.0265 15.272702298568088 7.463047703397995 16.29819689269184 0 0 0
417 11 4 0 13.366838898262577 6.797113018336281 14.29826802981078 0 0 0
416 11 5 0.1268 16.75677594298203 6.763553278349747 14.89712294377282 0 0 0
415 11 4 -0.1268 15.682902808126334 7.00107115194507 15.080916348722468 0 0 0
413 11 10 -0.1595 16.082887953938762 7.724969057452898 17.353133293237814 0 0 0
455 11 4 -0.1268 12.960405582391825 7.301280651617679 15.541600416368892 0 0 0
412 11 4 -0.1268 13.88745070843296 7.634547334216053 16.49021718143962 0 0 0
581 11 1 -0.106 12.2895947203842 6.580404822890385 13.25188035549014 0 0 0
549 11 5 0.053 12.634095279278927 5.886774233412466 12.53285309570632 0 0 0
234 7 4 -0.1268 15.1526964385007 2.6262284748016116 13.707542294222344 -1 0 0
209 11 5 0.053 17.006280323354062 9.54357461791608 16.884593480555207 0 0 0
238 7 4 0.0265 15.683437332907959 3.229287427104774 12.541296883826105 -1 0 0
454 11 5 0.1268 11.939757008013347 7.502149554496066 15.777824556634974 0 0 0
411 11 5 0.1268 13.469088708865492 7.967317783373651 17.47625188634291 0 0 0
457 11 5 0.1268 13.657888587884742 8.44372297477501 11.590616318275073 0 0 0
456 11 4 -0.1268 12.66036892520369 8.780693993071058 11.846414619194153 0 0 0
440 6 5 0.1268 18.300348925646222 9.299934510285695 13.669118074124958 -1 0 0
206 11 5 0.053 17.840925189477634 8.117286524039315 16.16542550007697 0 0 0
118 7 5 0.1268 14.046937758689197 2.452416478691484 13.815260801723502 -1 0 0
352 10 4 -0.1268 17.895844372530192 7.251629985576769 11.839866323043097 -1 0 0
485 12 5 0.053 13.995065504540706 5.1947284496327395 18.059517431226396 1 1 0
453 11 4 -0.1268 12.25170145664306 10.044865233885652 11.45936862031187 0 0 0
233 7 4 0 17.41109784758925 2.0924689360490683 14.48233966378585 -1 0 0
492 12 1 0.027 16.538489715321923 4.1388676519424585 17.73026182873201 1 1 0
240 7 5 0.1268 17.56590160946846 3.6522512200203616 11.489082328308937 -1 0 0
232 7 4 -0.1268 16.038388903815157 2.16199934230683 14.692044688087007 -1 0 0
494 12 5 0.053 17.447363986924078 3.5715867240802908 17.629833284081133 1 1 0
488 12 5 0.053 15.375932358520922 2.4959655067952857 18.695362905010064 1 1 0
493 12 5 0.053 16.400980202044934 4.887889235431345 16.915443229190814 1 1 0
486 12 9 -0.266 16.30002947675557 4.460470264601236 19.086160944009123 1 1 0
429 6 5 0.053 16.15764740641717 10.243631745448926 13.107418508684312 -1 0 0
348 10 4 -0.1268 17.122389919480838 8.040664914995093 10.993090201504764 -1 0 0
284 10 5 0.1268 16.07575615903393 7.833012899549942 11.03535754297733 -1 0 0
211 11 3 0.08 18.296274305722505 8.592408243647146 18.261701788036124 0 0 0
214 11 5 0.053 19.03398773736853 9.32411825413999 17.98291913732185 0 0 0
441 6 5 0.1268 14.918225974709744 10.103393457403305 15.198517249087548 -1 0 0
557 6 4 -0.1268 18.475570967694775 10.248290443550392 14.244957967147315 -1 0 0
226 7 5 0.053 19.067210106483312 2.438625360198044 15.64134858799148 -1 0 0
230 7 5 0.1268 15.590226221072937 1.8606682433470434 15.69345714994829 -1 0 0
16 1 5 0.1268 13.313806271831846 19.82690234887425 19.72264588107135 0 -1 -1
554 6 4 -0.1268 18.799684103699448 12.447362828912935 15.861713968132177 -1 0 0
265 4 5 0.053 15.230249202317212 10.779647633825615 18.918989097879347 0 0 -1
560 6 4 -0.1268 19.583815193118138 10.335165970525958 15.092743047371966 -1 0 0
229 7 1 -0.106 18.323940397019246 1.5529944245770426 15.620825439265758 -1 0 0
210 11 1 0.027 18.11064022777725 8.356913148936453 19.70035548009976 0 0 0
190 5 4 -0.1268 9.394862997421791 10.57611220855139 17.041344303076542 0 0 -1
192 5 5 0.1268 10.509880377708825 10.340543250088386 16.828145462550847 0 0 -1
76 5 5 0.053 3.599225287553186 10.13230466136314 14.376267631070789 0 0 -1
189 5 5 0.053 10.86783923868797 12.199330062456264 18.928869622432032 0 0 -1
31 3 1 -0.106 16.10508391138304 15.68866990011197 10.972306768146288 0 -1 1
187 5 1 -0.106 10.177447745436313 11.443015450104134 19.254382777747324 0 0 -1
186 5 4 0 9.07927642185016 11.107607711832657 18.27242473825849 0 0 -1
181 5 4 -0.1268 6.73182665237914 11.089134632576451 17.574050908635122 0 0 -1
51 5 5 0.1268 5.658359538885257 11.344732872421911 17.82037752190368 0 0 -1
182 5 4 -0.1268 7.735506189507858 11.29139831969373 18.545064043376584 0 0 -1
54 5 5 0.053 7.32771410333197 10.1540426607418 13.628108700649992 0 0 -1
243 9 9 -0.266 5.115941550882797 18.78879996004919 13.931569778275119 0 0 0
451 11 5 0.053 8.759916711955938 14.18290685609378 11.901934617378828 0 0 0
573 11 10 -0.1595 10.587973096744193 11.820061421854392 11.557202632525131 0 0 0
244 9 1 0.027 6.335875398232679 19.344496142163308 14.62723858725769 0 0 0
300 2 5 0.1268 10.266932301715899 18.36002856671369 15.108860438692812 0 -1 0
462 9 4 0.0265 9.030200144673868 17.323216297330042 11.295706020531673 0 0 0
509 6 5 0.053 6.287327671635403 19.272303033337597 19.026116959074756 0 -1 0
459 9 5 0.053 7.191435517844762 18.940851437855816 11.862075475076493 0 0 0
246 9 5 0.053 6.451323324193494 17.09606505237464 14.370113033140319 0 0 0
324 6 5 0.1268 8.749701139327605 17.044548498180546 18.73133513188484 0 -1 0
247 9 3 0.08 6.390844404672956 18.123435223757085 13.869507298525955 0 0 0
548 7 5 0.053 5.347305415669448 14.747123478267621 14.46215665740356 0 -1 0
252 9 1 0.027 7.05837191331437 17.975757104439193 12.369937380184856 0 0 0
537 6 5 0.053 4.064756154293068 12.559616917261554 16.08910956060575 0 0 0
316 6 5 0.053 7.115496929289501 17.56378144260422 17.29861835334846 0 -1 0
88 6 5 0.053 3.298755518208889 12.842670712344347 18.667129009422887 0 0 0
82 6 5 0.053 5.314275805513322 14.101815026861974 17.700156241909152 0 0 0
319 6 1 -0.106 6.205394671087122 17.316209389936766 17.87589707716895 0 -1 0
404 7 4 -0.1268 2.431268277080397 17.166335408806287 15.672729334656061 0 -1 0
583 6 5 0.053 4.999526679905939 19.074510966241427 17.83563797808348 0 -1 0
561 6 1 0.027 3.1021247544525603 12.799898473623978 16.56650394974573 0 0 0
406 7 1 0.027 2.8418151940964047 15.249621428736887 12.85899306053049 0 -1 0
405 7 3 0.08 4.293573807519021 14.782960174475265 12.407378409588418 0 -1 0
544 7 1 0.027 5.3684832400381985 14.564376442452545 13.362915927200584 0 -1 0
410 7 5 0.053 2.153976226932148 14.449499249943187 12.576553454207213 0 -1 0
543 7 9 -0.266 4.691340528730228 13.395384762790792 12.783981502317895 0 -1 0
402 7 10 -0.1595 2.7901817238446407 15.368348432905858 14.293685898461058 0 -1 0
510 6 1 -0.159 5.530285326865539 18.500624376392423 18.575704721850904 0 -1 0
409 7 5 0.1268 3.4245356338447612 16.957424431610615 16.090371521755294 0 -1 0
552 6 5 0.053 4.096743812389855 15.243528054880876 17.143292586994356 0 0 0
86 6 2 0.08 3.176488623961253 13.596508166781435 17.882297268454856 0 0 0
461 9 10 -0.1595 8.345469304196701 17.366193294387845 12.479637152892591 0 0 0
400 7 4 0.0265 1.972458984608183 16.359999975574112 14.684204585955404 0 -1 0
84 6 1 -0.0233 4.333670662089479 14.612388753346831 17.92915710586212 0 0 0
200 6 5 0.053 8.479949499190571 13.432225469427468 14.421382258950732 -1 0 0
541 7 5 0.053 6.432643814208257 14.69789771514945 13.036546080570297 0 -1 0
197 6 3 0.08 9.22188347518164 14.019207471956445 14.972605979851497 -1 0 0
199 6 9 -0.266 8.637616702450558 15.322033870091875 15.312664583749118 -1 0 0
198 6 5 0.053 7.76586015582883 13.91929132303876 16.66387318116781 -1 0 0
196 6 1 0.027 8.760110658918116 14.309163465541216 16.365575781180777 -1 0 0
538 7 5 0.053 4.533996858051752 14.986823414544798 11.341954443956958 0 -1 0
408 7 5 0.053 2.656651708068331 16.155202225178037 12.19661128518672 0 -1 0
321 6 4 0 6.682637605285041 16.405908902515776 18.965150015007435 0 -1 0
558 6 10 -0.1595 2.3679305927134164 11.562068805756239 16.726594199576027 0 0 0
465 6 5 0.053 5.439468228545111 16.841895286759982 17.256752888394438 0 -1 0
90 6 5 0.053 2.6720537783172382 13.405862347289572 15.811375316381913 0 0 0
559 6 11 -0.5571 1.9141919634699645 14.263916186709679 18.246282237986534 0 0 0
253 9 5 0.053 6.347790160482096 17.35114750488066 11.782989744573104 0 0 0
323 6 4 -0.1268 8.013823497363202 16.430395282495457 19.31688434625496 0 -1 0
511 6 5 0.053 4.795952651711245 18.139214453677308 19.35061761954199 0 -1 0
317 6 8 -0.3314 4.407471719577902 15.45996597840205 19.134282794400338 0 -1 0
194 6 5 0.053 9.470759769238095 14.664214602956442 17.150298745635286 -1 0 0
320 6 4 0 5.778769583145147 15.573745975901767 19.609809344865862 0 -1 0
163 6 5 0.053 10.68235711650765 14.141971237807795 13.359006089835397 -1 0 0
362 8 5 0.053 2.885929671806757 19.193068000419213 11.721652522044707 0 0 0
178 5 5 0.1268 7.309694907452612 11.603592896411982 19.486012089984676 0 0 -1
255 9 4 -0.1268 10.33538889271603 16.75704282202932 11.404876000601318 0 0 0
318 6 7 0.4241 19.738166367968507 13.580143317186796 18.254162152707817 -1 -1 0
237 7 5 0.1268 2.2554815087753446 19.09422272241937 16.703800269401416 0 -1 0
201 7 4 -0.1268 1.7991326048167626 18.39975012733994 15.938825108652585 0 -1 0
381 6 5 0.053 10.656361890033377 14.567503603049309 19.415540898312432 0 -1 0
363 8 5 0.053 4.291582158914732 18.30538643510818 11.160542918451501 0 0 0
569 11 1 0.027 8.643171655328207 14.01518176407518 10.770179975857813 0 0 0
361 8 1 -0.159 3.5140399104143927 18.927051321124267 10.827939534228383 0 0 0
498 2 4 -0.1268 17.25544411473246 16.7194879207669 17.58115821617601 0 -1 0
512 6 5 0.053 11.121149234130131 16.22693584646423 18.98148467120211 0 -1 0
267 4 4 0 16.630556862061244 13.200244964616063 19.74841647167917 0 0 -1
153 4 6 0.2487 18.664054868311716 11.837773181922168 18.99085605235673 0 0 -1
305 2 4 -0.1268 13.099305946159449 18.172637962829505 13.277098117854912 0 -1 0
550 6 5 0.1268 17.207223705876565 13.350605641697987 14.725308363449935 -1 0 0
310 2 1 0.027 11.52275021017978 1.65745891096901 11.714678886439668 0 0 0
452 11 5 0.1268 13.030491094216996 10.642963545275457 10.863808187806747 0 0 0
34 3 5 0.053 16.209918890468266 15.729945541391738 12.08011948165373 0 -1 1
195 6 1 0.027 10.640327620570691 13.953499505185764 14.477413574985013 -1 0 0
395 6 5 0.1268 12.624119671577391 10.503028678608846 15.65724290305643 -1 0 0
262 4 1 -0.106 16.326008525921086 12.575079677065393 18.32907328696636 0 0 -1
505 2 5 0.1268 15.05646188679163 18.461679991653977 19.5350869859894 0 -1 0
264 4 5 0.053 14.124037093822341 12.103705287608815 18.45835167422947 0 0 -1
377 2 5 0.053 11.730691803139232 19.314194853471935 11.064374798306316 0 -1 0
398 6 5 0.053 11.219820264153027 14.71258612126853 14.948226278233788 -1 0 0
21 3 5 0.1268 18.431598402195462 17.30177798726126 11.456289825547529 0 -1 1
306 2 10 -0.1595 11.011541670013699 19.531308767318272 12.978953111273249 0 -1 0
463 2 5 0.1268 13.465780490479453 17.151349958702248 18.08960079386304 0 -1 0
458 2 5 0.053 14.658839327201463 15.058089710830572 15.221582427865979 0 -1 0
259 4 5 0.053 15.119502345657803 11.140724933168384 17.29311261071662 0 0 -1
442 6 4 0.0265 12.524264610666068 12.393982023845517 14.479335402450056 -1 0 0
293 2 5 0.053 13.258596421884628 14.844491031682702 16.36990895429348 0 -1 0
301 2 4 -0.1268 11.292645500325028 18.072314886859637 14.826448803391015 0 -1 0
296 2 5 0.1268 11.524587646999583 16.824100867169374 16.559665280987893 0 -1 0
436 6 4 0 15.2290748608 11.75578460595536 13.834902635003532 -1 0 0
295 2 1 -0.106 14.039249593846348 15.576944617741281 15.919518490819947 0 -1 0
433 6 5 0.1268 15.112638212169562 13.546941267321134 12.675516971860915 -1 0 0
551 6 5 0.1268 18.85334946880372 13.318092729425473 16.551495449541093 -1 0 0
393 6 4 -0.1268 13.082486610449031 11.206357372331182 14.908485315573518 -1 0 0
439 6 4 -0.1268 14.463475345355606 10.95361046652906 14.64321733036694 -1 0 0
503 2 4 -0.1268 15.41169712819635 17.76925698434165 18.762144113710075 0 -1 0
555 6 4 0 17.631645177517388 11.41413621140843 14.053320186178343 -1 0 0
263 4 1 -0.159 15.080232981974037 11.618170425326268 18.296697593249963 0 0 -1
149 3 4 -0.1268 18.91412027500529 13.177288199772608 10.925045496155231 0 -1 1
256 9 5 0.1268 10.657898902275077 16.34091743691358 12.312670797174238 0 0 0
556 6 4 0.0265 19.773166616745563 11.420620526137498 15.878317439955518 -1 0 0
147 3 5 0.1268 19.60761924441534 12.73399302025886 11.685145018821135 0 -1 1
261 4 5 0.053 17.210504630833913 12.091888268389429 17.871235578396288 0 0 -1
435 6 4 -0.1268 14.575065428976583 12.916978815863011 13.35527791009464 -1 0 0
302 2 4 -0.1268 13.798380640030993 17.288681194368195 14.048895238689877 0 -1 0
303 2 5 0.1268 14.830893035762452 17.047548094254935 13.733381232804053 0 -1 0
437 6 5 0.1268 12.845368505228024 14.351330377946526 13.280665537714858 -1 0 0
266 4 5 0.1268 14.768764462925532 14.176316566904124 19.675145146110918 0 0 -1
299 2 4 0 13.286813254907624 16.703506055364358 15.211881016500058 0 -1 0
298 2 4 -0.1268 12.067751538079364 17.27155303182542 15.67519899632318 0 -1 0
497 2 4 -0.1268 16.379223762808927 16.10700922030841 16.744993044742873 0 -1 0
496 2 5 0.1268 18.371431217687263 16.48678186500199 17.38283561006976 0 -1 0
502 2 4 -0.1268 14.540430086193615 17.114245913179502 17.88921867361992 0 -1 0
501 2 10 -0.1595 17.661046299363406 18.227720822725114 19.447519529750032 0 -1 0
434 6 1 -0.106 16.45181396070066 11.26657645953229 13.162139914234226 -1 0 0
438 6 4 -0.1268 13.30083194551774 13.332257522669758 13.730411292666544 -1 0 0
397 7 4 -0.1268 19.22085238581526 16.600573852296137 14.094812473141074 -1 -1 0
396 7 5 0.1268 18.714404681658653 15.919147209387875 13.376596320910284 -1 -1 0
27 3 5 0.1268 17.720265497717214 14.02241280387394 12.523222827027707 0 -1 1
304 2 4 0.0265 11.846690484936076 18.68118897060212 13.694392549252667 0 -1 0
228 7 5 0.053 17.919193425881097 1.5568339550143464 16.63832553180096 -1 0 0
231 7 4 0 19.10685269318156 18.737832690373352 15.363265262799706 -1 -1 0
499 2 4 0 14.974661339701832 16.19280402807479 16.95383334423537 0 -1 0
431 6 5 0.053 16.637426985507723 11.658422898388322 12.138506683794814 -1 0 0
260 4 5 0.053 16.04707567474261 13.496859940565685 17.745203310229304 0 0 -1
500 2 4 0.0265 16.796517092960293 17.5679783088253 18.652360094977098 0 -1 0
495 2 5 0.1268 16.78504949917003 15.690080852801735 15.834496973130149 0 -1 0
553 6 4 -0.1268 17.853537195231524 12.528096468739307 14.881409404981646 -1 0 0
445 7 4 -0.1268 18.551255851471755 17.754730177745703 14.52760417023479 -1 -1 0
25 3 4 -0.1268 17.88921514043326 13.979568505714328 11.377550424604298 0 -1 1
394 6 10 -0.1595 11.2134753499979 12.659596862235235 14.830937275043697 -1 0 0
444 7 5 0.1268 17.525256789288267 17.84767912756476 14.008396382790378 -1 -1 0
307 2 5 0.1268 13.698159489862329 18.649896611077747 12.493402505129229 0 -1 0
314 2 5 0.053 8.484514684264255 3.3507607555077645 10.668500906463104 0 0 0
104 2 5 0.053 1.557463082276127 1.526812263678966 19.777065544335343 1 0 0
155 4 8 -0.4974 18.88799895364001 12.308474958624485 19.818329013170327 0 0 -1
35 3 5 0.053 15.059317032477574 15.590081945349523 10.80904467451849 0 -1 1

Velocities

283 -0.005215799205028527 -0.0038851566408340623 -0.000556820085657
281 0.0043664767719376225 -0.0014718980472301633 -0.003335556849224858
278 0.0014736067143430614 0.002273445948807667 0.002972153012038902
277 -0.011684933580140656 -0.001844915578447048 0.005910425297204608
282 -0.00914925752235275 -0.00015600705440842996 -0.0014333535649596657
280 0.003550453849170298 -0.010206884610838613 -0.00011262169706803443
276 0.0020400998796411937 -0.004141049769407315 -0.001274365607457832
275 -0.01201491035319295 -0.0002601528689392257 -0.010151202297725592
287 -0.00397821403202399 -0.0040137272329534065 -0.002220923107957227
45 0.019885988758963965 -0.007857994872051329 -0.028125977086324482
49 -0.0009301774272185278 -0.0016722083096438133 0.0026480212443658574
47 0.002112798369776229 0.0021704527171036484 0.006986320262570208
174 -0.006031341877526206 -0.0026944142710266586 -0.0014824525806888793
40 -0.016113119931011204 0.03853894415651423 -0.014177708024105267
169 0.0051404127157723516 -0.0015362754444019485 0.0016394157681378129
41 -0.00384031623233136 -0.008108374148311986 0.005001582865894458
349 -0.0011969978958916024 -0.00010603605644553317 0.0011001655576896663
403 0.0024286881375986664 0.002216003502675767 0.005704169041328636
344 0.0005772025814763762 -0.0076327979159037645 0.001336101056104306
341 0.035142512560976676 0.0029095073844323154 -0.0006504275800760309
43 -0.0003345392267031794 -0.0002201311116496197 0.0016383732752773353
274 0.0013777698611888336 0.0025266450187593137 0.0020474193121590495
50 -0.02212220711191861 -0.00784606707657903 -0.033085473258811435
168 -0.005138366857627466 -0.000652389831726779 -0.0022649863451197822
42 0.007909846768559424 0.0014236864283495162 0.00132834792332434
285 0.008437050794242477 0.006354408695999851 0.00037330242868443756
177 -0.004858702365620875 0.002628566948785977 0.00260126226432627
56 0.0003227884874737744 0.008258150777465117 0.0004266139832498021
270 -0.026816050386098432 0.0005337827624562156 -0.03133965435278535
269 -0.00693098164126994 0.0026860035136668553 0.005737524155141382
378 0.0021634845954568017 0.002106057824414241 -0.028207600035870146
113 -0.005228819925722516 0.004097820268714424 -0.0039475050955356675
345 0.001398495436411193 -0.002248954704383734 -0.0024060510601858387
346 -0.014995184829496752 -0.00040161475540810836 0.0032253539319866712
489 0.017060428744324303 -0.013111910137256579 -0.026358752204256063
116 0.0020044093165717935 -0.004834371360150302 -0.002315145861594945
158 0.0035118270048218637 -0.011303497057952354 -0.021606866603761436
289 0.005924975136908914 -0.01466321157557415 -0.011449361068069569
279 -0.011513420545046256 0.00324380182477085 -0.008123843554681976
483 -0.019918949770095003 -0.022009927396966264 0.005688440521660019
180 -0.004831718148911377 0.003518695228686553 0.007588990257547661
170 0.027586993450166675 0.01246659628756899 0.01176480125178358
167 0.004491561959745063 0.03032421499385287 0.004307166671386391
407 -0.020576131526254128 0.028041975292358644 -0.006264951332013409
157 -0.030756458590304993 -0.0037254083163289825 -0.0025050126716288095
399 0.02305263333265836 -0.0029288428510618534 0.018275889106161236
114 -0.007864514083606354 -0.007288964161282868 -0.004872492143192883
288 -0.027069702127856365 0.0010672184319667321 0.009718178691695504
572 0.02114140300555215 -0.006284659107434194 0.004806363773559236
273 -0.02146656863500457 -0.027650628745552606 -0.0023946440414481926
472 0.0026659198497314103 0.002867379508533066 0.007338126309887918
176 -0.001366213106301601 0.002456039136992269 -0.0012346910269130681
401 0.011969485376194246 -0.013209382698482118 -0.0012755724696730858
466 0.0013959751400356704 -0.003768377528881176 -0.005179217371327142
39 -0.0008129175481121769 -0.0035154038614106683 0.004806374166222639
15 0.006121461444135545 0.0021184651917661203 -7.207892602910113e-05
533 -0.002012018355160567 -0.012692106923266062 -0.008882949463235259
340 0.013446805436000667 0.002576027119925865 -0.010276076150598768
106 0.01138406353332866 -0.01637731574270086 -0.035530425005965593
117 -0.015461951390797082 -0.004844842187973153 -0.006661183130363478
193 -0.0035685728673664906 -0.004875002753581758 -0.001162656020104474
222 0.029997318865973503 -0.0038741302945691043 -0.017382796715898874
354 0.0019274935789990778 -1.7529706551196142e-05 0.008545875442620993
356 -0.0032105793075241145 -0.009696822107247226 -0.006900598758944957
144 -0.003967842988323891 0.0069753587269381035 -0.04034025833777291
379 -0.0058373027182422165 0.0015962718424554776 0.004229172085916436
570 -0.005125772406427261 0.012953382174570573 0.005625362311168311
53 -0.009979248971417316 -0.02268794531883113 -0.015381173340761368
13 -0.006132983829429549 0.002323101486344006 5.873524580430545e-06
576 -0.0007962770303162794 0.003315104596725431 -0.0029421476118944535
57 -0.025381832905424274 -0.009041275416682804 0.01537842565296034
172 0.016720476967939362 0.016170747062502665 0.004053359279255983
347 0.002273621120741154 0.004830211676160761 -0.00611051995968169
464 0.002564591501357303 0.018341115992182928 0.004563884366012457
271 -0.01767611120690094 -0.019611594417938583 -0.011958592145671104
17 -0.0028737807983769386 0.0011656514284684794 -0.004920379968258275
530 0.013340676220163283 -0.004241231889196506 -0.020106459838530412
315 -0.02718730935859175 -0.0003975414447536427 -0.00023651102473151787
339 -0.008762067821544515 0.0017149058162162598 0.0114038966234336
126 0.02861396493664669 -0.002971583625483139 0.019708571543273677
20 0.0028341192117912603 0.015105282218577518 0.015953717367948116
119 -0.025370884041376735 -0.010133118354493686 0.015716568942478266
212 0.00411788793620095 0.008170531967190165 -0.028367262970913416
121 -0.0016969237295101974 4.3748082364037745e-05 -0.0049378876803381055
223 0.0003450776390757242 -0.0014512322493864048 0.004683236691060274
432 -0.007283098138784852 0.0005264703421323022 0.02390045443579015
508 -0.0007543625026308805 0.014200536337180375 0.0007850811039753136
527 0.0040755746723839 0.002916175207763619 -0.0012195303831365977
531 -0.004762995595431755 -0.007321939402981005 0.00551538122143058
529 -0.005936880313647642 0.0259800773748108 0.0071355697780902845
532 0.0020973945582052358 0.005691589019386126 0.001726332259571307
507 -0.0312020378267818 -0.02174650018691448 -0.024274241898190663
528 -0.0036461970753847287 0.006568147306310206 -0.000939891630267484
428 -0.013623675126164695 0.009290242418518767 -0.012356968176413645
342 -0.0019440871198271807 0.00014053242907660074 0.0053330464744917455
128 0.002297246795209969 0.010043362814273558 -0.0012095344596906405
224 -0.011835770821887635 0.0001152535363083563 -0.0030155714572847664
248 0.011254966045353882 -0.00046396096578664073 0.0008253627915127132
297 0.013985054517531745 -0.0014914224985484064 -0.0018312202873110954
430 0.00995438747770133 0.0009094236381131197 0.0015466320041130053
250 0.0030203877179875343 -0.005438551005610241 -0.006558722492690161
380 -0.011140159862192677 0.002806466846833606 0.0009344676841209331
382 -0.00778607064050149 -0.024004277510467097 -0.024342921242289067
384 0.0020767809110896593 -0.0009560845965232504 0.0040248845435857895
123 0.004369369406262467 -0.0003404169081320317 0.0034578119206380795
387 0.005253422685205528 0.027365178361171687 0.010618311321079526
130 0.0009710088696982101 0.0003886452351695227 0.0039342658430264335
388 -9.760989333749352e-06 0.0005337788911623995 -0.0017771176566152957
335 -0.005251052256213942 0.004426652974607254 0.02034720617700049
392 0.0056281789807418915 0.007658437781626495 0.005355316303391134
334 -0.0049669267024377356 0.004013398926887354 0.0011949328596745788
386 -0.005845202591926332 -0.0006191174546236037 0.0013010935222627343
390 0.0022154692772416475 -0.00018026628601748321 0.0024174544515561257
133 0.0005818040379444474 0.022787333800044118 -0.009868640487931417
337 0.002933314008015646 0.0033026903357663514 -0.0033067891448735802
129 -0.009069229825628357 -0.0007423730522567363 0.00048608285736940565
251 -0.008399096873582965 -0.008551001683939696 0.0076453247890324715
103 0.01050858861940585 0.004196565292990764 -0.012091554072160733
102 0.02317537706734001 0.012896271943472731 -0.024440659840899142
125 -0.004977143130275076 0.0021871873963746806 -0.0046901400764543305
131 -0.009404978707352716 0.0019447676702304113 -0.001191552146889334
291 -0.006309364019623624 0.0004763434555236602 0.0016824825423462405
294 0.0036359089468681657 -0.005884624537963657 0.0018947592819555166
292 -0.026518771394374224 0.02698654115392074 -0.005911782802753612
5 0.0023530690932442536 -0.01850703284572909 -0.009476502738056938
534 0.003165003477929409 -0.002588696970649085 -0.0024038568355603295
135 0.007055728245171181 0.006012806079128947 -0.0008480261947561511
6 -0.009336058329195873 0.016732167579411258 0.002083486091049152
137 0.00550729545636643 0.01947286981664606 -0.038253606339226545
99 -0.009897650566946565 0.011727308631711134 -0.01197479170243639
134 -0.004524997659387984 0.02147004817834611 -0.004895818449594802
4 -0.00272780614649552 -0.002072165243303731 -0.00011827930593568932
336 -0.004836978661657925 0.0021679902656918234 -0.008491543800538766
136 0.008704721712245853 0.0016144000688016152 0.004406945227671495
207 0.024742952895017087 -0.029183848195496354 0.008412615572154229
364 0.004605149822938734 -0.006246444453610484 0.009750543557053971
249 -0.009018048590847145 -0.006307100216326394 -0.008452535488968857
391 -0.008235287789804292 -0.0065029041421731945 0.021777820661012335
343 0.0030237985291437213 0.005369642994878168 0.0004343808511720109
122 -0.014887095310036708 0.030859315611927434 -0.009176905545489365
14 0.00742260960134086 -0.013396143871078701 -0.0024928286357415357
366 0.01763177496115438 0.019809313380115528 -0.0012388433042303264
338 -0.016010312652979048 0.0051160813289462415 -0.010074998343136115
373 -0.03442799200896323 0.011832021885810742 0.012450992271977218
368 -0.006668051707340432 0.0021940429034480436 0.007002430310504575
11 -0.0076410570310681035 -0.007260798662549937 -0.002695426631351012
12 -0.0011543829852522158 -0.004915320776980707 -0.00036496325177502563
448 0.018324356207360643 0.007286179826080581 0.011945654158133603
227 -0.034168350222229936 0.000833652272576852 -0.019396684192122052
286 0.016566604287799706 0.0009578953303689914 0.0009247649685236491
447 -0.004292556700058722 -0.007918364325647862 -0.007644397746378314
546 -0.018307545702941914 -0.008923809978190495 -0.0033362723131257917
105 -0.005034471206682827 0.0017944543776638048 -0.004004309204857274
566 0.025831553422969496 0.019857521052432863 0.009228169084826354
369 0.004792173479855277 -0.002483928411596884 0.0039485485610863975
545 0.003368797590300804 -0.0008506759522138073 0.0010256683287635676
450 0.014889291028186624 -0.00477283862196336 0.0012904629123557802
446 0.017928190718098487 -0.02998860166983497 -0.008737652868471462
355 0.02659964137988407 -0.018588261026604675 -0.002486882987491793
322 0.0006126920862661734 0.008259105897401448 0.00381075699672543
138 0.018934283093399982 -0.02764141393102701 -0.02262821798656329
539 0.0016947208238028116 0.004891407019640593 0.01433769772437261
357 -0.003285079921632053 0.00024100925537340952 -0.00023452647393949644
142 0.003799411429236724 -0.0008770498807434279 0.002547930009584731
359 -0.0317398022988713 -0.026449966636099553 -0.004203280437639995
140 0.005225663437469976 -0.001577399240638724 0.0012225092572785686
254 -0.024079067168844642 3.103200256808753e-05 -0.019070016913920733
258 0.018525179390972247 0.0013107708416967927 0.004991026859470602
540 -0.011313950403429422 0.0044262786399160555 0.0054204719792247565
547 0.0030360542890848843 0.000612483098440695 -0.003482827767748813
154 0.0007146975552347174 -0.015597958677655023 0.0046466502810050886
151 -0.0006900553298818029 0.007427552488465366 0.013029104124225277
152 0.007129990615884989 -0.00430841490510701 -0.0028076318855543947
156 0.007194949221922321 0.03881203054341003 -0.017179616101405684
327 0.0011336330125838645 -0.0009412155369794894 -0.006331101773614079
325 0.006332505548922716 0.002165398410540515 -0.0032979644153661044
65 -0.0038989138829203054 -0.0017478513525608218 -0.004226022720767499
542 0.0018385538458445103 -0.002592945241352434 0.0066467422650601385
46 0.008551000774971357 -0.008170904195600213 -0.013042367750185913
64 0.003242725241908678 -0.004805870480667348 0.000573365445147214
48 -0.011367041233281975 0.008353458415004062 -0.012115917942365668
67 0.0019912320003228497 0.0013601046775617658 0.006214683007714536
69 0.005727049951662515 -0.008149400538285088 0.0007893061559911724
44 0.009876966505425074 -0.013348369084661473 0.01782900373534031
70 -0.0054199983624440085 0.0015102313223456522 -0.0027208712157190686
63 -0.00353219548200297 -0.002732890821315962 0.0021155499074081425
66 0.00776066827975134 -0.0030153354046086613 0.0019154521736219259
72 -0.002668905217945085 0.0039009979296534608 -0.003664413348621462
68 -0.004923048114221252 -0.0024933486657749094 -0.004868317961520507
74 0.018466288327944086 -0.005674441505429458 -0.0013649837701498369
257 0.007173427056648797 -0.0008224135849757235 -0.0036466379419116046
98 0.0346828262904217 -0.0017978917481801186 -0.01897991880399148
100 0.002277596920568074 -0.012513633250411977 -0.013912588592359738
329 0.006364818392104243 0.012297045723404815 0.0002199742759421828
420 0.0027625786156456823 0.017433602462112164 -0.011618741210168284
421 -0.0030126277620571387 0.0043241713411808535 -0.0037925531942889176
422 0.014676619536741323 0.017020836409826188 -0.008148308381981863
73 -0.009870475487817712 -0.007775436422974607 0.01581748972955443
423 0.004991798343569871 0.004211707236561418 0.0021586076151173454
564 -0.00033987050086670595 -0.004016115845032694 0.0004870493481465187
139 -5.393507590402024e-05 -0.0008081439666797966 0.002363131127233018
568 0.002005830181683165 -0.0029383077244207294 -0.005928852817850796
150 0.011980243292564802 0.0171420723071496 0.018271718050620295
71 0.007573103475316618 -0.0017398939120997301 -0.002192024909041631
101 0.027559730358521575 -0.0039398440063023584 0.014853371058802238
565 0.0008548437968649712 0.011681890555004919 0.025868845266897075
183 0.012434156858855112 -0.01098714775566147 -0.011882898156271453
328 -0.0027352182322914254 0.006984164080170413 -0.0026616947346159306
326 -0.008802093013489349 0.00502258032838527 -0.00627373165387134
426 -0.014264524272411325 0.020345447224354985 -0.004483515658484274
360 0.004652899089890994 -0.010393266639216296 -0.004745376527388995
571 -0.0029523414766364576 -0.0019515421246817201 0.0018947147766989326
19 -0.011668984366092122 -0.009810325497386451 -0.009336673843184049
108 0.006208505545791435 -0.002125000104459172 -5.0281546052409386e-05
143 -0.0025943266284736955 -0.008735850678648939 -0.010093457786161145
75 -0.025831871918254805 0.014470366243540174 0.007713524593389971
385 0.02505906612010949 -0.013996824262090531 0.01214317536767525
203 0.004615464240079104 -0.0016047998079945453 0.018355661580013186
567 -0.005438481352593706 -0.020942988906540273 -0.008444498928597074
376 -0.01614456434182307 -0.01768892027989249 0.013618411925547087
93 -0.010390872206922643 0.004798148660535915 -0.0004923878744675383
107 0.006147238712707984 0.002855423385658144 -0.004872598397962347
332 -0.009052838275916705 0.01319559985090999 0.003568249287044867
221 0.01420044174258327 0.00030461919432183613 0.0113808457425369
424 0.003278203834271263 0.0005996083571947674 0.003596538593514841
95 -0.0006848503332166818 0.0019827849021728785 0.004732207062595195
28 -0.011366985813170053 -0.005863595981970962 0.005919593591297226
3 -0.003462407520034787 -0.00432101564413565 -0.002753494505375208
8 0.000581130493506167 -0.0030900282414462877 0.006336680489970925
425 -0.0009236918199588127 0.004494055385389899 0.009715642677519232
372 -0.0009955465939472828 0.0019319721882802572 -0.003937255278235203
504 -0.0053110718913876144 -0.0026878462857988145 0.004172356945594982
94 -0.019195559849416406 0.016041908144781875 -0.015866669584656552
389 0.02097564515819008 -0.015665443007450795 0.0008544364536598927
582 0.0028869249528446217 -0.013540405003964327 -0.015573353061095216
24 -0.009827739487698108 0.0010667276380454788 0.002050394623583632
32 0.0048916086132197245 0.0027944378116158378 0.0027888005497669894
535 -0.00634144589700682 -0.004720876900502035 -0.011777893600764588
10 0.027262270772659195 0.013088867661155103 0.0013465502112524111
370 -0.007732179334055336 0.0017118670817290098 0.0017182146632712914
7 -0.0134339309298061 0.012538095695683224 0.009834533700289125
219 0.0004051340192086375 -0.0019871930071092996 0.002896177913422796
111 0.009711682432404665 -0.002337522915381815 -0.0016394278642304862
204 0.0018285443832853144 -0.0005986275996902542 -0.002124222975422307
205 0.023027428129239497 -0.01452836161272068 0.005994208990799575
22 -0.005907339900275405 0.007297199078747507 0.0049347278854150745
36 -0.008821907258983176 0.005523055425265205 -0.0011938767961790124
427 -0.013141191932652235 0.006948410325761849 0.001530565759583903
220 -0.009059184227923801 0.03618448666246385 0.0019545526518863904
2 0.021767401994127692 0.0014952571381900836 -0.01011769001537563
371 -0.0010636267603366474 0.0038111381309940463 -0.005117817743339169
91 0.00039701424615253613 -0.0018374286502626236 -0.007964732413559402
30 -0.009504813223097387 0.002936638828905696 0.0068819591207956
449 0.004115847007346316 0.01475442785750423 0.001989955879848531
37 -0.003276684663980824 0.010469574340171895 0.011206828407765927
9 -0.004362474397452038 -0.003775631221444771 0.0024083464085340343
96 -0.011576820601292021 -0.005194482265665019 -0.004493199559169916
217 -0.006034388827734882 0.0007575674162491226 -0.0022859107590293432
184 0.006793980838029517 -0.02703037915447651 0.018840393534447008
374 0.0023500441585982555 0.012088184487174526 -0.0027393462684854783
92 0.0010725896002865424 -0.003141178178390713 -0.004352723270245618
38 0.01379015873891273 -0.0012573769295626048 -0.003674985286580916
268 0.005827480004153423 0.0053265689336171275 0.004053192886216188
110 0.007399435745280051 0.008436603828852049 0.013982592373215138
202 -0.005461705147469265 0.0070819167696058605 0.010007269738304276
146 -0.0009113951942761275 0.002128556399319126 -0.003167243954528798
109 -0.0018274752256493287 0.00727194093966784 0.003544458425723875
33 0.004958902149491179 -0.0008436088522143844 0.0018381704535161923
375 0.008939244361233419 0.010119249005540086 0.008442391922587004
62 -0.0049446787205127485 0.006132124660560489 -0.00628520450810254
29 -0.005878678733848554 0.008809510258865408 -0.0023329426315532938
1 0.003647900219882221 0.0036189383168884134 -0.006473087827617019
367 0.002416844068487481 -0.0001693791125204226 0.0032111006844438347
365 -0.00845502334369612 0.030670428978510328 -0.008028424728508255
188 0.007048898500151952 -0.0023935538485153683 0.0017172265122148242
87 0.007988966063220207 -0.0068044536680336816 0.0219843219955632
148 0.005579812818677146 0.004578158797453278 0.0022535951647647385
89 -0.0013028937292008218 0.012295840161610437 0.00708537313056626
97 0.012642014732245445 -0.002530835551290868 0.028712836296246748
26 0.001585355367055401 -5.985251537282758e-06 0.0029681235076016344
215 0.010684865599796794 -0.008008116044779084 0.02398288618945574
218 0.000448808525098057 0.0005601854220209857 0.006856238245402875
83 -0.0217570058454416 -0.008444863778974087 0.0065501772391161565
112 -0.006650548430644481 0.0005727258607422502 0.002352887515571655
225 0.0009896293383608746 0.013712694442551097 0.0009289888768401833
85 0.005164028900025207 0.00010132141732719418 -0.005030072924688352
216 -0.005213271084770031 -0.006601910991446666 0.0038500253660081994
145 -0.006708551641296055 0.0005968474267565722 -0.013113407070671353
124 -0.0050660237803638875 0.010043396457876903 0.006565432469810277
179 0.02083999324224432 -0.01067957065129249 0.00339667971119584
164 -0.025103890299386054 -0.033108880985661844 -0.005151474179069396
141 -0.009160351877751813 0.005883026884427453 0.008799008185226966
383 -0.004713340863802236 0.008653990853112007 0.0018628117230354605
185 -0.0023468170911189017 -0.005642690701311879 0.00626751639147763
115 0.01374142241201739 -0.013841631044313536 -0.03461463820106993
584 -0.026955335654511837 -0.013301856723749745 -0.0063295900450056125
469 -0.006876600107177218 0.0006181954129968221 0.005426180402241906
470 0.00022789716083872026 -0.0025822972901516457 -0.008256368837741196
331 -0.004575804656422389 0.0020042078707004506 -0.0014443327679042842
272 0.015141577362850486 0.012945919887040748 0.004829853181324454
585 -0.00345897649699549 0.0015879608109037931 0.0013355412437758222
333 0.0022619328700566555 0.006222604484904414 0.0009598674701377277
516 -0.005103440552575093 -0.0003058123133658431 0.0009199686629040813
515 -0.004505388838292032 0.0004613158826689346 -0.004832030832643664
514 -0.020086415769608644 0.017576644459801127 0.01860907561387102
513 0.012949486383712594 0.03770652653349776 -0.003360964038317804
330 0.030772207320268564 -0.007096303809420989 0.008617343446814685
468 0.004741487448947812 -0.014297828507256279 0.030058997001482665
574 0.005078951804595328 -0.0049432875335944084 -0.016932357590873408
161 -0.0015468053726936514 -0.009006089311562139 -0.014050888081645417
77 -0.0021413782366533907 0.0008490019144413167 0.0010555012041692162
525 -0.001798674492764417 -0.013351601919810252 -0.007515596853889357
526 0.013696004162193786 0.018011771670997594 0.02263699553655929
523 0.0020966847975311467 -0.00752694330222707 0.0005090049792447186
467 0.003779757456798431 -0.004241112637572491 0.005348124570695437
308 -0.0152520917116869 -0.015410481683964663 -0.005123424895936046
162 -0.007294608405726918 0.0011676410998184782 -0.006359862952063557
160 -0.02614143592557328 -0.01455209314177253 0.004075450038931529
471 -0.002525714414040024 0.012606842939102794 0.023816138122166437
52 -0.0030625812123714923 0.002328217114950876 0.006968985086984612
55 -0.004477800467506748 0.005595693083748775 -0.00895454116523023
311 -0.0011263076920613184 -0.004347527000557933 0.0059503719981832265
79 0.007891318675000914 0.002908315640846769 0.0032287030669692434
521 -0.0036644159418532216 -0.000865487619104976 -0.0057064671924564655
127 0.00046647867123546027 0.015259709422790282 0.017016553134020142
562 -0.026104181928402175 -0.003214064187672783 0.01297114019974418
475 -0.00183232784265157 -0.0034585832758826382 -0.0032687204109197684
476 -0.05310640053507093 -0.005864929357244977 0.012799350910308696
61 -0.003302899435474302 -0.011618068177181763 -0.0019833890333237785
577 -0.0037221454009111 0.003171332580791183 -0.00019005626732285667
175 0.01745727479225239 0.004004983640160811 0.020265132456487166
60 0.00421966460339346 -0.009294362044637077 -0.005187960131278812
478 0.0019530613156696183 0.005092196731902476 0.005676917521484183
59 0.0027491858188462793 -0.0022777077508890757 -0.0009052893687355685
477 0.0070615084788730135 -0.0003610652250116781 0.0004908559379139608
78 0.005600765679122053 -0.005861894183727056 0.005320725335539553
313 0.0024744796427159568 0.004478023059062909 0.004047396746706209
245 0.012243968207569072 0.007501222765914122 -0.009059180197951692
522 -0.01928302393100148 0.003687773396755655 0.00923954619981095
58 -0.007942547940488567 -0.0058354341285660714 0.0034240455317364298
517 -0.007286411413908826 -0.013948827395317557 0.012094812239610815
120 0.015641930160638005 -0.006638577699754241 0.005541264347351323
519 0.00103141950556174 -8.707399769016486e-05 -0.001957280867850262
358 0.005009553440257165 -0.0018409367129242724 0.002355748645388402
173 0.012856127733144278 0.004574003020713021 0.0004354666833991078
350 0.005679827997507972 0.0026450665430181194 -0.0010954006512920915
81 0.03219231047640917 -0.004507959405492894 -0.021803898411622107
80 0.004844309971648417 0.016102903915650422 0.0033982739629298936
159 0.012665696826365692 0.006296600106182521 -0.004724388692257858
351 -0.003707406919597338 -0.0022860046068962077 0.008018234829066946
23 0.01061595080570786 -0.0037765835878758665 -0.007430489510302734
166 0.005014263242203216 -0.003966561809472973 -0.02034301359424053
165 -0.0036220861613697098 0.005330666312308928 0.0039027386062017158
132 0.018151882740739856 0.01366315723553967 -0.01622410884206858
579 0.016024195016659373 -0.013793027647048303 -0.015124786129398078
242 -0.0031293167195548363 -0.003363191235626076 -0.00428322825561244
171 0.004927799447879392 0.0027901745725525157 -0.011379370787829274
473 0.0012132393011077063 -0.001273604064487326 0.0006629971060729967
191 -0.0015512937352705595 -0.03236593735443953 0.004026573146174936
506 -0.003298034707742714 0.005878414563798182 0.005645620551595176
443 0.00872123945651329 0.003429741569849973 -0.0036424965805424486
575 0.0032712101703997166 -0.008270611144463584 -0.00564883109811194
18 -0.02533972262736418 -0.017506219445131317 -0.0003028388644582569
474 -0.011560729463218695 -0.012933802656288936 0.014869974014196314
536 0.005123634243632374 -0.015151750836577492 -0.01859433699356701
312 -0.0017105303374739124 0.002803300559516332 0.001107804291803391
213 -0.003189987177491951 0.0016983325271929574 -7.317633388978879e-05
578 -0.0024137493134590822 -0.0028574044958135734 0.005451797006959676
309 -0.011414123324582894 0.015621298462300998 -0.013719046485282101
520 -0.0036873262229990813 0.008170919633065815 0.0051882359610171715
518 -0.0026779625293234586 -0.00020531102120014094 0.01039028520319122
524 -0.029858864570837126 -0.009938709019149916 -0.006892238819217712
491 -0.005004085143406521 -0.030263358752214982 0.008238152907203854
353 0.0018194370826943036 -0.0030353806911482106 -0.005599690245242417
480 0.002562738761050715 0.002068860449835 0.007583665272206852
481 0.019622968240816864 -0.004195866441314381 0.001650161003356805
290 -0.014330294503824984 0.015284688842817423 -0.004767447023648231
236 -0.0014100796191206673 -0.014539344263050645 -0.0016939045698776372
241 -0.0023385178800016523 -0.0009976086236258511 0.0029961532705968887
479 -0.002477374906031247 -0.004687961018050311 0.004814059303588394
563 0.027537353229086035 -0.012502416010089803 -0.013637408083604044
482 -0.0050951865814435416 -0.00561603454341991 0.0017858828776710315
484 0.006455289248628192 -0.0017055911158586736 0.004651691635214256
235 -0.0018865631125348928 -0.0006284268156883033 0.0014490230732912268
460 -0.007261879774944633 0.003366699761005682 0.030486406941662228
580 -0.0017792859679867541 0.004320751932262034 -0.0034178234993678604
239 0.005409342833943084 -0.000708832816633446 -0.003968075111490144
208 0.010091373772856153 -0.008035818732173483 0.0023829566789259748
490 0.0013673706103035147 -0.005840910420983717 -0.00018221777491974586
487 0.002623718039119213 0.0019433807621524913 -0.0006032817057340238
419 0.011349549500391626 -0.015100848415697053 0.01257466049020846
418 -0.003017172855453181 -0.00278114919102738 -0.0016453297591161374
414 0.0016133943823316553 -0.0026906974001045837 0.0073379893383410605
417 0.002497721671086308 0.0031409798495474826 -0.006803362464996925
416 0.003465209298902465 0.0073833086371258155 0.007909271127586824
415 -0.006093191281564919 -0.000245017181930121 0.007247395490676139
413 0.0014888910553939449 -0.002024337774438364 -0.007461716846666791
455 -0.0029176645862373225 0.006810246034358165 -0.0038841340110110753
412 -0.0027622127079154294 -0.004586519531225747 -0.004123582406179473
581 -0.0038005178999101804 0.0028131980581039104 0.005755886764943513
549 -0.008445498671041777 -0.021257338168621326 -0.005245104992139045
234 0.006429399949157223 -0.000524362634833566 -0.007937300751263225
209 -0.025102879327750544 -0.0038374399380162183 -0.02086036039698467
238 0.00020114505559190625 0.0005652415114904351 -0.004025597031021382
454 0.011466395494333183 0.01028575549819014 0.0007716976091070904
411 0.009372937055969387 -0.009774609072526502 -0.006159917228494994
457 0.03834804925775113 0.007751759600871274 -0.03856308958781455
456 0.001105408798982122 0.0014007938323825492 -0.007439602055111317
440 0.00886805620128411 0.00880660676612432 0.03194042061888294
206 -0.007231824940430749 -0.007415919078634131 -0.028148043776897304
118 0.036741377349760906 -0.012270481238447572 -0.011331755519544408
352 -0.00021255030063644753 0.0005225710723043613 0.002247979126100207
485 -0.0003659158161880998 0.0178646580415209 -0.014910750587067815
453 0.01077303084553133 0.001592391077708175 -0.0036144407300401095
233 -0.00651239642752078 0.003439137741149714 -0.005882272724207215
492 -0.0041674140722037616 -0.002816813996529235 0.0008184234994062988
240 -0.025843773463745126 -0.035573149962969 0.012807463869773932
232 0.00428010210341496 -0.007532231961097883 -0.0025880400024689814
494 0.015220688114096338 0.009590655863843979 -0.0071134139592091
488 -0.013554373859808518 0.0006710096801252274 0.025108546900655317
493 -0.0016859767318721576 -0.027117027666975456 -0.038455335171312714
486 -0.00041071675111996716 -0.0024727676931068287 0.0010452352030956857
429 -0.007176166717823329 0.00394814689248166 -0.008510659465483508
348 0.00226226629614533 -0.004924008781099572 0.0023563669394373278
284 -0.008796873702787585 -0.010988009404358557 0.009693799995982732
211 0.005190700784248863 -0.0029913173429715286 -0.002687699401747134
214 0.013430908081389206 -0.02075148576473569 -0.0020518167761658258
441 0.003973008434185919 -0.00347808823244894 -0.00027791171015923815
557 -0.003905115702470592 0.0008506724393257852 -0.0019954575439228594
226 -0.014239351886085242 0.033504129122126906 -0.008118246494552563
230 -6.27103653157965e-05 -0.03238325551938469 0.020216079817278704
16 -0.02864639820837635 2.3656707027374884e-05 0.0012756883189274473
554 -0.0030470348530654413 0.006833605576377191 0.0025842257847033417
265 -0.008351395473200946 -0.010176859130742281 -0.019124777485162385
560 0.0023630912336457016 -0.0025851072518820197 -0.0016040795720797822
229 -0.00839699596840905 0.0017096294248099633 3.1425361027006594e-05
210 0.0010966192430893439 -0.004193047273409707 0.00014922392186444595
190 0.005501895631619171 0.004696834502134026 0.0019594387467703296
192 0.002109689670770515 0.00671987091243398 0.027821868443722367
76 -0.012476038953583775 0.00907398374739605 0.006269051649762924
189 0.00878288558897977 0.0032201507524436354 -0.008487780731118087
31 0.006949532870160647 -0.004997832735311424 0.011490166035891272
187 -0.0030191301270523713 0.0002488140567936525 0.003459875840973113
186 0.003411552401010797 0.001999126173862908 -0.0017734161395085077
181 0.0007817708392161683 0.0019373949912125088 0.001306565732514772
51 -0.013364096363622666 -0.010950420321987507 0.0146450980854782
182 0.0011183558161376689 0.0065159584796099295 0.008492542206510164
54 -0.009334540702990756 0.02183603375157994 -0.0018081001682978598
243 -0.005791118026462665 0.0032257227717602277 -0.010238882443430002
451 0.008319743814845135 -0.0007599101648403737 0.0024683421410871347
573 0.0008847409154563047 0.0022989726232689163 0.0005019511671313281
244 0.005587849596237855 0.0019441151275888567 0.0011989548108460007
300 0.026071729945276678 0.020039046380910346 0.0009338305759820567
462 0.010945837742899056 0.0032935617148528162 0.006524210164296568
509 0.005985514396603712 0.016053387763285337 -0.0038215698834883098
459 -0.012818700209746698 0.017977845391399364 -0.0008005723980916236
246 -0.03215065507448915 -0.007108369058574093 0.017958425990235543
324 0.008516076270821326 -0.0006021153277910902 -0.008689840456727809
247 0.001290096822314676 -0.009406541192164348 -0.0028799929154074127
548 0.008875443778996552 0.012725371582140295 0.0033307530571112806
252 -0.0017696718753042711 -0.0029963423149732236 -0.00906972824588608
537 -0.001934085772134816 0.003792131304507713 0.0011626095582578395
316 0.005813555542620827 0.003932740370691683 -0.008467736044339804
88 -0.022056625749591528 -0.018091765444415417 -0.029056955034417617
82 -0.024744282394484986 0.015470247315420911 -0.0013069081640486517
319 0.006905785135688662 -0.0055001970668547475 0.006039275674102518
404 -0.0024019489458892477 0.0012365379874026599 -0.004550531660012653
583 0.030954253197114003 -0.0003452790070769163 0.009465167896716939
561 0.003649792441824134 -0.0029539412769582817 -0.0022587721627783134
406 0.001414248364813065 0.0036837027891249985 -0.002939957435558653
405 0.0011991949249028624 -0.006859208299062794 -0.0045131502058531284
544 -0.0020245470163027025 0.004216852728535197 -0.0004853730688658401
410 -0.011639222310775426 0.0003412776080960233 -0.008177514669092641
543 0.0025976014535347663 0.005408305448246029 -0.004586154715111483
402 -0.002297126627890131 -0.004130027135284749 0.009403773929539198
510 0.0015004890064708731 -0.0012468548201119308 -0.0021683676095286698
409 0.0013164288524848693 0.002627827457706964 0.0037904157060653985
552 0.011600525871128982 -0.008289878906760867 0.0021475110135914114
86 0.004493871281153462 -0.003680574348517097 -0.0031027702122511922
461 0.001638312766296062 -0.0004335802345407352 -0.0031046051206870865
400 0.00163772556534557 -0.0006825430796910815 -0.003310649942766451
84 0.0006529454438486928 -0.005446526518016069 0.0047981780403133206
200 0.004389698819695318 -0.013085488557513352 -0.006394356488566822
541 -0.012738494091765156 0.023904400395108383 0.003542131477997992
197 0.00035501453072355783 -0.0016162754036355457 -0.0054353367681494805
199 -0.0009014527644032779 -0.002563797395764999 0.0009312479815270593
198 0.00219224738045582 0.02239097352581525 0.006672222431883976
196 0.00010600751079453676 -0.0013128300039915162 -0.0026467811596503008
538 0.0031257630290171946 0.004222117852255118 0.014294149346684338
408 -0.004450415290495587 0.02255815682024152 0.0021268093661127438
321 -0.002484715020922427 -0.008803692111074082 0.003083781327109275
558 -0.000900459628603416 0.0008616389384612323 -0.0019233118053422773
465 0.008752560259489969 -0.0024509727004717197 -0.00029681720119287735
90 0.0024243207244341483 0.002622465094261342 0.04959052929271667
559 0.0015287155520011838 0.0014725227508217058 -0.0027809521255426667
253 -0.006487544332395039 0.015208601093295417 0.005721936682397974
323 0.007579553845512576 0.0007196788567115217 -0.00743858722649051
511 0.009209161385247876 -0.004896813452089782 0.00914271043796687
317 0.00012363301993919087 0.0003985246157518285 -0.0037176472226736943
194 -0.002590919594984614 -0.01857645380520252 0.011557641207414867
320 -0.0023298059559113213 0.000615170230370414 0.00039857603298771275
163 -0.006338855809922314 -0.011655493428486348 0.03637866131071377
362 -0.023662963022101576 0.0018160428149124237 0.026968344077462944
178 0.0071590262149530265 -0.0020713928921730247 -0.031170280703774905
255 -0.003313807873038556 0.008613923912227749 -0.0015108839457190024
318 -0.008388984439873985 0.019838534576902517 -0.00540840755707754
237 0.013812943830549455 0.006046642873782787 -0.015692929674531366
201 -0.0023812247653861437 0.0025910025930980323 -0.003870498623455958
381 0.027312312755683802 -0.0016059800956226189 0.00038419898011313733
363 0.014439503030399573 -0.0007837190487751403 -0.006569637821988316
569 0.005164906992010925 -0.0020426500759188 0.0005595877600215205
361 0.00011361417770302574 0.0068480158509834285 -0.00026450872919584926
498 -0.009418164896301748 0.001961906604286532 -0.0013796377710671168
512 0.014187793819627731 0.0009630697161822521 -0.014507960373657402
267 -0.0024688659262807537 -0.0024260056025404964 0.001967885875481399
153 -0.020227815065933002 0.0013606236791980015 0.0006681663243202423
305 -0.002623513369543534 0.0006758410017106211 0.006296168483782993
550 -0.0009991125423687063 0.024704367883512567 -0.012237089865538796
310 -0.0022040062071542036 0.008603462873957425 0.00046005491748839027
452 0.004818098345905995 -0.033433395414191436 -0.026536319891733707
34 0.009576911828007443 0.01959005280453508 0.004559092441088061
195 0.0006493146196736897 0.003768973764028459 0.002111358083214346
395 0.01868748810221457 -0.002690081382115339 0.02153437256568911
262 0.0072469887034183516 0.004203760089583071 -0.004867279986916605
505 0.01734188658820507 -0.02141974044354599 0.008492498849437063
264 0.03684887886785581 0.0013544870605054012 -0.0014849195799208985
377 0.018661377907552082 -0.009820725429371256 0.004147983761020387
398 0.02041647596879762 -0.01024901761201101 0.0048451080485699205
21 0.018232266361724453 0.005924380813246734 0.0358457895523325
306 0.0011126835758298273 -0.00022382553143596276 0.0006183028788456631
463 0.010276093857767576 -0.019022011985909415 0.014349552661309073
458 0.030684265176994196 -0.029367738270865425 0.012245543725032948
259 0.013697191454986763 0.001243417028711021 -0.002192699278569906
442 -0.006463088052487265 -0.005890631143757297 -0.004393930610818344
293 -0.015848365237648415 6.425457373204437e-05 -0.0025477435860244255
301 0.0012123003192077038 0.0016373767265877976 -0.007997685110693636
296 -0.0014084789284124633 -0.0007377555246107426 -0.005235795637223528
436 0.004242212120496632 -0.0009726796983013738 -0.005720248275135924
295 -0.0025947535607075026 -0.003805976362792137 -0.0038796280985479085
433 -0.010468521258225035 -0.01694670177242992 -0.03761474483297364
551 0.012187494821205585 0.018473195100362275 0.014880514087489624
393 -0.007984720648918578 0.0029105016358377932 -0.0024416854857540666
439 0.004108239842926521 0.004333954729571402 -0.0014946070763345583
503 0.005643424922231251 -0.00023147468953981136 -0.005750563658664643
555 -0.007181312767088081 0.0007142794720893722 -0.0006888304531827798
263 -0.008194529842199892 -0.0054124427734510185 -0.0023383958065641684
149 -0.00451697880375842 0.004152267874069808 0.0008799825833482362
256 -0.024190756576078012 -0.00225848483410706 -0.0018321928902101067
556 -0.0008133175736029323 -0.004810172620980173 -0.003504307060176069
147 -0.0037676548851614065 0.017127379268361217 -0.006043020880732565
261 -0.0178174653175457 0.02856240430297128 0.003575362987787423
435 0.0015990476321125068 0.00023704606550652816 0.011010998152546869
302 0.0017423294605104834 0.006052726682333885 0.0023923214389871663
303 0.014294311307743798 0.0009913456624275104 -0.00488205043671009
437 0.008299434437964503 0.012130602235145133 0.013266777165908634
266 -0.004240088799442342 0.0046805775191461636 -0.00022452931453035004
299 -0.0033225322769476645 0.002791830848535645 0.006583885663046662
298 -0.00614568365521211 -0.0017804274460818002 -0.003945069034148067
497 -0.0010077035441375499 0.002591559172473917 0.0009369868945207124
496 -0.009298950297630157 0.00937918522941915 -0.030347081759994683
502 0.0038749646424544692 -0.0034753216160246635 -0.003965358934075352
501 -0.007173634976475046 0.0010301455251381098 -0.0008495290645960111
434 0.0022203374209840174 -0.0010226129656425655 0.006163785516567546
438 4.880599661829771e-06 -0.002654119828125013 0.00154142039688005
397 0.003373225249635498 0.008426006491567719 0.0015957175062255536
396 0.013475315422586058 0.00856643846387704 -0.013956524251079173
27 -0.011989921796388336 -0.023102635832621753 -0.031235716366536895
304 0.01262725347856729 -0.0023179580094656992 0.0032642313351695738
228 0.010437628443601783 -0.004057689404615503 0.01743018302270927
231 0.0028584007344888266 0.00205181880558191 0.003138578782990121
499 0.007102132263165457 0.003563541741316346 -0.009715689771982979
431 0.020468013335982763 -0.011665531122497868 0.03277607934497576
260 -0.005383790369162123 0.010854324772807917 0.010941996649497968
500 -0.003792612503329795 -0.012524463633658004 -0.007173127779941189
495 -0.021646584474862608 -0.012923055852081202 0.02042920666241373
553 -0.000546697895413641 0.0030462570384122553 0.0013460774117157017
445 -0.0009363188921838744 -0.0027918053609240286 0.002924766298678371
25 -0.001130756887954134 0.0002668330053860933 -0.0012914107071237638
394 0.002488005233893768 0.005529749397113242 0.002391733333264454
444 -0.013103928290799486 0.012349397520529158 -0.0004979149113918894
307 -0.030636692255666224 0.012960222600182965 -0.04759435926248207
314 0.00031413050237493677 -0.001157848797129346 0.015218584674077985
104 -0.0036278517041032723 0.02246905477105143 -0.02110436653286495
155 0.004611023344266524 -0.0003178536190552502 -9.352664660537272e-05
35 0.006464823216925087 0.02636274621272673 -0.005365397032856865

Bonds

1 13 283 281
2 15 283 285
3 13 281 278
4 15 278 116
5 13 277 280
6 14 277 275
7 4 282 280
8 1 282 287
9 5 282 279
10 5 282 483
11 13 280 283
12 13 276 277
13 13 276 278
14 5 287 289
15 5 287 288
16 5 287 489
17 13 49 47
18 14 49 50
19 13 47 174
20 14 47 45
21 16 174 169
22 13 174 176
23 6 41 285
24 2 41 43
25 5 41 40
26 5 41 42
27 13 349 354
28 5 403 401
29 5 403 407
30 5 403 399
31 13 344 349
32 14 344 341
33 10 43 39
34 9 43 170
35 4 274 276
36 5 274 117
37 5 274 273
38 8 168 169
39 2 168 43
40 5 168 172
41 5 168 167
42 13 177 49
43 13 177 124
44 4 56 15
45 4 56 177
46 5 56 132
47 5 56 57
48 7 269 466
49 3 269 472
50 5 269 271
51 5 269 270
52 1 113 274
53 5 113 115
54 5 113 158
55 5 113 157
56 4 345 349
57 1 345 403
58 5 345 346
59 5 345 340
60 14 180 179
61 17 114 116
62 12 472 466
63 11 472 474
64 13 176 124
65 14 176 120
66 13 15 13
67 15 354 357
68 13 354 356
69 13 356 351
70 12 379 193
71 11 379 378
72 13 13 11
73 14 13 53
74 13 347 344
75 13 347 351
76 17 464 317
77 13 17 15
78 14 17 18
79 3 121 123
80 8 121 241
81 5 121 119
82 5 121 122
83 3 223 379
84 7 223 193
85 5 223 222
86 5 223 224
87 12 531 527
88 11 531 533
89 3 532 531
90 8 532 534
91 5 532 508
92 5 532 530
93 7 528 527
94 3 528 531
95 5 528 507
96 5 528 529
97 13 342 348
98 13 128 180
99 14 128 126
100 8 430 380
101 3 430 379
102 5 430 432
103 5 430 428
104 3 250 251
105 7 250 125
106 5 250 103
107 5 250 102
108 16 384 380
109 13 384 388
110 12 123 291
111 11 123 292
112 16 130 129
113 13 130 128
114 13 388 392
115 14 388 387
116 14 392 335
117 13 334 390
118 13 334 392
119 13 386 384
120 14 386 382
121 13 390 386
122 14 390 391
123 4 337 342
124 4 337 334
125 5 337 338
126 5 337 336
127 12 251 125
128 11 251 248
129 8 131 129
130 3 131 251
131 5 131 134
132 5 131 133
133 7 294 291
134 3 294 123
135 5 294 297
136 5 294 249
137 13 135 130
138 14 135 137
139 12 4 1
140 11 4 5
141 13 136 135
142 14 136 191
143 13 343 342
144 14 343 339
145 13 14 17
146 14 14 16
147 12 368 370
148 11 368 366
149 14 11 10
150 16 12 9
151 13 12 14
152 13 12 11
153 17 227 116
154 17 286 285
155 4 447 281
156 5 447 446
157 5 447 450
158 5 447 448
159 3 105 108
160 7 105 107
161 5 105 104
162 5 105 106
163 5 545 576
164 5 545 572
165 5 545 546
166 17 355 357
167 13 322 325
168 8 142 143
169 2 142 140
170 5 142 144
171 5 142 141
172 17 359 357
173 10 140 139
174 9 140 138
175 17 540 542
176 17 547 542
177 4 152 322
178 5 152 154
179 5 152 151
180 5 152 150
181 17 156 327
182 15 325 327
183 15 65 542
184 13 65 67
185 13 64 65
186 13 67 70
187 4 69 67
188 5 69 46
189 5 69 44
190 5 69 48
191 15 70 72
192 4 63 64
193 1 63 545
194 5 63 98
195 5 63 539
196 13 66 64
197 14 66 100
198 13 68 66
199 13 68 70
200 17 74 72
201 6 257 72
202 2 257 140
203 5 257 254
204 5 257 258
205 17 329 327
206 14 421 420
207 18 73 139
208 13 423 421
209 14 423 422
210 12 568 564
211 11 568 565
212 4 71 68
213 5 71 75
214 5 71 101
215 4 328 326
216 5 328 385
217 5 328 332
218 13 326 323
219 13 326 325
220 8 571 573
221 3 571 568
222 5 571 566
223 5 571 570
224 12 108 107
225 11 108 19
226 13 424 423
227 7 3 1
228 3 3 4
229 5 3 99
230 5 3 2
231 3 8 4
232 8 8 9
233 5 8 6
234 5 8 7
235 13 425 374
236 14 425 426
237 3 372 368
238 7 372 370
239 5 372 375
240 5 372 373
241 8 504 501
242 3 504 108
243 5 504 506
244 5 504 582
245 13 24 148
246 14 24 28
247 14 32 535
248 4 219 424
249 4 219 218
250 5 219 221
251 5 219 427
252 13 111 268
253 13 111 91
254 1 204 71
255 5 204 203
256 5 204 202
257 5 204 205
258 13 22 23
259 14 22 20
260 16 371 369
261 13 371 188
262 15 91 95
263 13 30 33
264 18 449 39
265 17 37 155
266 17 96 95
267 13 217 424
268 14 217 220
269 13 374 371
270 14 374 376
271 4 92 112
272 5 92 93
273 5 92 94
274 5 92 38
275 13 268 267
276 14 268 266
277 16 146 143
278 13 146 149
279 15 109 155
280 13 109 112
281 13 33 32
282 14 33 36
283 13 29 24
284 13 29 25
285 8 367 369
286 3 367 368
287 5 367 364
288 5 367 365
289 13 188 216
290 14 188 184
291 13 148 146
292 14 148 145
293 4 89 111
294 5 89 225
295 5 89 62
296 17 97 95
297 16 26 534
298 13 26 22
299 13 26 32
300 13 218 425
301 13 218 216
302 13 112 91
303 1 85 89
304 5 85 110
305 5 85 83
306 5 85 87
307 14 216 215
308 14 124 127
309 1 383 328
310 5 383 512
311 5 383 381
312 5 383 389
313 13 185 136
314 13 185 180
315 16 469 467
316 13 469 470
317 13 469 331
318 13 470 585
319 14 470 468
320 14 331 330
321 13 585 516
322 14 585 584
323 13 333 331
324 14 333 272
325 13 516 333
326 4 515 516
327 4 515 475
328 5 515 513
329 5 515 514
330 7 523 519
331 3 523 521
332 5 523 522
333 5 523 526
334 1 162 165
335 5 162 160
336 5 162 161
337 5 162 159
338 3 55 79
339 8 55 59
340 5 55 54
341 5 55 52
342 7 311 313
343 3 311 312
344 5 311 308
345 5 311 314
346 12 79 77
347 11 79 81
348 12 521 519
349 11 521 525
350 13 475 477
351 13 475 478
352 13 577 578
353 14 577 574
354 17 175 173
355 13 60 190
356 14 60 61
357 14 478 476
358 13 477 479
359 14 477 562
360 7 78 77
361 3 78 79
362 5 78 80
363 5 78 76
364 16 58 59
365 13 58 60
366 13 58 181
367 13 350 343
368 14 350 517
369 15 351 173
370 13 23 30
371 14 23 21
372 4 165 347
373 5 165 164
374 5 165 166
375 17 171 173
376 3 473 472
377 8 473 467
378 5 473 471
379 5 473 443
380 16 575 573
381 13 575 577
382 12 312 313
383 11 312 315
384 14 578 579
385 3 520 521
386 8 520 358
387 5 520 518
388 5 520 524
389 16 353 358
390 13 353 350
391 13 353 352
392 13 480 478
393 14 480 481
394 13 479 482
395 14 479 563
396 16 482 484
397 13 482 480
398 13 235 239
399 14 235 236
400 13 580 456
401 13 580 578
402 14 239 240
403 3 208 211
404 8 208 413
405 5 208 206
406 5 208 209
407 12 490 486
408 11 490 488
409 8 487 484
410 3 487 490
411 5 487 485
412 5 487 491
413 13 418 417
414 14 418 419
415 16 414 413
416 13 414 415
417 13 414 412
418 13 417 455
419 13 415 418
420 14 415 416
421 13 455 412
422 14 455 454
423 14 412 411
424 4 581 417
425 4 581 580
426 5 581 460
427 5 581 549
428 13 234 232
429 14 234 118
430 16 238 241
431 13 238 234
432 13 238 239
433 13 456 453
434 14 456 457
435 14 352 290
436 13 453 575
437 14 453 452
438 13 233 235
439 3 492 490
440 7 492 486
441 5 492 493
442 5 492 494
443 13 232 233
444 14 232 230
445 13 348 352
446 14 348 284
447 12 211 213
448 11 211 214
449 14 557 440
450 13 554 556
451 14 554 551
452 13 560 557
453 14 560 536
454 4 229 233
455 4 229 231
456 5 229 228
457 5 229 226
458 7 210 213
459 3 210 211
460 5 210 207
461 5 210 212
462 13 190 186
463 14 190 192
464 4 31 30
465 4 31 29
466 5 31 35
467 5 31 34
468 4 187 186
469 4 187 185
470 5 187 189
471 5 187 183
472 13 186 182
473 14 181 51
474 13 182 181
475 14 182 178
476 7 244 243
477 3 244 247
478 5 244 242
479 5 244 245
480 16 462 461
481 13 462 255
482 13 462 421
483 12 247 243
484 11 247 246
485 3 252 247
486 8 252 461
487 5 252 253
488 5 252 459
489 4 319 321
490 1 319 510
491 5 319 316
492 5 319 465
493 13 404 400
494 14 404 409
495 8 561 558
496 2 561 86
497 5 561 90
498 5 561 537
499 8 406 402
500 3 406 405
501 5 406 410
502 5 406 408
503 12 405 543
504 11 405 538
505 3 544 405
506 7 544 543
507 5 544 548
508 5 544 541
509 5 510 583
510 5 510 509
511 5 510 511
512 10 86 559
513 9 86 88
514 16 400 402
515 13 400 397
516 6 84 317
517 2 84 86
518 5 84 82
519 5 84 552
520 12 197 199
521 11 197 200
522 7 196 199
523 3 196 197
524 5 196 198
525 5 196 194
526 13 321 320
527 13 323 321
528 14 323 324
529 13 320 322
530 15 320 317
531 13 255 217
532 14 255 256
533 18 318 559
534 13 201 404
535 14 201 237
536 3 569 568
537 7 569 564
538 5 569 451
539 5 569 567
540 4 361 356
541 5 361 363
542 5 361 360
543 5 361 362
544 13 498 497
545 14 498 496
546 13 267 109
547 17 153 155
548 14 305 307
549 3 310 312
550 8 310 306
551 5 310 309
552 5 310 377
553 3 195 197
554 8 195 394
555 5 195 163
556 5 195 398
557 4 262 267
558 1 262 263
559 5 262 261
560 5 262 260
561 16 442 394
562 13 442 438
563 13 442 393
564 13 301 298
565 14 301 300
566 13 436 439
567 4 295 299
568 4 295 499
569 5 295 293
570 5 295 458
571 14 393 395
572 13 439 393
573 14 439 441
574 13 503 500
575 14 503 505
576 13 555 553
577 13 555 557
578 5 263 264
579 5 263 259
580 5 263 265
581 13 149 25
582 14 149 147
583 16 556 558
584 13 556 560
585 13 435 436
586 14 435 433
587 13 302 305
588 14 302 303
589 13 299 302
590 13 298 299
591 14 298 296
592 14 497 495
593 13 502 503
594 14 502 463
595 4 434 436
596 4 434 555
597 5 434 431
598 5 434 429
599 13 438 435
600 14 438 437
601 13 397 445
602 14 397 396
603 16 304 306
604 13 304 301
605 13 304 305
606 13 231 201
607 13 231 445
608 13 499 502
609 13 499 497
610 16 500 501
611 13 500 498
612 13 553 554
613 14 553 550
614 14 445 444
615 14 25 27

Angles

1 24 280 283 281
2 26 281 283 285
3 26 280 283 285
4 9 447 281 283
5 24 283 281 278
6 9 447 281 278
7 24 276 278 281
8 26 276 278 116
9 26 281 278 116
10 24 276 277 280
11 25 276 277 275
12 25 280 277 275
13 1 287 282 280
14 23 280 282 279
15 23 280 282 483
16 2 287 282 279
17 29 279 282 483
18 2 287 282 483
19 9 282 280 277
20 24 277 280 283
21 9 282 280 283
22 9 274 276 277
23 9 274 276 278
24 24 277 276 278
25 2 282 287 289
26 2 282 287 288
27 2 282 287 489
28 29 289 287 288
29 29 289 287 489
30 29 288 287 489
31 24 177 49 47
32 25 177 49 50
33 25 47 49 50
34 24 49 47 174
35 25 49 47 45
36 25 174 47 45
37 27 47 174 169
38 24 47 174 176
39 27 176 174 169
40 14 168 169 174
41 16 43 41 285
42 30 40 41 285
43 30 42 41 285
44 15 43 41 40
45 29 40 41 42
46 15 43 41 42
47 9 345 349 344
48 24 344 349 354
49 9 345 349 354
50 2 345 403 401
51 2 345 403 407
52 2 345 403 399
53 29 401 403 407
54 29 401 403 399
55 29 407 403 399
56 24 347 344 349
57 25 347 344 341
58 25 349 344 341
59 3 41 43 168
60 5 41 43 39
61 4 41 43 170
62 4 168 43 170
63 33 170 43 39
64 5 168 43 39
65 1 113 274 276
66 2 113 274 117
67 2 113 274 273
68 23 276 274 117
69 29 117 274 273
70 23 276 274 273
71 17 43 168 169
72 15 43 168 172
73 15 43 168 167
74 32 172 168 169
75 29 172 168 167
76 32 167 168 169
77 11 41 285 283
78 28 283 285 286
79 12 41 285 286
80 9 56 177 49
81 9 56 177 124
82 24 49 177 124
83 22 15 56 177
84 23 15 56 132
85 23 15 56 57
86 23 177 56 132
87 29 132 56 57
88 23 177 56 57
89 31 271 269 466
90 19 472 269 271
91 29 271 269 270
92 31 270 269 466
93 19 472 269 270
94 20 472 269 466
95 2 274 113 115
96 29 115 113 158
97 29 115 113 157
98 2 274 113 158
99 29 158 113 157
100 2 274 113 157
101 1 403 345 349
102 23 349 345 346
103 23 349 345 340
104 2 403 345 346
105 29 346 345 340
106 2 403 345 340
107 28 278 116 227
108 28 278 116 114
109 35 227 116 114
110 24 185 180 128
111 25 185 180 179
112 25 128 180 179
113 6 269 472 473
114 8 269 472 466
115 7 269 472 474
116 7 473 472 474
117 34 474 472 466
118 8 473 472 466
119 24 174 176 124
120 25 174 176 120
121 25 124 176 120
122 13 269 466 472
123 18 43 39 449
124 9 56 15 17
125 24 17 15 13
126 9 56 15 13
127 13 223 193 379
128 26 349 354 357
129 24 349 354 356
130 26 356 354 357
131 9 361 356 354
132 24 354 356 351
133 9 361 356 351
134 6 430 379 223
135 8 430 379 193
136 7 430 379 378
137 7 223 379 378
138 34 378 379 193
139 8 223 379 193
140 24 15 13 11
141 25 15 13 53
142 25 11 13 53
143 9 165 347 344
144 9 165 347 351
145 24 344 347 351
146 24 14 17 15
147 25 14 17 18
148 25 15 17 18
149 21 123 121 241
150 19 123 121 119
151 19 123 121 122
152 32 119 121 241
153 29 119 121 122
154 32 122 121 241
155 20 379 223 193
156 19 379 223 222
157 19 379 223 224
158 31 222 223 193
159 29 222 223 224
160 31 224 223 193
161 13 528 527 531
162 6 528 531 532
163 8 528 531 527
164 7 528 531 533
165 7 532 531 533
166 34 533 531 527
167 8 532 531 527
168 21 531 532 534
169 19 531 532 508
170 19 531 532 530
171 32 508 532 534
172 29 508 532 530
173 32 530 532 534
174 31 507 528 527
175 19 531 528 507
176 29 507 528 529
177 31 529 528 527
178 19 531 528 529
179 20 531 528 527
180 9 337 342 343
181 24 343 342 348
182 9 337 342 348
183 24 130 128 180
184 25 130 128 126
185 25 180 128 126
186 21 379 430 380
187 32 432 430 380
188 32 428 430 380
189 19 379 430 432
190 29 432 430 428
191 19 379 430 428
192 20 251 250 125
193 19 251 250 103
194 19 251 250 102
195 31 103 250 125
196 29 103 250 102
197 31 102 250 125
198 14 430 380 384
199 27 386 384 380
200 24 386 384 388
201 27 388 384 380
202 6 294 123 121
203 8 294 123 291
204 7 294 123 292
205 7 121 123 292
206 34 292 123 291
207 8 121 123 291
208 27 135 130 129
209 24 135 130 128
210 27 128 130 129
211 24 384 388 392
212 25 384 388 387
213 25 392 388 387
214 24 334 392 388
215 25 334 392 335
216 25 388 392 335
217 9 337 334 390
218 9 337 334 392
219 24 390 334 392
220 24 390 386 384
221 25 390 386 382
222 25 384 386 382
223 24 334 390 386
224 25 334 390 391
225 25 386 390 391
226 22 342 337 334
227 23 342 337 338
228 23 342 337 336
229 23 334 337 338
230 29 338 337 336
231 23 334 337 336
232 14 131 129 130
233 6 131 251 250
234 8 131 251 125
235 7 131 251 248
236 7 250 251 248
237 34 248 251 125
238 8 250 251 125
239 13 250 125 251
240 21 251 131 129
241 32 134 131 129
242 32 133 131 129
243 19 251 131 134
244 29 134 131 133
245 19 251 131 133
246 13 294 291 123
247 31 297 294 291
248 19 123 294 297
249 29 297 294 249
250 31 249 294 291
251 19 123 294 249
252 20 123 294 291
253 14 532 534 26
254 24 136 135 130
255 25 136 135 137
256 25 130 135 137
257 6 3 4 8
258 8 3 4 1
259 7 3 4 5
260 7 8 4 5
261 34 5 4 1
262 8 8 4 1
263 24 185 136 135
264 25 185 136 191
265 25 135 136 191
266 24 350 343 342
267 25 350 343 339
268 25 342 343 339
269 24 12 14 17
270 25 12 14 16
271 25 17 14 16
272 6 367 368 372
273 8 367 368 370
274 7 367 368 366
275 7 372 368 366
276 34 366 368 370
277 8 372 368 370
278 24 12 11 13
279 25 12 11 10
280 25 13 11 10
281 27 14 12 9
282 27 11 12 9
283 24 14 12 11
284 23 281 447 446
285 23 281 447 450
286 23 281 447 448
287 29 446 447 450
288 29 446 447 448
289 29 450 447 448
290 20 108 105 107
291 19 108 105 104
292 19 108 105 106
293 31 104 105 107
294 29 104 105 106
295 31 106 105 107
296 14 367 369 371
297 2 63 545 576
298 2 63 545 572
299 2 63 545 546
300 29 576 545 572
301 29 576 545 546
302 29 572 545 546
303 9 152 322 320
304 24 320 322 325
305 9 152 322 325
306 28 354 357 359
307 28 354 357 355
308 35 359 357 355
309 17 140 142 143
310 15 140 142 144
311 15 140 142 141
312 32 144 142 143
313 29 144 142 141
314 32 141 142 143
315 3 257 140 142
316 5 257 140 139
317 4 257 140 138
318 4 142 140 138
319 33 138 140 139
320 5 142 140 139
321 23 322 152 154
322 23 322 152 151
323 23 322 152 150
324 29 154 152 151
325 29 154 152 150
326 29 151 152 150
327 28 325 327 156
328 28 325 327 329
329 35 156 327 329
330 24 326 325 322
331 26 326 325 327
332 26 322 325 327
333 26 64 65 542
334 24 64 65 67
335 26 67 65 542
336 28 65 542 547
337 28 65 542 540
338 35 547 542 540
339 9 63 64 66
340 24 66 64 65
341 9 63 64 65
342 9 69 67 65
343 24 65 67 70
344 9 69 67 70
345 23 67 69 46
346 23 67 69 44
347 23 67 69 48
348 29 46 69 44
349 29 46 69 48
350 29 44 69 48
351 24 68 70 67
352 26 68 70 72
353 26 67 70 72
354 1 545 63 64
355 23 64 63 98
356 23 64 63 539
357 2 545 63 98
358 29 98 63 539
359 2 545 63 539
360 24 68 66 64
361 25 68 66 100
362 25 64 66 100
363 11 257 72 70
364 28 70 72 74
365 12 257 72 74
366 9 71 68 66
367 9 71 68 70
368 24 66 68 70
369 16 140 257 72
370 30 254 257 72
371 30 258 257 72
372 15 140 257 254
373 29 254 257 258
374 15 140 257 258
375 24 462 421 423
376 25 462 421 420
377 25 423 421 420
378 24 424 423 421
379 25 424 423 422
380 25 421 423 422
381 13 569 564 568
382 18 140 139 73
383 6 571 568 569
384 8 571 568 564
385 7 571 568 565
386 7 569 568 565
387 34 565 568 564
388 8 569 568 564
389 1 204 71 68
390 2 204 71 75
391 2 204 71 101
392 23 68 71 75
393 29 75 71 101
394 23 68 71 101
395 1 383 328 326
396 2 383 328 385
397 2 383 328 332
398 23 326 328 385
399 29 385 328 332
400 23 326 328 332
401 9 328 326 323
402 9 328 326 325
403 24 323 326 325
404 21 568 571 573
405 32 566 571 573
406 32 570 571 573
407 19 568 571 566
408 29 566 571 570
409 19 568 571 570
410 6 504 108 105
411 8 504 108 107
412 7 504 108 19
413 7 105 108 19
414 34 19 108 107
415 8 105 108 107
416 14 142 143 146
417 13 105 107 108
418 9 219 424 217
419 24 217 424 423
420 9 219 424 423
421 28 91 95 97
422 28 91 95 96
423 35 97 95 96
424 31 99 3 1
425 19 4 3 99
426 29 99 3 2
427 31 2 3 1
428 19 4 3 2
429 20 4 3 1
430 21 4 8 9
431 19 4 8 6
432 19 4 8 7
433 32 6 8 9
434 29 6 8 7
435 32 7 8 9
436 24 218 425 374
437 25 218 425 426
438 25 374 425 426
439 20 368 372 370
440 19 368 372 375
441 19 368 372 373
442 31 375 372 370
443 29 375 372 373
444 31 373 372 370
445 21 108 504 501
446 32 506 504 501
447 32 582 504 501
448 19 108 504 506
449 29 506 504 582
450 19 108 504 582
451 24 29 24 148
452 25 29 24 28
453 25 148 24 28
454 24 26 32 33
455 25 26 32 535
456 25 33 32 535
457 13 372 370 368
458 22 424 219 218
459 23 424 219 221
460 23 424 219 427
461 23 218 219 221
462 29 221 219 427
463 23 218 219 427
464 9 89 111 268
465 9 89 111 91
466 24 268 111 91
467 2 71 204 203
468 29 203 204 202
469 29 203 204 205
470 2 71 204 202
471 29 202 204 205
472 2 71 204 205
473 24 26 22 23
474 25 26 22 20
475 25 23 22 20
476 27 374 371 369
477 24 374 371 188
478 27 188 371 369
479 24 111 91 112
480 26 111 91 95
481 26 112 91 95
482 9 31 30 23
483 24 23 30 33
484 9 31 30 33
485 14 8 9 12
486 24 255 217 424
487 25 255 217 220
488 25 424 217 220
489 24 425 374 371
490 25 425 374 376
491 25 371 374 376
492 23 112 92 93
493 23 112 92 94
494 23 112 92 38
495 29 93 92 94
496 29 93 92 38
497 29 94 92 38
498 24 111 268 267
499 25 111 268 266
500 25 267 268 266
501 27 148 146 143
502 24 148 146 149
503 27 149 146 143
504 26 267 109 155
505 24 267 109 112
506 26 112 109 155
507 24 30 33 32
508 25 30 33 36
509 25 32 33 36
510 9 31 29 24
511 9 31 29 25
512 24 24 29 25
513 13 3 1 4
514 21 368 367 369
515 32 364 367 369
516 32 365 367 369
517 19 368 367 364
518 29 364 367 365
519 19 368 367 365
520 24 371 188 216
521 25 371 188 184
522 25 216 188 184
523 24 24 148 146
524 25 24 148 145
525 25 146 148 145
526 1 85 89 111
527 2 85 89 225
528 2 85 89 62
529 23 111 89 225
530 29 225 89 62
531 23 111 89 62
532 27 22 26 534
533 27 32 26 534
534 24 22 26 32
535 9 219 218 425
536 9 219 218 216
537 24 425 218 216
538 9 92 112 109
539 24 109 112 91
540 9 92 112 91
541 2 89 85 110
542 29 110 85 83
543 29 110 85 87
544 2 89 85 83
545 29 83 85 87
546 2 89 85 87
547 24 218 216 188
548 25 218 216 215
549 25 188 216 215
550 24 177 124 176
551 25 177 124 127
552 25 176 124 127
553 2 328 383 512
554 29 512 383 381
555 29 512 383 389
556 2 328 383 381
557 29 381 383 389
558 2 328 383 389
559 9 187 185 136
560 9 187 185 180
561 24 136 185 180
562 27 470 469 467
563 27 331 469 467
564 24 470 469 331
565 24 469 470 585
566 25 469 470 468
567 25 585 470 468
568 24 469 331 333
569 25 469 331 330
570 25 333 331 330
571 24 470 585 516
572 25 470 585 584
573 25 516 585 584
574 24 516 333 331
575 25 516 333 272
576 25 331 333 272
577 9 515 516 585
578 24 585 516 333
579 9 515 516 333
580 22 516 515 475
581 23 516 515 513
582 23 516 515 514
583 23 475 515 513
584 29 513 515 514
585 23 475 515 514
586 13 78 77 79
587 31 522 523 519
588 19 521 523 522
589 29 522 523 526
590 31 526 523 519
591 19 521 523 526
592 20 521 523 519
593 14 473 467 469
594 2 165 162 160
595 29 160 162 161
596 29 160 162 159
597 2 165 162 161
598 29 161 162 159
599 2 165 162 159
600 21 79 55 59
601 19 79 55 54
602 19 79 55 52
603 32 54 55 59
604 29 54 55 52
605 32 52 55 59
606 31 308 311 313
607 19 312 311 308
608 29 308 311 314
609 31 314 311 313
610 19 312 311 314
611 20 312 311 313
612 6 78 79 55
613 8 78 79 77
614 7 78 79 81
615 7 55 79 81
616 34 81 79 77
617 8 55 79 77
618 6 523 521 520
619 8 523 521 519
620 7 523 521 525
621 7 520 521 525
622 34 525 521 519
623 8 520 521 519
624 9 515 475 477
625 9 515 475 478
626 24 477 475 478
627 24 575 577 578
628 25 575 577 574
629 25 578 577 574
630 24 58 60 190
631 25 58 60 61
632 25 190 60 61
633 24 475 478 480
634 25 475 478 476
635 25 480 478 476
636 14 55 59 58
637 24 475 477 479
638 25 475 477 562
639 25 479 477 562
640 31 80 78 77
641 19 79 78 80
642 29 80 78 76
643 31 76 78 77
644 19 79 78 76
645 20 79 78 77
646 13 311 313 312
647 27 60 58 59
648 27 181 58 59
649 24 60 58 181
650 13 523 519 521
651 14 520 358 353
652 28 351 173 171
653 28 351 173 175
654 35 171 173 175
655 24 353 350 343
656 25 353 350 517
657 25 343 350 517
658 24 347 351 356
659 26 347 351 173
660 26 356 351 173
661 24 22 23 30
662 25 22 23 21
663 25 30 23 21
664 1 162 165 347
665 2 162 165 164
666 2 162 165 166
667 23 347 165 164
668 29 164 165 166
669 23 347 165 166
670 21 472 473 467
671 19 472 473 471
672 19 472 473 443
673 32 471 473 467
674 29 471 473 443
675 32 443 473 467
676 27 453 575 573
677 24 453 575 577
678 27 577 575 573
679 6 311 312 310
680 8 311 312 313
681 7 311 312 315
682 7 310 312 315
683 34 315 312 313
684 8 310 312 313
685 13 210 213 211
686 24 580 578 577
687 25 580 578 579
688 25 577 578 579
689 21 521 520 358
690 19 521 520 518
691 19 521 520 524
692 32 518 520 358
693 29 518 520 524
694 32 524 520 358
695 27 350 353 358
696 27 352 353 358
697 24 350 353 352
698 24 482 480 478
699 25 482 480 481
700 25 478 480 481
701 14 121 241 238
702 24 477 479 482
703 25 477 479 563
704 25 482 479 563
705 27 479 482 484
706 24 479 482 480
707 27 480 482 484
708 14 487 484 482
709 24 233 235 239
710 25 233 235 236
711 25 239 235 236
712 9 581 580 456
713 9 581 580 578
714 24 456 580 578
715 24 238 239 235
716 25 238 239 240
717 25 235 239 240
718 21 211 208 413
719 19 211 208 206
720 19 211 208 209
721 32 206 208 413
722 29 206 208 209
723 32 209 208 413
724 6 487 490 492
725 8 487 490 486
726 7 487 490 488
727 7 492 490 488
728 34 488 490 486
729 8 492 490 486
730 21 490 487 484
731 32 485 487 484
732 32 491 487 484
733 19 490 487 485
734 29 485 487 491
735 19 490 487 491
736 24 415 418 417
737 25 415 418 419
738 25 417 418 419
739 27 415 414 413
740 27 412 414 413
741 24 415 414 412
742 9 581 417 418
743 24 418 417 455
744 9 581 417 455
745 24 414 415 418
746 25 414 415 416
747 25 418 415 416
748 14 208 413 414
749 24 417 455 412
750 25 417 455 454
751 25 412 455 454
752 24 414 412 455
753 25 414 412 411
754 25 455 412 411
755 22 417 581 580
756 23 417 581 460
757 23 417 581 549
758 23 580 581 460
759 29 460 581 549
760 23 580 581 549
761 24 238 234 232
762 25 238 234 118
763 25 232 234 118
764 27 234 238 241
765 27 239 238 241
766 24 234 238 239
767 24 580 456 453
768 25 580 456 457
769 25 453 456 457
770 24 353 352 348
771 25 353 352 290
772 25 348 352 290
773 24 456 453 575
774 25 456 453 452
775 25 575 453 452
776 9 229 233 232
777 24 232 233 235
778 9 229 233 235
779 20 490 492 486
780 19 490 492 493
781 19 490 492 494
782 31 493 492 486
783 29 493 492 494
784 31 494 492 486
785 24 234 232 233
786 25 234 232 230
787 25 233 232 230
788 13 492 486 490
789 24 342 348 352
790 25 342 348 284
791 25 352 348 284
792 6 210 211 208
793 8 210 211 213
794 7 210 211 214
795 7 208 211 214
796 34 214 211 213
797 8 208 211 213
798 24 555 557 560
799 25 555 557 440
800 25 560 557 440
801 24 553 554 556
802 25 553 554 551
803 25 556 554 551
804 24 556 560 557
805 25 556 560 536
806 25 557 560 536
807 22 233 229 231
808 23 233 229 228
809 23 233 229 226
810 23 231 229 228
811 29 228 229 226
812 23 231 229 226
813 31 207 210 213
814 19 211 210 207
815 29 207 210 212
816 31 212 210 213
817 19 211 210 212
818 20 211 210 213
819 24 60 190 186
820 25 60 190 192
821 25 186 190 192
822 22 30 31 29
823 23 30 31 35
824 23 30 31 34
825 23 29 31 35
826 29 35 31 34
827 23 29 31 34
828 22 186 187 185
829 23 186 187 189
830 23 186 187 183
831 23 185 187 189
832 29 189 187 183
833 23 185 187 183
834 9 187 186 190
835 24 190 186 182
836 9 187 186 182
837 24 58 181 182
838 25 58 181 51
839 25 182 181 51
840 24 186 182 181
841 25 186 182 178
842 25 181 182 178
843 13 244 243 247
844 14 571 573 575
845 31 242 244 243
846 19 247 244 242
847 29 242 244 245
848 31 245 244 243
849 19 247 244 245
850 20 247 244 243
851 27 255 462 461
852 27 421 462 461
853 24 255 462 421
854 6 244 247 252
855 8 244 247 243
856 7 244 247 246
857 7 252 247 246
858 34 246 247 243
859 8 252 247 243
860 21 247 252 461
861 19 247 252 253
862 19 247 252 459
863 32 253 252 461
864 29 253 252 459
865 32 459 252 461
866 1 510 319 321
867 23 321 319 316
868 23 321 319 465
869 2 510 319 316
870 29 316 319 465
871 2 510 319 465
872 24 201 404 400
873 25 201 404 409
874 25 400 404 409
875 17 86 561 558
876 15 86 561 90
877 15 86 561 537
878 32 90 561 558
879 29 90 561 537
880 32 537 561 558
881 21 405 406 402
882 32 410 406 402
883 32 408 406 402
884 19 405 406 410
885 29 410 406 408
886 19 405 406 408
887 6 406 405 544
888 8 406 405 543
889 7 406 405 538
890 7 544 405 538
891 34 538 405 543
892 8 544 405 543
893 20 405 544 543
894 19 405 544 548
895 19 405 544 541
896 31 548 544 543
897 29 548 544 541
898 31 541 544 543
899 13 544 543 405
900 14 406 402 400
901 2 319 510 583
902 2 319 510 509
903 2 319 510 511
904 29 583 510 509
905 29 583 510 511
906 29 509 510 511
907 3 84 86 561
908 5 84 86 559
909 4 84 86 88
910 4 561 86 88
911 33 88 86 559
912 5 561 86 559
913 14 252 461 462
914 27 404 400 402
915 24 404 400 397
916 27 397 400 402
917 16 86 84 317
918 30 82 84 317
919 30 552 84 317
920 15 86 84 82
921 29 82 84 552
922 15 86 84 552
923 6 196 197 195
924 8 196 197 199
925 7 196 197 200
926 7 195 197 200
927 34 200 197 199
928 8 195 197 199
929 13 196 199 197
930 31 198 196 199
931 19 197 196 198
932 29 198 196 194
933 31 194 196 199
934 19 197 196 194
935 20 197 196 199
936 9 319 321 323
937 24 323 321 320
938 9 319 321 320
939 14 561 558 556
940 18 86 559 318
941 24 326 323 321
942 25 326 323 324
943 25 321 323 324
944 11 84 317 320
945 28 320 317 464
946 12 84 317 464
947 24 321 320 322
948 26 322 320 317
949 26 321 320 317
950 24 462 255 217
951 25 462 255 256
952 25 217 255 256
953 24 231 201 404
954 25 231 201 237
955 25 404 201 237
956 20 568 569 564
957 19 568 569 451
958 19 568 569 567
959 31 451 569 564
960 29 451 569 567
961 31 567 569 564
962 23 356 361 363
963 23 356 361 360
964 23 356 361 362
965 29 363 361 360
966 29 363 361 362
967 29 360 361 362
968 24 500 498 497
969 25 500 498 496
970 25 497 498 496
971 9 262 267 268
972 24 268 267 109
973 9 262 267 109
974 24 304 305 302
975 25 304 305 307
976 25 302 305 307
977 21 312 310 306
978 19 312 310 309
979 19 312 310 377
980 32 309 310 306
981 29 309 310 377
982 32 377 310 306
983 21 197 195 394
984 19 197 195 163
985 19 197 195 398
986 32 163 195 394
987 29 163 195 398
988 32 398 195 394
989 1 263 262 267
990 23 267 262 261
991 23 267 262 260
992 2 263 262 261
993 29 261 262 260
994 2 263 262 260
995 14 310 306 304
996 27 438 442 394
997 27 393 442 394
998 24 438 442 393
999 24 304 301 298
1000 25 304 301 300
1001 25 298 301 300
1002 9 434 436 435
1003 24 435 436 439
1004 9 434 436 439
1005 22 299 295 499
1006 23 299 295 293
1007 23 299 295 458
1008 23 499 295 293
1009 29 293 295 458
1010 23 499 295 458
1011 24 442 393 439
1012 25 442 393 395
1013 25 439 393 395
1014 24 436 439 393
1015 25 436 439 441
1016 25 393 439 441
1017 24 502 503 500
1018 25 502 503 505
1019 25 500 503 505
1020 9 434 555 553
1021 9 434 555 557
1022 24 553 555 557
1023 2 262 263 264
1024 2 262 263 259
1025 2 262 263 265
1026 29 264 263 259
1027 29 264 263 265
1028 29 259 263 265
1029 24 146 149 25
1030 25 146 149 147
1031 25 25 149 147
1032 27 554 556 558
1033 24 554 556 560
1034 27 560 556 558
1035 24 438 435 436
1036 25 438 435 433
1037 25 436 435 433
1038 24 299 302 305
1039 25 299 302 303
1040 25 305 302 303
1041 9 295 299 298
1042 24 298 299 302
1043 9 295 299 302
1044 24 301 298 299
1045 25 301 298 296
1046 25 299 298 296
1047 24 499 497 498
1048 25 499 497 495
1049 25 498 497 495
1050 24 499 502 503
1051 25 499 502 463
1052 25 503 502 463
1053 14 504 501 500
1054 22 436 434 555
1055 23 436 434 431
1056 23 436 434 429
1057 23 555 434 431
1058 29 431 434 429
1059 23 555 434 429
1060 24 442 438 435
1061 25 442 438 437
1062 25 435 438 437
1063 24 400 397 445
1064 25 400 397 396
1065 25 445 397 396
1066 27 301 304 306
1067 27 305 304 306
1068 24 301 304 305
1069 9 229 231 201
1070 9 229 231 445
1071 24 201 231 445
1072 9 295 499 502
1073 9 295 499 497
1074 24 502 499 497
1075 27 503 500 501
1076 24 503 500 498
1077 27 498 500 501
1078 24 555 553 554
1079 25 555 553 550
1080 25 554 553 550
1081 24 231 445 397
1082 25 231 445 444
1083 25 397 445 444
1084 24 29 25 149
1085 25 29 25 27
1086 25 149 25 27
1087 14 195 394 442
1088 28 109 155 153
1089 28 109 155 37
1090 35 153 155 37

Dihedrals

1 26 280 283 281 278
2 30 281 283 285 286
3 30 280 283 285 286
4 10 447 281 278 276
5 10 447 281 283 280
6 25 283 281 447 446
7 25 283 281 447 450
8 25 283 281 447 448
9 28 283 281 278 116
10 25 278 281 447 446
11 25 278 281 447 450
12 25 278 281 447 448
13 12 447 281 278 116
14 12 447 281 283 285
15 28 278 281 283 285
16 26 276 278 281 283
17 30 276 278 116 227
18 30 276 278 116 114
19 30 281 278 116 227
20 30 281 278 116 114
21 26 276 277 280 283
22 26 280 277 276 278
23 1 287 282 280 277
24 23 280 282 287 289
25 23 280 282 287 288
26 23 280 282 287 489
27 1 287 282 280 283
28 33 279 282 287 289
29 33 279 282 287 288
30 33 279 282 287 489
31 33 483 282 287 289
32 33 483 282 287 288
33 33 483 282 287 489
34 10 282 280 277 276
35 25 277 280 282 279
36 25 277 280 282 483
37 26 277 280 283 281
38 11 282 280 277 275
39 27 283 280 277 275
40 25 283 280 282 279
41 25 283 280 282 483
42 10 282 280 283 281
43 12 282 280 283 285
44 28 277 280 283 285
45 10 274 276 277 280
46 11 274 276 277 275
47 10 274 276 278 281
48 12 274 276 278 116
49 25 277 276 274 117
50 25 278 276 274 117
51 25 277 276 274 273
52 25 278 276 274 273
53 26 277 276 278 281
54 28 277 276 278 116
55 27 278 276 277 275
56 26 177 49 47 174
57 27 177 49 47 45
58 44 50 49 47 45
59 26 47 49 177 124
60 29 49 47 174 169
61 26 49 47 174 176
62 27 174 47 49 50
63 45 45 47 174 169
64 26 47 174 176 124
65 27 47 174 176 120
66 27 176 174 47 45
67 17 168 169 174 47
68 17 168 169 174 176
69 32 174 169 168 167
70 32 174 169 168 172
71 18 43 41 285 283
72 46 285 41 43 39
73 19 43 41 285 286
74 38 40 41 285 286
75 38 42 41 285 286
76 35 40 41 43 39
77 34 40 41 43 170
78 35 42 41 43 39
79 34 42 41 43 170
80 10 345 349 344 347
81 25 344 349 345 346
82 25 344 349 345 340
83 28 344 349 354 357
84 26 344 349 354 356
85 11 345 349 344 341
86 27 354 349 344 341
87 25 354 349 345 346
88 25 354 349 345 340
89 10 345 349 354 356
90 12 345 349 354 357
91 26 347 344 349 354
92 26 349 344 347 351
93 3 168 43 41 285
94 39 170 43 41 285
95 4 41 43 168 169
96 2 41 43 168 172
97 2 41 43 168 167
98 5 41 43 39 449
99 2 168 43 41 40
100 2 168 43 41 42
101 40 170 43 168 169
102 41 170 43 39 449
103 5 168 43 39 449
104 1 113 274 276 277
105 1 113 274 276 278
106 23 276 274 113 115
107 23 276 274 113 158
108 23 276 274 113 157
109 20 43 168 169 174
110 34 172 168 43 170
111 34 167 168 43 170
112 48 169 168 43 39
113 35 172 168 43 39
114 35 167 168 43 39
115 15 41 285 283 281
116 31 283 285 41 40
117 31 283 285 41 42
118 15 41 285 283 280
119 10 56 177 49 47
120 11 56 177 49 50
121 10 56 177 124 176
122 11 56 177 124 127
123 25 49 177 56 132
124 25 124 177 56 132
125 25 49 177 56 57
126 25 124 177 56 57
127 26 49 177 124 176
128 27 49 177 124 127
129 27 124 177 49 50
130 24 177 56 15 17
131 24 15 56 177 49
132 24 15 56 177 124
133 24 177 56 15 13
134 37 271 269 472 466
135 36 271 269 472 474
136 37 270 269 472 466
137 36 270 269 472 474
138 33 115 113 274 117
139 33 115 113 274 273
140 33 158 113 274 117
141 33 158 113 274 273
142 33 157 113 274 117
143 33 157 113 274 273
144 1 403 345 349 344
145 23 349 345 403 401
146 23 349 345 403 407
147 23 349 345 403 399
148 1 403 345 349 354
149 33 346 345 403 401
150 33 346 345 403 407
151 33 346 345 403 399
152 33 340 345 403 401
153 33 340 345 403 407
154 33 340 345 403 399
155 26 185 180 128 130
156 27 185 180 128 126
157 9 473 472 466 269
158 8 269 472 473 467
159 6 269 472 473 471
160 6 269 472 473 443
161 6 473 472 269 271
162 6 473 472 269 270
163 42 474 472 269 466
164 43 474 472 473 467
165 47 466 472 473 467
166 7 473 472 269 466
167 27 174 176 124 127
168 45 120 176 174 169
169 44 120 176 124 127
170 29 124 176 174 169
171 16 269 466 472 474
172 22 472 466 269 271
173 22 472 466 269 270
174 10 56 15 17 14
175 25 17 15 56 132
176 25 17 15 56 57
177 26 17 15 13 11
178 27 17 15 13 53
179 11 56 15 17 18
180 27 13 15 17 18
181 25 13 15 56 132
182 25 13 15 56 57
183 11 56 15 13 53
184 10 56 15 13 11
185 22 379 193 223 222
186 22 379 193 223 224
187 16 223 193 379 378
188 30 349 354 357 359
189 30 349 354 357 355
190 26 349 354 356 351
191 30 356 354 357 359
192 30 356 354 357 355
193 10 361 356 351 347
194 10 361 356 354 349
195 25 354 356 361 363
196 25 354 356 361 360
197 25 354 356 361 362
198 28 354 356 351 173
199 28 351 356 354 357
200 25 351 356 361 363
201 25 351 356 361 360
202 25 351 356 361 362
203 12 361 356 351 173
204 12 361 356 354 357
205 8 223 379 430 380
206 47 193 379 430 380
207 43 378 379 430 380
208 7 430 379 223 193
209 6 430 379 223 222
210 6 430 379 223 224
211 9 430 379 193 223
212 6 223 379 430 432
213 6 223 379 430 428
214 42 378 379 223 193
215 27 15 13 11 10
216 44 53 13 11 10
217 10 165 347 344 349
218 11 165 347 344 341
219 10 165 347 351 356
220 12 165 347 351 173
221 25 344 347 165 164
222 25 351 347 165 164
223 25 344 347 165 166
224 25 351 347 165 166
225 26 344 347 351 356
226 28 344 347 351 173
227 27 351 347 344 341
228 26 14 17 15 13
229 27 15 17 14 16
230 21 123 121 241 238
231 36 119 121 123 292
232 36 122 121 123 292
233 37 119 121 123 291
234 37 122 121 123 291
235 36 222 223 379 378
236 36 224 223 379 378
237 37 222 223 379 193
238 37 224 223 379 193
239 16 528 527 531 533
240 22 531 527 528 507
241 22 531 527 528 529
242 9 532 531 527 528
243 8 528 531 532 534
244 6 528 531 532 508
245 6 528 531 532 530
246 6 532 531 528 507
247 6 532 531 528 529
248 42 533 531 528 527
249 43 533 531 532 534
250 47 527 531 532 534
251 7 532 531 528 527
252 21 531 532 534 26
253 36 508 532 531 533
254 36 530 532 531 533
255 37 508 532 531 527
256 37 530 532 531 527
257 37 507 528 531 527
258 36 507 528 531 533
259 37 529 528 531 527
260 36 529 528 531 533
261 10 337 342 343 350
262 25 343 342 337 338
263 25 343 342 337 336
264 26 343 342 348 352
265 27 343 342 348 284
266 11 337 342 343 339
267 27 348 342 343 339
268 25 348 342 337 338
269 25 348 342 337 336
270 11 337 342 348 284
271 10 337 342 348 352
272 27 130 128 180 179
273 45 126 128 130 129
274 44 126 128 180 179
275 29 180 128 130 129
276 21 379 430 380 384
277 37 432 430 379 193
278 36 432 430 379 378
279 37 428 430 379 193
280 36 428 430 379 378
281 36 103 250 251 248
282 36 102 250 251 248
283 37 103 250 251 125
284 37 102 250 251 125
285 17 430 380 384 386
286 32 384 380 430 432
287 32 384 380 430 428
288 17 430 380 384 388
289 26 386 384 388 392
290 27 386 384 388 387
291 27 388 384 386 382
292 9 121 123 291 294
293 8 294 123 121 241
294 6 294 123 121 119
295 6 294 123 121 122
296 6 121 123 294 297
297 6 121 123 294 249
298 42 292 123 294 291
299 43 292 123 121 241
300 47 291 123 121 241
301 7 121 123 294 291
302 26 135 130 128 180
303 27 135 130 128 126
304 27 128 130 135 137
305 27 384 388 392 335
306 45 387 388 384 380
307 44 387 388 392 335
308 29 392 388 384 380
309 26 334 392 388 384
310 27 334 392 388 387
311 10 337 334 390 386
312 11 337 334 390 391
313 10 337 334 392 388
314 11 337 334 392 335
315 25 390 334 337 338
316 25 392 334 337 338
317 25 390 334 337 336
318 25 392 334 337 336
319 26 390 334 392 388
320 27 390 334 392 335
321 27 392 334 390 391
322 29 390 386 384 380
323 26 390 386 384 388
324 27 384 386 390 391
325 45 382 386 384 380
326 26 334 390 386 384
327 27 334 390 386 382
328 44 391 390 386 382
329 26 386 390 334 392
330 24 334 337 342 343
331 24 342 337 334 390
332 24 342 337 334 392
333 24 334 337 342 348
334 17 131 129 130 135
335 32 130 129 131 134
336 32 130 129 131 133
337 17 131 129 130 128
338 8 250 251 131 129
339 47 125 251 131 129
340 43 248 251 131 129
341 7 131 251 250 125
342 6 131 251 250 103
343 6 131 251 250 102
344 9 131 251 125 250
345 6 250 251 131 134
346 6 250 251 131 133
347 42 248 251 250 125
348 22 251 125 250 103
349 22 251 125 250 102
350 16 250 125 251 248
351 21 251 131 129 130
352 37 134 131 251 125
353 36 134 131 251 248
354 37 133 131 251 125
355 36 133 131 251 248
356 16 294 291 123 292
357 22 123 291 294 297
358 22 123 291 294 249
359 37 297 294 123 291
360 36 297 294 123 292
361 37 249 294 123 291
362 36 249 294 123 292
363 17 532 534 26 22
364 17 532 534 26 32
365 32 26 534 532 508
366 32 26 534 532 530
367 29 136 135 130 129
368 26 136 135 130 128
369 27 130 135 136 191
370 45 137 135 130 129
371 9 8 4 1 3
372 8 3 4 8 9
373 6 3 4 8 6
374 6 3 4 8 7
375 6 8 4 3 99
376 6 8 4 3 2
377 42 5 4 3 1
378 43 5 4 8 9
379 47 1 4 8 9
380 7 8 4 3 1
381 26 185 136 135 130
382 27 185 136 135 137
383 44 191 136 135 137
384 26 135 136 185 180
385 26 350 343 342 348
386 27 342 343 350 517
387 29 17 14 12 9
388 45 16 14 12 9
389 26 12 14 17 15
390 27 12 14 17 18
391 44 16 14 17 18
392 26 17 14 12 11
393 8 372 368 367 369
394 47 370 368 367 369
395 43 366 368 367 369
396 7 367 368 372 370
397 6 367 368 372 375
398 6 367 368 372 373
399 9 367 368 370 372
400 6 372 368 367 364
401 6 372 368 367 365
402 42 366 368 372 370
403 29 13 11 12 9
404 45 10 11 12 9
405 26 12 11 13 15
406 27 12 11 13 53
407 26 14 12 11 13
408 27 14 12 11 10
409 27 11 12 14 16
410 36 104 105 108 19
411 36 106 105 108 19
412 37 104 105 108 107
413 37 106 105 108 107
414 17 367 369 371 374
415 32 371 369 367 364
416 32 371 369 367 365
417 17 367 369 371 188
418 10 152 322 325 326
419 10 152 322 320 321
420 25 320 322 152 154
421 25 320 322 152 151
422 25 320 322 152 150
423 28 320 322 325 327
424 25 325 322 152 154
425 25 325 322 152 151
426 25 325 322 152 150
427 12 152 322 325 327
428 12 152 322 320 317
429 28 325 322 320 317
430 20 140 142 143 146
431 34 144 142 140 138
432 34 141 142 140 138
433 48 143 142 140 139
434 35 144 142 140 139
435 35 141 142 140 139
436 3 142 140 257 72
437 39 138 140 257 72
438 4 257 140 142 143
439 2 257 140 142 144
440 2 257 140 142 141
441 5 257 140 139 73
442 2 142 140 257 254
443 2 142 140 257 258
444 40 138 140 142 143
445 41 138 140 139 73
446 5 142 140 139 73
447 26 326 325 322 320
448 30 326 325 327 156
449 30 326 325 327 329
450 30 322 325 327 156
451 30 322 325 327 329
452 30 64 65 542 547
453 30 64 65 542 540
454 26 64 65 67 70
455 30 67 65 542 547
456 30 67 65 542 540
457 10 63 64 66 68
458 25 66 64 63 98
459 25 66 64 63 539
460 28 66 64 65 542
461 26 66 64 65 67
462 11 63 64 66 100
463 27 65 64 66 100
464 25 65 64 63 98
465 25 65 64 63 539
466 10 63 64 65 67
467 12 63 64 65 542
468 10 69 67 70 68
469 10 69 67 65 64
470 25 65 67 69 46
471 25 65 67 69 44
472 25 65 67 69 48
473 28 70 67 65 542
474 25 70 67 69 46
475 25 70 67 69 44
476 25 70 67 69 48
477 12 69 67 65 542
478 12 69 67 70 72
479 28 65 67 70 72
480 26 68 70 67 65
481 30 68 70 72 74
482 30 67 70 72 74
483 1 545 63 64 66
484 23 64 63 545 576
485 23 64 63 545 572
486 23 64 63 545 546
487 1 545 63 64 65
488 33 98 63 545 576
489 33 98 63 545 572
490 33 98 63 545 546
491 33 539 63 545 576
492 33 539 63 545 572
493 33 539 63 545 546
494 26 68 66 64 65
495 26 64 66 68 70
496 15 257 72 70 68
497 31 70 72 257 254
498 31 70 72 257 258
499 15 257 72 70 67
500 10 71 68 66 64
501 11 71 68 66 100
502 10 71 68 70 67
503 25 66 68 71 75
504 25 70 68 71 75
505 25 66 68 71 101
506 25 70 68 71 101
507 26 66 68 70 67
508 27 70 68 66 100
509 12 71 68 70 72
510 28 66 68 70 72
511 18 140 257 72 70
512 46 72 257 140 139
513 19 140 257 72 74
514 38 254 257 72 74
515 38 258 257 72 74
516 35 254 257 140 139
517 34 254 257 140 138
518 35 258 257 140 139
519 34 258 257 140 138
520 29 423 421 462 461
521 45 420 421 462 461
522 26 462 421 423 424
523 27 462 421 423 422
524 27 424 423 421 420
525 44 422 423 421 420
526 22 568 564 569 451
527 22 568 564 569 567
528 16 569 564 568 565
529 8 569 568 571 573
530 47 564 568 571 573
531 43 565 568 571 573
532 7 571 568 569 564
533 6 571 568 569 451
534 6 571 568 569 567
535 9 571 568 564 569
536 6 569 568 571 566
537 6 569 568 571 570
538 42 565 568 569 564
539 1 204 71 68 66
540 1 204 71 68 70
541 23 68 71 204 203
542 23 68 71 204 202
543 23 68 71 204 205
544 1 383 328 326 323
545 1 383 328 326 325
546 23 326 328 383 512
547 23 326 328 383 381
548 23 326 328 383 389
549 10 328 326 323 321
550 11 328 326 323 324
551 10 328 326 325 322
552 12 328 326 325 327
553 25 323 326 328 385
554 25 325 326 328 385
555 25 323 326 328 332
556 25 325 326 328 332
557 26 323 326 325 322
558 28 323 326 325 327
559 27 325 326 323 324
560 21 568 571 573 575
561 37 566 571 568 564
562 36 566 571 568 565
563 37 570 571 568 564
564 36 570 571 568 565
565 8 105 108 504 501
566 47 107 108 504 501
567 43 19 108 504 501
568 7 504 108 105 107
569 6 504 108 105 104
570 6 504 108 105 106
571 9 504 108 107 105
572 6 105 108 504 506
573 6 105 108 504 582
574 42 19 108 105 107
575 17 142 143 146 148
576 17 142 143 146 149
577 32 146 143 142 141
578 32 146 143 142 144
579 22 108 107 105 104
580 22 108 107 105 106
581 16 105 107 108 19
582 10 219 424 217 255
583 25 217 424 219 221
584 25 217 424 219 427
585 26 217 424 423 421
586 27 217 424 423 422
587 11 219 424 217 220
588 27 423 424 217 220
589 25 423 424 219 221
590 25 423 424 219 427
591 11 219 424 423 422
592 10 219 424 423 421
593 37 99 3 4 1
594 36 99 3 4 5
595 37 2 3 4 1
596 36 2 3 4 5
597 21 4 8 9 12
598 36 6 8 4 5
599 36 7 8 4 5
600 37 6 8 4 1
601 37 7 8 4 1
602 26 218 425 374 371
603 27 218 425 374 376
604 44 426 425 374 376
605 26 374 425 218 216
606 36 375 372 368 366
607 36 373 372 368 366
608 37 375 372 368 370
609 37 373 372 368 370
610 21 108 504 501 500
611 37 506 504 108 107
612 36 506 504 108 19
613 37 582 504 108 107
614 36 582 504 108 19
615 26 29 24 148 146
616 27 29 24 148 145
617 44 28 24 148 145
618 26 148 24 29 25
619 29 33 32 26 534
620 45 535 32 26 534
621 26 26 32 33 30
622 27 26 32 33 36
623 22 368 370 372 375
624 22 368 370 372 373
625 16 372 370 368 366
626 24 218 219 424 217
627 24 424 219 218 425
628 24 424 219 218 216
629 24 218 219 424 423
630 10 89 111 268 267
631 11 89 111 268 266
632 10 89 111 91 112
633 12 89 111 91 95
634 25 268 111 89 225
635 25 91 111 89 225
636 25 268 111 89 62
637 25 91 111 89 62
638 26 268 111 91 112
639 28 268 111 91 95
640 27 91 111 268 266
641 33 203 204 71 75
642 33 203 204 71 101
643 33 202 204 71 75
644 33 202 204 71 101
645 33 205 204 71 75
646 33 205 204 71 101
647 29 23 22 26 534
648 45 20 22 26 534
649 26 26 22 23 30
650 27 26 22 23 21
651 44 20 22 23 21
652 26 23 22 26 32
653 26 374 371 188 216
654 27 374 371 188 184
655 27 188 371 374 376
656 26 111 91 112 109
657 30 111 91 95 97
658 30 111 91 95 96
659 30 112 91 95 97
660 30 112 91 95 96
661 10 31 30 23 22
662 25 23 30 31 35
663 25 23 30 31 34
664 26 23 30 33 32
665 27 23 30 33 36
666 11 31 30 23 21
667 27 33 30 23 21
668 25 33 30 31 35
669 25 33 30 31 34
670 11 31 30 33 36
671 10 31 30 33 32
672 17 8 9 12 14
673 17 8 9 12 11
674 32 12 9 8 6
675 32 12 9 8 7
676 26 255 217 424 423
677 27 424 217 255 256
678 29 425 374 371 369
679 26 425 374 371 188
680 27 371 374 425 426
681 45 376 374 371 369
682 26 111 268 267 109
683 26 267 268 111 91
684 26 148 146 149 25
685 27 148 146 149 147
686 27 149 146 148 145
687 30 267 109 155 153
688 30 267 109 155 37
689 26 267 109 112 91
690 30 112 109 155 153
691 30 112 109 155 37
692 27 30 33 32 535
693 44 36 33 32 535
694 10 31 29 24 148
695 11 31 29 24 28
696 10 31 29 25 149
697 11 31 29 25 27
698 25 24 29 31 35
699 25 25 29 31 35
700 25 24 29 31 34
701 25 25 29 31 34
702 26 24 29 25 149
703 27 24 29 25 27
704 27 25 29 24 28
705 16 3 1 4 5
706 22 4 1 3 99
707 22 4 1 3 2
708 21 368 367 369 371
709 37 364 367 368 370
710 36 364 367 368 366
711 37 365 367 368 370
712 36 365 367 368 366
713 27 371 188 216 215
714 45 184 188 371 369
715 44 184 188 216 215
716 29 216 188 371 369
717 29 24 148 146 143
718 26 24 148 146 149
719 27 146 148 24 28
720 45 145 148 146 143
721 1 85 89 111 268
722 1 85 89 111 91
723 23 111 89 85 110
724 23 111 89 85 83
725 23 111 89 85 87
726 26 22 26 32 33
727 27 22 26 32 535
728 27 32 26 22 20
729 10 219 218 425 374
730 11 219 218 425 426
731 10 219 218 216 188
732 11 219 218 216 215
733 25 425 218 219 221
734 25 216 218 219 221
735 25 425 218 219 427
736 25 216 218 219 427
737 26 425 218 216 188
738 27 425 218 216 215
739 27 216 218 425 426
740 10 92 112 91 111
741 10 92 112 109 267
742 25 109 112 92 93
743 25 109 112 92 94
744 25 109 112 92 38
745 28 109 112 91 95
746 28 91 112 109 155
747 25 91 112 92 93
748 25 91 112 92 94
749 25 91 112 92 38
750 12 92 112 91 95
751 12 92 112 109 155
752 33 110 85 89 225
753 33 110 85 89 62
754 33 83 85 89 225
755 33 83 85 89 62
756 33 87 85 89 225
757 33 87 85 89 62
758 26 218 216 188 371
759 27 218 216 188 184
760 26 177 124 176 174
761 27 177 124 176 120
762 33 512 383 328 385
763 33 512 383 328 332
764 33 381 383 328 385
765 33 381 383 328 332
766 33 389 383 328 385
767 33 389 383 328 332
768 10 187 185 136 135
769 11 187 185 136 191
770 10 187 185 180 128
771 11 187 185 180 179
772 25 136 185 187 189
773 25 180 185 187 189
774 25 136 185 187 183
775 25 180 185 187 183
776 26 136 185 180 128
777 27 136 185 180 179
778 27 180 185 136 191
779 26 470 469 331 333
780 27 470 469 331 330
781 27 331 469 470 468
782 29 585 470 469 467
783 45 468 470 469 467
784 26 469 470 585 516
785 27 469 470 585 584
786 44 468 470 585 584
787 26 585 470 469 331
788 29 333 331 469 467
789 45 330 331 469 467
790 26 469 331 333 516
791 27 469 331 333 272
792 26 470 585 516 333
793 27 516 585 470 468
794 27 516 333 331 330
795 44 272 333 331 330
796 10 515 516 585 470
797 25 585 516 515 513
798 25 585 516 515 514
799 26 585 516 333 331
800 27 585 516 333 272
801 11 515 516 585 584
802 27 333 516 585 584
803 25 333 516 515 513
804 25 333 516 515 514
805 11 515 516 333 272
806 10 515 516 333 331
807 24 475 515 516 585
808 24 516 515 475 477
809 24 516 515 475 478
810 24 475 515 516 333
811 16 78 77 79 81
812 22 79 77 78 80
813 22 79 77 78 76
814 37 522 523 521 519
815 36 522 523 521 525
816 37 526 523 521 519
817 36 526 523 521 525
818 17 473 467 469 470
819 17 473 467 469 331
820 32 469 467 473 471
821 32 469 467 473 443
822 33 160 162 165 164
823 33 160 162 165 166
824 33 161 162 165 164
825 33 161 162 165 166
826 33 159 162 165 164
827 33 159 162 165 166
828 21 79 55 59 58
829 36 54 55 79 81
830 36 52 55 79 81
831 37 54 55 79 77
832 37 52 55 79 77
833 37 308 311 312 313
834 36 308 311 312 315
835 37 314 311 312 313
836 36 314 311 312 315
837 9 55 79 77 78
838 8 78 79 55 59
839 6 78 79 55 54
840 6 78 79 55 52
841 6 55 79 78 80
842 6 55 79 78 76
843 42 81 79 78 77
844 43 81 79 55 59
845 47 77 79 55 59
846 7 55 79 78 77
847 9 520 521 519 523
848 8 523 521 520 358
849 6 523 521 520 518
850 6 523 521 520 524
851 6 520 521 523 522
852 6 520 521 523 526
853 42 525 521 523 519
854 43 525 521 520 358
855 47 519 521 520 358
856 7 520 521 523 519
857 10 515 475 477 479
858 11 515 475 477 562
859 10 515 475 478 480
860 11 515 475 478 476
861 25 477 475 515 513
862 25 478 475 515 513
863 25 477 475 515 514
864 25 478 475 515 514
865 26 477 475 478 480
866 27 477 475 478 476
867 27 478 475 477 562
868 27 575 577 578 579
869 45 574 577 575 573
870 44 574 577 578 579
871 29 578 577 575 573
872 29 190 60 58 59
873 45 61 60 58 59
874 26 58 60 190 186
875 27 58 60 190 192
876 44 61 60 190 192
877 26 190 60 58 181
878 26 475 478 480 482
879 27 475 478 480 481
880 17 55 59 58 60
881 17 55 59 58 181
882 32 58 59 55 54
883 32 58 59 55 52
884 26 475 477 479 482
885 27 475 477 479 563
886 44 562 477 479 563
887 26 479 477 475 478
888 37 80 78 79 77
889 36 80 78 79 81
890 37 76 78 79 77
891 36 76 78 79 81
892 16 311 313 312 315
893 22 312 313 311 308
894 22 312 313 311 314
895 26 60 58 181 182
896 27 60 58 181 51
897 27 181 58 60 61
898 16 523 519 521 525
899 22 521 519 523 522
900 22 521 519 523 526
901 17 520 358 353 350
902 17 520 358 353 352
903 32 353 358 520 518
904 32 353 358 520 524
905 29 343 350 353 358
906 45 517 350 353 358
907 26 353 350 343 342
908 27 353 350 343 339
909 44 517 350 343 339
910 26 343 350 353 352
911 26 347 351 356 354
912 30 347 351 173 171
913 30 347 351 173 175
914 30 356 351 173 171
915 30 356 351 173 175
916 26 22 23 30 33
917 27 30 23 22 20
918 1 162 165 347 344
919 1 162 165 347 351
920 23 347 165 162 160
921 23 347 165 162 161
922 23 347 165 162 159
923 21 472 473 467 469
924 36 471 473 472 474
925 36 443 473 472 474
926 37 471 473 472 466
927 37 443 473 472 466
928 26 453 575 577 578
929 27 453 575 577 574
930 27 577 575 453 452
931 9 310 312 313 311
932 8 311 312 310 306
933 6 311 312 310 309
934 6 311 312 310 377
935 6 310 312 311 308
936 6 310 312 311 314
937 42 315 312 311 313
938 43 315 312 310 306
939 47 313 312 310 306
940 7 310 312 311 313
941 16 210 213 211 214
942 22 211 213 210 207
943 22 211 213 210 212
944 26 580 578 577 575
945 27 580 578 577 574
946 21 521 520 358 353
947 36 518 520 521 525
948 36 524 520 521 525
949 37 518 520 521 519
950 37 524 520 521 519
951 26 350 353 352 348
952 27 350 353 352 290
953 27 352 353 350 517
954 27 482 480 478 476
955 45 481 480 482 484
956 44 481 480 478 476
957 29 478 480 482 484
958 17 121 241 238 234
959 17 121 241 238 239
960 32 238 241 121 119
961 32 238 241 121 122
962 29 477 479 482 484
963 26 477 479 482 480
964 27 482 479 477 562
965 45 563 479 482 484
966 26 479 482 480 478
967 27 479 482 480 481
968 27 480 482 479 563
969 17 487 484 482 479
970 32 482 484 487 485
971 32 482 484 487 491
972 17 487 484 482 480
973 27 233 235 239 240
974 44 236 235 239 240
975 10 581 580 456 453
976 11 581 580 456 457
977 10 581 580 578 577
978 11 581 580 578 579
979 25 456 580 581 460
980 25 578 580 581 460
981 25 456 580 581 549
982 25 578 580 581 549
983 26 456 580 578 577
984 27 456 580 578 579
985 27 578 580 456 457
986 29 235 239 238 241
987 45 240 239 238 241
988 26 238 239 235 233
989 27 238 239 235 236
990 21 211 208 413 414
991 36 206 208 211 214
992 36 209 208 211 214
993 37 206 208 211 213
994 37 209 208 211 213
995 8 492 490 487 484
996 47 486 490 487 484
997 43 488 490 487 484
998 7 487 490 492 486
999 6 487 490 492 493
1000 6 487 490 492 494
1001 9 487 490 486 492
1002 6 492 490 487 485
1003 6 492 490 487 491
1004 42 488 490 492 486
1005 21 490 487 484 482
1006 37 485 487 490 486
1007 36 485 487 490 488
1008 37 491 487 490 486
1009 36 491 487 490 488
1010 26 415 418 417 455
1011 27 417 418 415 416
1012 26 415 414 412 455
1013 27 415 414 412 411
1014 27 412 414 415 416
1015 10 581 417 418 415
1016 25 418 417 581 460
1017 25 418 417 581 549
1018 26 418 417 455 412
1019 27 418 417 455 454
1020 11 581 417 418 419
1021 27 455 417 418 419
1022 25 455 417 581 460
1023 25 455 417 581 549
1024 11 581 417 455 454
1025 10 581 417 455 412
1026 29 418 415 414 413
1027 45 416 415 414 413
1028 26 414 415 418 417
1029 27 414 415 418 419
1030 44 416 415 418 419
1031 26 418 415 414 412
1032 17 208 413 414 415
1033 17 208 413 414 412
1034 32 414 413 208 206
1035 32 414 413 208 209
1036 27 417 455 412 411
1037 44 454 455 412 411
1038 29 455 412 414 413
1039 45 411 412 414 413
1040 26 414 412 455 417
1041 27 414 412 455 454
1042 24 580 581 417 418
1043 24 417 581 580 456
1044 24 417 581 580 578
1045 24 580 581 417 455
1046 29 232 234 238 241
1047 45 118 234 238 241
1048 26 238 234 232 233
1049 27 238 234 232 230
1050 44 118 234 232 230
1051 26 232 234 238 239
1052 26 234 238 239 235
1053 27 234 238 239 240
1054 27 239 238 234 118
1055 26 580 456 453 575
1056 27 580 456 453 452
1057 44 457 456 453 452
1058 26 453 456 580 578
1059 29 348 352 353 358
1060 45 290 352 353 358
1061 26 353 352 348 342
1062 27 353 352 348 284
1063 29 456 453 575 573
1064 26 456 453 575 577
1065 27 575 453 456 457
1066 45 452 453 575 573
1067 10 229 233 232 234
1068 25 232 233 229 228
1069 25 232 233 229 226
1070 26 232 233 235 239
1071 27 232 233 235 236
1072 11 229 233 232 230
1073 27 235 233 232 230
1074 25 235 233 229 228
1075 25 235 233 229 226
1076 11 229 233 235 236
1077 10 229 233 235 239
1078 36 493 492 490 488
1079 36 494 492 490 488
1080 37 493 492 490 486
1081 37 494 492 490 486
1082 26 234 232 233 235
1083 27 233 232 234 118
1084 22 490 486 492 493
1085 22 490 486 492 494
1086 16 492 486 490 488
1087 27 342 348 352 290
1088 44 284 348 352 290
1089 9 208 211 213 210
1090 8 210 211 208 413
1091 6 210 211 208 206
1092 6 210 211 208 209
1093 6 208 211 210 207
1094 6 208 211 210 212
1095 42 214 211 210 213
1096 43 214 211 208 413
1097 47 213 211 208 413
1098 7 208 211 210 213
1099 26 555 557 560 556
1100 27 555 557 560 536
1101 29 553 554 556 558
1102 26 553 554 556 560
1103 27 556 554 553 550
1104 45 551 554 556 558
1105 27 556 560 557 440
1106 45 536 560 556 558
1107 44 536 560 557 440
1108 29 557 560 556 558
1109 24 231 229 233 232
1110 24 233 229 231 201
1111 24 233 229 231 445
1112 24 231 229 233 235
1113 37 207 210 211 213
1114 36 207 210 211 214
1115 37 212 210 211 213
1116 36 212 210 211 214
1117 26 60 190 186 182
1118 27 186 190 60 61
1119 24 29 31 30 23
1120 24 30 31 29 24
1121 24 30 31 29 25
1122 24 29 31 30 33
1123 24 185 187 186 190
1124 24 186 187 185 136
1125 24 186 187 185 180
1126 24 185 187 186 182
1127 10 187 186 190 60
1128 25 190 186 187 189
1129 25 190 186 187 183
1130 26 190 186 182 181
1131 27 190 186 182 178
1132 11 187 186 190 192
1133 27 182 186 190 192
1134 25 182 186 187 189
1135 25 182 186 187 183
1136 11 187 186 182 178
1137 10 187 186 182 181
1138 29 182 181 58 59
1139 45 51 181 58 59
1140 26 58 181 182 186
1141 27 58 181 182 178
1142 27 186 182 181 51
1143 44 178 182 181 51
1144 16 244 243 247 246
1145 22 247 243 244 242
1146 22 247 243 244 245
1147 17 571 573 575 453
1148 32 575 573 571 566
1149 32 575 573 571 570
1150 17 571 573 575 577
1151 37 242 244 247 243
1152 36 242 244 247 246
1153 37 245 244 247 243
1154 36 245 244 247 246
1155 26 255 462 421 423
1156 27 255 462 421 420
1157 27 421 462 255 256
1158 9 252 247 243 244
1159 8 244 247 252 461
1160 6 244 247 252 253
1161 6 244 247 252 459
1162 6 252 247 244 242
1163 6 252 247 244 245
1164 42 246 247 244 243
1165 43 246 247 252 461
1166 47 243 247 252 461
1167 7 252 247 244 243
1168 21 247 252 461 462
1169 36 253 252 247 246
1170 36 459 252 247 246
1171 37 253 252 247 243
1172 37 459 252 247 243
1173 1 510 319 321 323
1174 23 321 319 510 583
1175 23 321 319 510 509
1176 23 321 319 510 511
1177 1 510 319 321 320
1178 33 316 319 510 583
1179 33 316 319 510 509
1180 33 316 319 510 511
1181 33 465 319 510 583
1182 33 465 319 510 509
1183 33 465 319 510 511
1184 29 201 404 400 402
1185 26 201 404 400 397
1186 27 400 404 201 237
1187 45 409 404 400 402
1188 20 86 561 558 556
1189 34 90 561 86 88
1190 34 537 561 86 88
1191 48 558 561 86 559
1192 35 90 561 86 559
1193 35 537 561 86 559
1194 21 405 406 402 400
1195 37 410 406 405 543
1196 36 410 406 405 538
1197 37 408 406 405 543
1198 36 408 406 405 538
1199 8 544 405 406 402
1200 47 543 405 406 402
1201 43 538 405 406 402
1202 7 406 405 544 543
1203 6 406 405 544 548
1204 6 406 405 544 541
1205 9 406 405 543 544
1206 6 544 405 406 410
1207 6 544 405 406 408
1208 42 538 405 544 543
1209 36 548 544 405 538
1210 36 541 544 405 538
1211 37 548 544 405 543
1212 37 541 544 405 543
1213 22 405 543 544 548
1214 22 405 543 544 541
1215 16 544 543 405 538
1216 17 406 402 400 404
1217 32 400 402 406 410
1218 32 400 402 406 408
1219 17 406 402 400 397
1220 3 561 86 84 317
1221 39 88 86 84 317
1222 4 84 86 561 558
1223 2 84 86 561 90
1224 2 84 86 561 537
1225 5 84 86 559 318
1226 2 561 86 84 82
1227 2 561 86 84 552
1228 40 88 86 561 558
1229 41 88 86 559 318
1230 5 561 86 559 318
1231 17 252 461 462 255
1232 17 252 461 462 421
1233 32 462 461 252 253
1234 32 462 461 252 459
1235 26 404 400 397 445
1236 27 404 400 397 396
1237 27 397 400 404 409
1238 18 86 84 317 320
1239 46 317 84 86 559
1240 19 86 84 317 464
1241 38 82 84 317 464
1242 38 552 84 317 464
1243 35 82 84 86 559
1244 34 82 84 86 88
1245 35 552 84 86 559
1246 34 552 84 86 88
1247 9 195 197 199 196
1248 8 196 197 195 394
1249 6 196 197 195 163
1250 6 196 197 195 398
1251 6 195 197 196 198
1252 6 195 197 196 194
1253 42 200 197 196 199
1254 43 200 197 195 394
1255 47 199 197 195 394
1256 7 195 197 196 199
1257 16 196 199 197 200
1258 22 197 199 196 198
1259 22 197 199 196 194
1260 37 198 196 197 199
1261 36 198 196 197 200
1262 37 194 196 197 199
1263 36 194 196 197 200
1264 10 319 321 323 326
1265 25 323 321 319 316
1266 25 323 321 319 465
1267 26 323 321 320 322
1268 11 319 321 323 324
1269 27 320 321 323 324
1270 25 320 321 319 316
1271 25 320 321 319 465
1272 10 319 321 320 322
1273 12 319 321 320 317
1274 28 323 321 320 317
1275 17 561 558 556 554
1276 17 561 558 556 560
1277 32 556 558 561 537
1278 32 556 558 561 90
1279 26 326 323 321 320
1280 26 321 323 326 325
1281 15 84 317 320 322
1282 31 320 317 84 82
1283 31 320 317 84 552
1284 15 84 317 320 321
1285 26 321 320 322 325
1286 30 322 320 317 464
1287 30 321 320 317 464
1288 29 217 255 462 461
1289 45 256 255 462 461
1290 26 462 255 217 424
1291 27 462 255 217 220
1292 44 256 255 217 220
1293 26 217 255 462 421
1294 26 231 201 404 400
1295 27 231 201 404 409
1296 44 237 201 404 409
1297 26 404 201 231 445
1298 36 451 569 568 565
1299 36 567 569 568 565
1300 37 451 569 568 564
1301 37 567 569 568 564
1302 27 500 498 497 495
1303 45 496 498 500 501
1304 44 496 498 497 495
1305 29 497 498 500 501
1306 10 262 267 268 111
1307 25 268 267 262 261
1308 25 268 267 262 260
1309 28 268 267 109 155
1310 26 268 267 109 112
1311 11 262 267 268 266
1312 27 109 267 268 266
1313 25 109 267 262 261
1314 25 109 267 262 260
1315 10 262 267 109 112
1316 12 262 267 109 155
1317 29 302 305 304 306
1318 45 307 305 304 306
1319 26 304 305 302 299
1320 27 304 305 302 303
1321 21 312 310 306 304
1322 36 309 310 312 315
1323 36 377 310 312 315
1324 37 309 310 312 313
1325 37 377 310 312 313
1326 21 197 195 394 442
1327 36 163 195 197 200
1328 36 398 195 197 200
1329 37 163 195 197 199
1330 37 398 195 197 199
1331 1 263 262 267 268
1332 23 267 262 263 264
1333 23 267 262 263 259
1334 23 267 262 263 265
1335 1 263 262 267 109
1336 33 261 262 263 264
1337 33 261 262 263 259
1338 33 261 262 263 265
1339 33 260 262 263 264
1340 33 260 262 263 259
1341 33 260 262 263 265
1342 17 310 306 304 301
1343 17 310 306 304 305
1344 32 304 306 310 309
1345 32 304 306 310 377
1346 26 438 442 393 439
1347 27 438 442 393 395
1348 27 393 442 438 437
1349 29 298 301 304 306
1350 45 300 301 304 306
1351 26 304 301 298 299
1352 27 304 301 298 296
1353 44 300 301 298 296
1354 26 298 301 304 305
1355 10 434 436 435 438
1356 25 435 436 434 431
1357 25 435 436 434 429
1358 26 435 436 439 393
1359 27 435 436 439 441
1360 11 434 436 435 433
1361 27 439 436 435 433
1362 25 439 436 434 431
1363 25 439 436 434 429
1364 11 434 436 439 441
1365 10 434 436 439 393
1366 24 499 295 299 298
1367 24 299 295 499 502
1368 24 299 295 499 497
1369 24 499 295 299 302
1370 29 439 393 442 394
1371 45 395 393 442 394
1372 26 442 393 439 436
1373 27 442 393 439 441
1374 27 436 439 393 395
1375 44 441 439 393 395
1376 29 502 503 500 501
1377 26 502 503 500 498
1378 27 500 503 502 463
1379 45 505 503 500 501
1380 10 434 555 553 554
1381 11 434 555 553 550
1382 10 434 555 557 560
1383 11 434 555 557 440
1384 25 553 555 434 431
1385 25 557 555 434 431
1386 25 553 555 434 429
1387 25 557 555 434 429
1388 26 553 555 557 560
1389 27 553 555 557 440
1390 27 557 555 553 550
1391 27 146 149 25 27
1392 45 147 149 146 143
1393 44 147 149 25 27
1394 29 25 149 146 143
1395 26 554 556 560 557
1396 27 554 556 560 536
1397 27 560 556 554 551
1398 26 438 435 436 439
1399 27 436 435 438 437
1400 27 299 302 305 307
1401 44 303 302 305 307
1402 10 295 299 298 301
1403 25 298 299 295 293
1404 25 298 299 295 458
1405 26 298 299 302 305
1406 27 298 299 302 303
1407 11 295 299 298 296
1408 27 302 299 298 296
1409 25 302 299 295 293
1410 25 302 299 295 458
1411 11 295 299 302 303
1412 10 295 299 302 305
1413 26 301 298 299 302
1414 27 299 298 301 300
1415 26 499 497 498 500
1416 27 499 497 498 496
1417 26 499 502 503 500
1418 27 499 502 503 505
1419 44 463 502 503 505
1420 26 503 502 499 497
1421 17 504 501 500 503
1422 32 500 501 504 506
1423 32 500 501 504 582
1424 17 504 501 500 498
1425 24 555 434 436 435
1426 24 436 434 555 553
1427 24 436 434 555 557
1428 24 555 434 436 439
1429 29 435 438 442 394
1430 45 437 438 442 394
1431 26 442 438 435 436
1432 27 442 438 435 433
1433 44 437 438 435 433
1434 26 435 438 442 393
1435 27 400 397 445 444
1436 45 396 397 400 402
1437 44 396 397 445 444
1438 29 445 397 400 402
1439 26 301 304 305 302
1440 27 301 304 305 307
1441 27 305 304 301 300
1442 10 229 231 201 404
1443 11 229 231 201 237
1444 10 229 231 445 397
1445 11 229 231 445 444
1446 25 201 231 229 228
1447 25 445 231 229 228
1448 25 201 231 229 226
1449 25 445 231 229 226
1450 26 201 231 445 397
1451 27 201 231 445 444
1452 27 445 231 201 237
1453 10 295 499 502 503
1454 11 295 499 502 463
1455 10 295 499 497 498
1456 11 295 499 497 495
1457 25 502 499 295 293
1458 25 497 499 295 293
1459 25 502 499 295 458
1460 25 497 499 295 458
1461 26 502 499 497 498
1462 27 502 499 497 495
1463 27 497 499 502 463
1464 26 503 500 498 497
1465 27 503 500 498 496
1466 27 498 500 503 505
1467 26 555 553 554 556
1468 27 555 553 554 551
1469 44 550 553 554 551
1470 26 554 553 555 557
1471 26 231 445 397 400
1472 27 231 445 397 396
1473 26 29 25 149 146
1474 27 29 25 149 147
1475 17 195 394 442 438
1476 17 195 394 442 393
1477 32 442 394 195 163
1478 32 442 394 195 398

Impropers

1 26 280 283 281 285
2 24 447 281 278 283
3 26 276 278 281 116
4 25 276 277 280 275
5 2 287 282 279 280
6 2 287 282 483 280
7 13 280 282 279 483
8 3 287 282 279 483
9 24 282 280 283 277
10 24 274 276 277 278
11 3 282 287 289 288
12 3 282 287 289 489
13 3 282 287 288 489
14 14 289 287 288 489
15 25 177 49 47 50
16 25 49 47 174 45
17 27 176 174 47 169
18 5 43 41 40 285
19 5 43 41 42 285
20 15 40 41 42 285
21 4 43 41 40 42
22 24 345 349 354 344
23 3 345 403 401 407
24 3 345 403 401 399
25 3 345 403 407 399
26 14 401 403 407 399
27 25 347 344 349 341
28 19 41 43 168 39
29 18 41 43 168 170
30 20 41 43 39 170
31 20 168 43 39 170
32 1 113 274 276 117
33 1 113 274 276 273
34 3 113 274 117 273
35 13 276 274 117 273
36 6 43 168 169 172
37 6 43 168 169 167
38 4 43 168 172 167
39 17 172 168 167 169
40 29 41 285 286 283
41 24 56 177 49 124
42 12 15 56 177 132
43 12 15 56 177 57
44 13 15 56 132 57
45 13 177 56 132 57
46 8 472 269 271 466
47 8 472 269 270 466
48 16 271 269 270 466
49 7 472 269 271 270
50 3 274 113 115 158
51 3 274 113 115 157
52 3 274 113 158 157
53 14 115 113 158 157
54 2 403 345 346 349
55 2 403 345 340 349
56 13 349 345 346 340
57 3 403 345 346 340
58 30 278 116 227 114
59 25 128 180 185 179
60 22 269 472 473 466
61 21 269 472 473 474
62 23 269 472 466 474
63 23 473 472 466 474
64 25 174 176 124 120
65 24 56 15 13 17
66 26 356 354 349 357
67 24 361 356 351 354
68 22 430 379 223 193
69 21 430 379 223 378
70 23 430 379 193 378
71 23 223 379 193 378
72 25 15 13 11 53
73 24 165 347 344 351
74 25 14 17 15 18
75 11 123 121 241 119
76 11 123 121 241 122
77 7 123 121 119 122
78 17 119 121 122 241
79 10 379 223 193 222
80 10 379 223 193 224
81 7 379 223 222 224
82 16 222 223 224 193
83 22 528 531 532 527
84 21 528 531 532 533
85 23 528 531 527 533
86 23 532 531 527 533
87 11 531 532 534 508
88 11 531 532 534 530
89 7 531 532 508 530
90 17 508 532 530 534
91 8 531 528 507 527
92 8 531 528 529 527
93 16 507 528 529 527
94 7 531 528 507 529
95 24 337 342 348 343
96 25 130 128 180 126
97 9 379 430 432 380
98 9 379 430 428 380
99 17 432 430 428 380
100 7 379 430 432 428
101 10 251 250 125 103
102 10 251 250 125 102
103 7 251 250 103 102
104 16 103 250 102 125
105 27 388 384 386 380
106 22 294 123 121 291
107 21 294 123 121 292
108 23 294 123 291 292
109 23 121 123 291 292
110 27 128 130 135 129
111 25 384 388 392 387
112 25 388 392 334 335
113 24 337 334 390 392
114 25 390 386 384 382
115 25 334 390 386 391
116 12 342 337 334 338
117 12 342 337 334 336
118 13 342 337 338 336
119 13 334 337 338 336
120 22 131 251 250 125
121 21 131 251 250 248
122 23 131 251 125 248
123 23 250 251 125 248
124 9 251 131 134 129
125 9 251 131 133 129
126 17 134 131 133 129
127 7 251 131 134 133
128 8 123 294 297 291
129 8 123 294 249 291
130 16 297 294 249 291
131 7 123 294 297 249
132 25 136 135 130 137
133 22 3 4 8 1
134 21 3 4 8 5
135 23 3 4 1 5
136 23 8 4 1 5
137 25 185 136 135 191
138 25 350 343 342 339
139 25 12 14 17 16
140 22 367 368 372 370
141 21 367 368 372 366
142 23 367 368 370 366
143 23 372 368 370 366
144 25 13 11 12 10
145 27 14 12 11 9
146 13 281 447 446 450
147 13 281 447 446 448
148 13 281 447 450 448
149 14 446 447 450 448
150 10 108 105 107 104
151 10 108 105 107 106
152 7 108 105 104 106
153 16 104 105 106 107
154 3 63 545 576 572
155 3 63 545 576 546
156 3 63 545 572 546
157 14 576 545 572 546
158 24 152 322 325 320
159 30 354 357 359 355
160 6 140 142 143 144
161 6 140 142 143 141
162 4 140 142 144 141
163 17 144 142 141 143
164 19 257 140 142 139
165 18 257 140 142 138
166 20 257 140 139 138
167 20 142 140 139 138
168 13 322 152 154 151
169 13 322 152 154 150
170 13 322 152 151 150
171 14 154 152 151 150
172 30 325 327 156 329
173 26 326 325 322 327
174 26 67 65 64 542
175 30 65 542 547 540
176 24 63 64 65 66
177 24 69 67 70 65
178 13 67 69 46 44
179 13 67 69 46 48
180 13 67 69 44 48
181 14 46 69 44 48
182 26 67 70 68 72
183 2 545 63 98 64
184 2 545 63 539 64
185 13 64 63 98 539
186 3 545 63 98 539
187 25 68 66 64 100
188 29 257 72 74 70
189 24 71 68 66 70
190 5 140 257 254 72
191 5 140 257 258 72
192 15 254 257 258 72
193 4 140 257 254 258
194 25 423 421 462 420
195 25 424 423 421 422
196 22 571 568 569 564
197 21 571 568 569 565
198 23 571 568 564 565
199 23 569 568 564 565
200 1 204 71 68 75
201 1 204 71 68 101
202 3 204 71 75 101
203 13 68 71 75 101
204 1 383 328 326 385
205 1 383 328 326 332
206 3 383 328 385 332
207 13 326 328 385 332
208 24 328 326 323 325
209 9 568 571 566 573
210 9 568 571 570 573
211 17 566 571 570 573
212 7 568 571 566 570
213 22 504 108 105 107
214 21 504 108 105 19
215 23 504 108 107 19
216 23 105 108 107 19
217 24 219 424 423 217
218 30 91 95 97 96
219 8 4 3 99 1
220 8 4 3 2 1
221 16 99 3 2 1
222 7 4 3 99 2
223 11 4 8 9 6
224 11 4 8 9 7
225 7 4 8 6 7
226 17 6 8 7 9
227 25 218 425 374 426
228 10 368 372 370 375
229 10 368 372 370 373
230 7 368 372 375 373
231 16 375 372 373 370
232 9 108 504 506 501
233 9 108 504 582 501
234 17 506 504 582 501
235 7 108 504 506 582
236 25 29 24 148 28
237 25 33 32 26 535
238 12 424 219 218 221
239 12 424 219 218 427
240 13 424 219 221 427
241 13 218 219 221 427
242 24 89 111 268 91
243 3 71 204 203 202
244 3 71 204 203 205
245 3 71 204 202 205
246 14 203 204 202 205
247 25 26 22 23 20
248 27 188 371 374 369
249 26 111 91 112 95
250 24 31 30 33 23
251 25 255 217 424 220
252 25 425 374 371 376
253 13 112 92 93 94
254 13 112 92 93 38
255 13 112 92 94 38
256 14 93 92 94 38
257 25 111 268 267 266
258 27 149 146 148 143
259 26 112 109 267 155
260 25 30 33 32 36
261 24 31 29 24 25
262 9 368 367 364 369
263 9 368 367 365 369
264 17 364 367 365 369
265 7 368 367 364 365
266 25 371 188 216 184
267 25 24 148 146 145
268 1 85 89 111 225
269 1 85 89 111 62
270 3 85 89 225 62
271 13 111 89 225 62
272 27 22 26 32 534
273 24 219 218 425 216
274 24 92 112 91 109
275 3 89 85 110 83
276 3 89 85 110 87
277 3 89 85 83 87
278 14 110 85 83 87
279 25 188 216 218 215
280 25 176 124 177 127
281 3 328 383 512 381
282 3 328 383 512 389
283 3 328 383 381 389
284 14 512 383 381 389
285 24 187 185 136 180
286 27 470 469 331 467
287 25 469 470 585 468
288 25 333 331 469 330
289 25 470 585 516 584
290 25 516 333 331 272
291 24 515 516 333 585
292 12 516 515 475 513
293 12 516 515 475 514
294 13 516 515 513 514
295 13 475 515 513 514
296 8 521 523 522 519
297 8 521 523 526 519
298 16 522 523 526 519
299 7 521 523 522 526
300 3 165 162 160 161
301 3 165 162 160 159
302 3 165 162 161 159
303 14 160 162 161 159
304 11 79 55 59 54
305 11 79 55 59 52
306 7 79 55 54 52
307 17 54 55 52 59
308 8 312 311 308 313
309 8 312 311 314 313
310 16 308 311 314 313
311 7 312 311 308 314
312 22 78 79 55 77
313 21 78 79 55 81
314 23 78 79 77 81
315 23 55 79 77 81
316 22 523 521 520 519
317 21 523 521 520 525
318 23 523 521 519 525
319 23 520 521 519 525
320 24 515 475 477 478
321 25 575 577 578 574
322 25 58 60 190 61
323 25 480 478 475 476
324 25 475 477 479 562
325 8 79 78 80 77
326 8 79 78 76 77
327 16 80 78 76 77
328 7 79 78 80 76
329 27 60 58 181 59
330 30 351 173 171 175
331 25 353 350 343 517
332 26 347 351 356 173
333 25 22 23 30 21
334 1 162 165 347 164
335 1 162 165 347 166
336 3 162 165 164 166
337 13 347 165 164 166
338 11 472 473 467 471
339 11 472 473 467 443
340 7 472 473 471 443
341 17 471 473 443 467
342 27 577 575 453 573
343 22 311 312 310 313
344 21 311 312 310 315
345 23 311 312 313 315
346 23 310 312 313 315
347 25 577 578 580 579
348 11 521 520 358 518
349 11 521 520 358 524
350 7 521 520 518 524
351 17 518 520 524 358
352 27 350 353 352 358
353 25 482 480 478 481
354 25 477 479 482 563
355 27 480 482 479 484
356 25 233 235 239 236
357 24 581 580 456 578
358 25 235 239 238 240
359 11 211 208 413 206
360 11 211 208 413 209
361 7 211 208 206 209
362 17 206 208 209 413
363 22 487 490 492 486
364 21 487 490 492 488
365 23 487 490 486 488
366 23 492 490 486 488
367 9 490 487 485 484
368 9 490 487 491 484
369 17 485 487 491 484
370 7 490 487 485 491
371 25 415 418 417 419
372 27 415 414 412 413
373 24 581 417 455 418
374 25 414 415 418 416
375 25 417 455 412 454
376 25 455 412 414 411
377 12 417 581 580 460
378 12 417 581 580 549
379 13 417 581 460 549
380 13 580 581 460 549
381 25 238 234 232 118
382 27 234 238 239 241
383 25 580 456 453 457
384 25 348 352 353 290
385 25 456 453 575 452
386 24 229 233 235 232
387 10 490 492 486 493
388 10 490 492 486 494
389 7 490 492 493 494
390 16 493 492 494 486
391 25 234 232 233 230
392 25 342 348 352 284
393 22 210 211 208 213
394 21 210 211 208 214
395 23 210 211 213 214
396 23 208 211 213 214
397 25 560 557 555 440
398 25 553 554 556 551
399 25 556 560 557 536
400 12 233 229 231 228
401 12 233 229 231 226
402 13 233 229 228 226
403 13 231 229 228 226
404 8 211 210 207 213
405 8 211 210 212 213
406 16 207 210 212 213
407 7 211 210 207 212
408 25 60 190 186 192
409 12 30 31 29 35
410 12 30 31 29 34
411 13 30 31 35 34
412 13 29 31 35 34
413 12 186 187 185 189
414 12 186 187 185 183
415 13 186 187 189 183
416 13 185 187 189 183
417 24 187 186 182 190
418 25 182 181 58 51
419 25 186 182 181 178
420 8 247 244 242 243
421 8 247 244 245 243
422 16 242 244 245 243
423 7 247 244 242 245
424 27 255 462 421 461
425 22 244 247 252 243
426 21 244 247 252 246
427 23 244 247 243 246
428 23 252 247 243 246
429 11 247 252 461 253
430 11 247 252 461 459
431 7 247 252 253 459
432 17 253 252 459 461
433 2 510 319 316 321
434 2 510 319 465 321
435 13 321 319 316 465
436 3 510 319 316 465
437 25 201 404 400 409
438 6 86 561 558 90
439 6 86 561 558 537
440 4 86 561 90 537
441 17 90 561 537 558
442 9 405 406 410 402
443 9 405 406 408 402
444 17 410 406 408 402
445 7 405 406 410 408
446 22 406 405 544 543
447 21 406 405 544 538
448 23 406 405 543 538
449 23 544 405 543 538
450 10 405 544 543 548
451 10 405 544 543 541
452 7 405 544 548 541
453 16 548 544 541 543
454 3 319 510 583 509
455 3 319 510 583 511
456 3 319 510 509 511
457 14 583 510 509 511
458 19 84 86 561 559
459 18 84 86 561 88
460 20 84 86 559 88
461 20 561 86 559 88
462 27 397 400 404 402
463 5 86 84 82 317
464 5 86 84 552 317
465 15 82 84 552 317
466 4 86 84 82 552
467 22 196 197 195 199
468 21 196 197 195 200
469 23 196 197 199 200
470 23 195 197 199 200
471 8 197 196 198 199
472 8 197 196 194 199
473 16 198 196 194 199
474 7 197 196 198 194
475 24 319 321 320 323
476 25 326 323 321 324
477 29 84 317 464 320
478 26 321 320 322 317
479 25 462 255 217 256
480 25 231 201 404 237
481 10 568 569 564 451
482 10 568 569 564 567
483 7 568 569 451 567
484 16 451 569 567 564
485 13 356 361 363 360
486 13 356 361 363 362
487 13 356 361 360 362
488 14 363 361 360 362
489 25 500 498 497 496
490 24 262 267 109 268
491 25 302 305 304 307
492 11 312 310 306 309
493 11 312 310 306 377
494 7 312 310 309 377
495 17 309 310 377 306
496 11 197 195 394 163
497 11 197 195 394 398
498 7 197 195 163 398
499 17 163 195 398 394
500 2 263 262 261 267
501 2 263 262 260 267
502 13 267 262 261 260
503 3 263 262 261 260
504 27 438 442 393 394
505 25 304 301 298 300
506 24 434 436 439 435
507 12 299 295 499 293
508 12 299 295 499 458
509 13 299 295 293 458
510 13 499 295 293 458
511 25 439 393 442 395
512 25 436 439 393 441
513 25 502 503 500 505
514 24 434 555 553 557
515 3 262 263 264 259
516 3 262 263 264 265
517 3 262 263 259 265
518 14 264 263 259 265
519 25 146 149 25 147
520 27 560 556 554 558
521 25 438 435 436 433
522 25 299 302 305 303
523 24 295 299 302 298
524 25 301 298 299 296
525 25 498 497 499 495
526 25 499 502 503 463
527 12 436 434 555 431
528 12 436 434 555 429
529 13 436 434 431 429
530 13 555 434 431 429
531 25 442 438 435 437
532 25 400 397 445 396
533 27 301 304 305 306
534 24 229 231 201 445
535 24 295 499 502 497
536 27 498 500 503 501
537 25 555 553 554 550
538 25 397 445 231 444
539 25 149 25 29 27
540 30 109 155 153 37
