LAMMPS data file via write_data, version 4 Jul 2026, timestep = 848000, units = real

585 atoms
11 atom types
615 bonds
18 bond types
1090 angles
35 angle types
1484 dihedrals
48 dihedral types
540 impropers
30 improper types

1.3630446532574734 19.790734356742462 xlo xhi
1.3630446532574734 19.790734356742462 ylo yhi
1.3630446532574734 19.790734356742462 zlo zhi

Masses

1 12.01115
2 12.01115
3 12.01115
4 12.01115
5 1.00797
6 1.00797
7 1.00797
8 14.0067
9 15.9994
10 15.9994
11 15.9994

Pair Coeffs # lj/class2/coul/long

1 0.054 4.01
2 0.054 4.01
3 0.054 4.01
4 0.064 4.01
5 0.02 2.995
6 0.013 1.098
7 0.013 1.098
8 0.065 4.07
9 0.24 3.535
10 0.24 3.535
11 0.24 3.535

Bond Coeffs # class2

1 1.53 299.67 -501.77 679.81
2 1.53 299.67 -501.77 679.81
3 1.53 299.67 -501.77 679.81
4 1.501 321.902 -521.821 572.163
5 1.101 345 -691.89 844.6
6 1.457 365.805 -699.637 998.484
7 1.42 400.395 -835.195 1313.01
8 1.42 400.395 -835.195 1313.01
9 1.101 345 -691.89 844.6
10 1.42 400.395 -835.195 1313.01
11 1.101 345 -691.89 844.6
12 1.42 400.395 -835.195 1313.01
13 1.417 470.836 -627.618 1327.63
14 1.0982 372.825 -803.453 894.317
15 1.412 257.775 0 0
16 1.3768 428.88 -738.235 1114.97
17 1.006 466.74 -1073.6 1251.11
18 0.965 532.506 -1282.9 2004.77

Angle Coeffs # class2

1 108.4 43.9594 -8.3924 -9.3379
2 110.77 41.453 -10.604 5.129
3 112.67 39.516 -7.443 -9.5583
4 110.77 41.453 -10.604 5.129
5 111.27 54.5381 -8.3642 -13.0838
6 112.67 39.516 -7.443 -9.5583
7 110.77 41.453 -10.604 5.129
8 111.27 54.5381 -8.3642 -13.0838
9 120.05 44.7148 -22.7352 0
10 112.444 47.2337 -10.6612 -10.2062
11 109 80 0 0
12 110.954 50.8652 -4.4522 -10.0298
13 104.5 35.7454 -10.0067 -6.2729
14 102.969 38.9739 -6.2595 -8.171
15 110.77 41.453 -10.604 5.129
16 111.91 60.7147 -13.3366 -13.0785
17 111.27 54.5381 -8.3642 -13.0838
18 105.8 52.7061 -12.109 -9.8681
19 110.77 41.453 -10.604 5.129
20 111.27 54.5381 -8.3642 -13.0838
21 111.27 54.5381 -8.3642 -13.0838
22 111 44.3234 -9.4454 0
23 111 44.3234 -9.4454 0
24 118.9 61.0226 -34.9931 0
25 117.94 35.1558 -12.4682 0
26 120 102 0 0
27 123.42 73.6781 -21.6787 0
28 110 41.6 0 0
29 107.66 39.641 -12.921 -2.4318
30 110.62 51.3137 -6.7198 -2.6003
31 108.728 58.5446 -10.8088 -12.4006
32 108.728 58.5446 -10.8088 -12.4006
33 108.728 58.5446 -10.8088 -12.4006
34 108.728 58.5446 -10.8088 -12.4006
35 107.067 45.252 -7.5558 -9.512

BondBond Coeffs

1 0 1.53 1.501
2 3.3872 1.53 1.101
3 0 1.53 1.53
4 3.3872 1.53 1.101
5 11.4318 1.53 1.42
6 0 1.53 1.53
7 3.3872 1.53 1.101
8 11.4318 1.53 1.42
9 12.0676 1.501 1.417
10 -2.1113 1.457 1.457
11 0 1.457 1.412
12 -6.4168 1.457 1.006
13 -7.1131 1.42 1.42
14 0 1.42 1.3768
15 3.3872 1.53 1.101
16 4.6217 1.53 1.457
17 11.4318 1.53 1.42
18 -9.6879 1.42 0.965
19 3.3872 1.53 1.101
20 11.4318 1.53 1.42
21 11.4318 1.53 1.42
22 0 1.501 1.501
23 2.9168 1.501 1.101
24 68.2856 1.417 1.417
25 1.0795 1.417 1.0982
26 0 1.417 1.412
27 48.4754 1.417 1.3768
28 0 1.412 1.006
29 5.3316 1.101 1.101
30 12.426 1.101 1.457
31 23.1979 1.101 1.42
32 23.1979 1.101 1.42
33 23.1979 1.101 1.42
34 23.1979 1.101 1.42
35 -1.8749 1.006 1.006

BondAngle Coeffs

1 0 0 1.53 1.501
2 20.754 11.421 1.53 1.101
3 8.016 8.016 1.53 1.53
4 20.754 11.421 1.53 1.101
5 2.6868 20.4033 1.53 1.42
6 8.016 8.016 1.53 1.53
7 20.754 11.421 1.53 1.101
8 2.6868 20.4033 1.53 1.42
9 47.0579 31.0771 1.501 1.417
10 -7.2229 -7.2229 1.457 1.457
11 0 0 1.457 1.412
12 31.8096 20.5799 1.457 1.006
13 -2.8112 -2.8112 1.42 1.42
14 0 0 1.42 1.3768
15 20.754 11.421 1.53 1.101
16 6.0876 16.5702 1.53 1.457
17 2.6868 20.4033 1.53 1.42
18 28.58 18.9277 1.42 0.965
19 20.754 11.421 1.53 1.101
20 2.6868 20.4033 1.53 1.42
21 2.6868 20.4033 1.53 1.42
22 0 0 1.501 1.501
23 26.4608 11.7717 1.501 1.101
24 28.8708 28.8708 1.417 1.417
25 20.0033 24.2183 1.417 1.0982
26 0 0 1.417 1.412
27 58.479 107.681 1.417 1.3768
28 0 0 1.412 1.006
29 18.103 18.103 1.101 1.101
30 13.4582 42.4332 1.101 1.457
31 4.6189 55.327 1.101 1.42
32 4.6189 55.327 1.101 1.42
33 4.6189 55.327 1.101 1.42
34 4.6189 55.327 1.101 1.42
35 28.0322 28.0322 1.006 1.006

Dihedral Coeffs # class2

1 -0.2802 0 -0.0678 0 -0.0122 0
2 0 0 0.0316 0 -0.1681 0
3 0.1764 0 0.1766 0 -0.5206 0
4 0.7137 0 0.266 0 -0.2545 0
5 -0.6732 0 -0.4778 0 -0.167 0
6 0 0 0.0316 0 -0.1681 0
7 0.7137 0 0.266 0 -0.2545 0
8 0.7137 0 0.266 0 -0.2545 0
9 -0.5203 0 -0.3028 0 -0.345 0
10 0 0 4.4072 0 0 0
11 0 0 1.559 0 0 0
12 0 0 3 0 0 0
13 -0.1406 0 0.4168 0 0.015 0
14 0.1904 0 -0.1342 0 -0.246 0
15 0 0 2.25 0 0 0
16 0.5302 0 0 0 -0.3966 0
17 0 0 1.5 0 0 0
18 0 0 0 0 0.05 180
19 -1.1506 0 -0.6344 0 -0.1845 0
20 0 0 0 0 0.13 180
21 0 0 0 0 0.13 180
22 0.5302 0 0 0 -0.3966 0
23 -0.0228 0 0.028 0 -0.1863 0
24 -0.2802 0 -0.0678 0 -0.0122 0
25 -0.2801 0 -0.0678 0 -0.0122 0
26 8.3667 0 1.1932 0 0 0
27 0 0 3.9661 0 0 0
28 0 0 3 0 0 0
29 0 0 4.8498 0 0 0
30 0 0 2.25 0 0 0
31 0 0 0 0 0.05 180
32 0.9513 0 0.1155 0 0.072 0
33 -0.1432 0 0.0617 0 -0.1083 0
34 -0.1432 0 0.0617 0 -0.1083 0
35 -0.1435 0 0.253 0 -0.0905 0
36 -0.1432 0 0.0617 0 -0.1083 0
37 -0.1435 0 0.253 0 -0.0905 0
38 -0.5187 0 -0.4837 0 -0.1692 0
39 -0.2428 0 0.4065 0 -0.3079 0
40 -0.1435 0 0.253 0 -0.0905 0
41 0.1863 0 -0.4338 0 -0.2121 0
42 -0.1435 0 0.253 0 -0.0905 0
43 -0.1435 0 0.253 0 -0.0905 0
44 0 0 1.8769 0 0 0
45 0 0 1.7234 0 0 0
46 0 0 0 0 0.158 180
47 -0.182 0 -0.1084 0 -0.7047 0
48 -0.182 0 -0.1084 0 -0.7047 0

AngleAngleTorsion Coeffs

1 0 108.4 120.05
2 -16.164 112.67 110.77
3 -27.3953 112.67 111.91
4 -29.042 112.67 111.27
5 -12.1038 111.27 105.8
6 -16.164 112.67 110.77
7 -29.042 112.67 111.27
8 -29.042 112.67 111.27
9 -19.0059 111.27 104.5
10 -14.4097 120.05 118.9
11 4.4444 120.05 117.94
12 0 120.05 120
13 -24.3818 112.444 111.91
14 -12.5567 112.444 110.62
15 0 109 120
16 -16.4438 104.5 108.728
17 0 102.969 123.42
18 0 111.91 109
19 -7.5499 111.91 110.954
20 0 111.27 102.969
21 0 111.27 102.969
22 -16.4438 104.5 108.728
23 0 108.4 110.77
24 0 111 120.05
25 -5.8888 120.05 111
26 0 118.9 118.9
27 -4.8141 118.9 117.94
28 0 118.9 120
29 -21.0247 118.9 123.42
30 0 120 110
31 0 109 110.62
32 0 102.969 108.728
33 -12.564 110.77 110.77
34 -12.564 110.77 110.77
35 -20.2006 110.77 111.27
36 -12.564 110.77 110.77
37 -20.2006 110.77 111.27
38 -10.4258 110.62 110.954
39 -15.7572 110.77 111.91
40 -20.2006 110.77 111.27
41 -10.5093 108.728 105.8
42 -20.2006 110.77 111.27
43 -20.2006 110.77 111.27
44 0.3598 117.94 117.94
45 4.2296 117.94 123.42
46 0 111.91 111.27
47 -14.0484 111.27 111.27
48 -14.0484 111.27 111.27

EndBondTorsion Coeffs

1 0 0 0 0 0 0 1.53 1.417
2 0.2486 0.2422 -0.0925 0.0814 0.0591 0.2219 1.53 1.101
3 0.1032 0.5896 -0.4836 0.0579 -0.0043 -0.1906 1.53 1.457
4 -0.319 0.4411 -0.7174 1.1538 0.8409 -0.9138 1.53 1.42
5 -0.58 0.9004 0 0 0.5343 0.9025 1.53 0.965
6 0.2486 0.2422 -0.0925 0.0814 0.0591 0.2219 1.53 1.101
7 -0.319 0.4411 -0.7174 1.1538 0.8409 -0.9138 1.53 1.42
8 -0.319 0.4411 -0.7174 1.1538 0.8409 -0.9138 1.53 1.42
9 -0.2456 1.0517 -0.7795 0.4741 1.2635 0.5576 1.53 1.42
10 0 0.2421 0 0 -0.6918 0 1.501 1.417
11 0 -1.797 0 0 -0.4879 0 1.501 1.0982
12 0 0 0 0 0 0 1.501 1.412
13 -0.0128 -0.0495 -0.1079 0.0997 -0.0046 -0.2657 1.457 1.53
14 0.0628 0.0873 -0.0882 -0.5892 0.714 0.3505 1.457 1.101
15 0 0 0 0 0 0 1.457 1.417
16 -0.162 0.1564 -1.1408 -0.6054 1.3339 0.9648 1.42 1.101
17 0 0 0 0 0 0 1.42 1.417
18 0 0 0 0 0 0 1.53 1.412
19 -0.9466 0.9356 -0.5542 0.057 0.0625 0.4112 1.53 1.006
20 0 0 0 0 0 0 1.53 1.3768
21 0 0 0 0 0 0 1.53 1.3768
22 -0.162 0.1564 -1.1408 -0.6054 1.3339 0.9648 1.42 1.101
23 0 0 0 0 0 0 1.501 1.101
24 0 0 0 0 0 0 1.501 1.417
25 -0.5835 1.122 0.3978 1.3997 0.7756 0 1.417 1.101
26 -0.1185 6.3204 0 -0.1185 6.3204 0 1.417 1.417
27 0 -6.8958 0 0 -0.4669 0 1.417 1.0982
28 0 0 0 0 0 0 1.417 1.412
29 0 0.2655 0 0 4.8905 0 1.417 1.3768
30 0 0 0 0 0 0 1.417 1.006
31 0 0 0 0 0 0 1.412 1.101
32 0 0 0 0 0 0 1.3768 1.101
33 0.213 0.312 0.0777 0.213 0.312 0.0777 1.101 1.101
34 0.213 0.312 0.0777 0.213 0.312 0.0777 1.101 1.101
35 0.9681 0.9551 0.0436 0.5903 0.6669 0.8584 1.101 1.42
36 0.213 0.312 0.0777 0.213 0.312 0.0777 1.101 1.101
37 0.9681 0.9551 0.0436 0.5903 0.6669 0.8584 1.101 1.42
38 -1.1685 0.9266 -0.0993 0.085 0.3061 0.2104 1.101 1.006
39 0.196 0.7056 0.112 0.1022 0.209 0.6433 1.101 1.457
40 0.9681 0.9551 0.0436 0.5903 0.6669 0.8584 1.101 1.42
41 -1.7554 1.3145 0.2263 0.2493 0.6803 0 1.101 0.965
42 0.9681 0.9551 0.0436 0.5903 0.6669 0.8584 1.101 1.42
43 0.9681 0.9551 0.0436 0.5903 0.6669 0.8584 1.101 1.42
44 0 -0.689 0 0 -0.689 0 1.0982 1.0982
45 0 -1.5867 0 0 4.2641 0 1.0982 1.3768
46 0 0 0 0 0 0 1.457 1.42
47 1.0165 0.7553 -0.4609 1.0165 0.7553 -0.4609 1.42 1.42
48 1.0165 0.7553 -0.4609 1.0165 0.7553 -0.4609 1.42 1.42

MiddleBondTorsion Coeffs

1 0 0 0 1.501
2 -14.879 -3.6581 -0.3138 1.53
3 -15.4174 -7.3055 -1.0749 1.53
4 -21.8842 -7.6764 -0.6868 1.53
5 1.2472 0 0.7485 1.42
6 -14.879 -3.6581 -0.3138 1.53
7 -21.8842 -7.6764 -0.6868 1.53
8 -21.8842 -7.6764 -0.6868 1.53
9 -5.9288 -2.7007 -0.3175 1.42
10 0 9.1792 0 1.417
11 0 3.9421 0 1.417
12 0 0 0 1.417
13 -8.0036 -7.7321 -3.064 1.457
14 -6.4529 -6.8122 -1.1632 1.457
15 0 0 0 1.412
16 -6.8007 -4.6546 -1.4101 1.42
17 0 0 0 1.3768
18 0 0 0 1.457
19 -2.2208 0.5479 -0.3527 1.457
20 0 0 0 1.42
21 0 0 0 1.42
22 -6.8007 -4.6546 -1.4101 1.42
23 0 0 0 1.53
24 0 0 0 1.501
25 -5.5679 1.4083 0.301 1.501
26 27.5989 -2.312 0 1.417
27 0 -1.1521 0 1.417
28 0 0 0 1.417
29 0 4.8255 0 1.417
30 0 0 0 1.412
31 0 0 0 1.457
32 0 0 0 1.42
33 -14.261 -0.5322 -0.4864 1.53
34 -14.261 -0.5322 -0.4864 1.53
35 -16.7975 -1.2296 -0.275 1.53
36 -14.261 -0.5322 -0.4864 1.53
37 -16.7975 -1.2296 -0.275 1.53
38 -3.4611 1.6996 -0.6007 1.457
39 -10.4959 -0.7647 -0.0545 1.53
40 -16.7975 -1.2296 -0.275 1.53
41 0 0.9241 -0.5889 1.42
42 -16.7975 -1.2296 -0.275 1.53
43 -16.7975 -1.2296 -0.275 1.53
44 0 4.8228 0 1.417
45 0 5.5432 0 1.417
46 0 0 0 1.53
47 -17.2585 -3.6157 -0.8364 1.53
48 -17.2585 -3.6157 -0.8364 1.53

BondBond13 Coeffs

1 0 1.53 1.417
2 0 1.53 1.101
3 0 1.53 1.457
4 0 1.53 1.42
5 0 1.53 0.965
6 0 1.53 1.101
7 0 1.53 1.42
8 0 1.53 1.42
9 0 1.53 1.42
10 2.5085 1.501 1.417
11 0.8743 1.501 1.0982
12 0 1.501 1.412
13 0 1.457 1.53
14 0 1.457 1.101
15 0 1.457 1.417
16 0 1.42 1.101
17 0 1.42 1.417
18 0 1.53 1.412
19 0 1.53 1.006
20 0 1.53 1.3768
21 0 1.53 1.3768
22 0 1.42 1.101
23 0 1.501 1.101
24 0 1.501 1.417
25 -3.4826 1.417 1.101
26 53 1.417 1.417
27 -6.2741 1.417 1.0982
28 0 1.417 1.412
29 -2.2436 1.417 1.3768
30 0 1.417 1.006
31 0 1.412 1.101
32 0 1.3768 1.101
33 0 1.101 1.101
34 0 1.101 1.101
35 0 1.101 1.42
36 0 1.101 1.101
37 0 1.101 1.42
38 0 1.101 1.006
39 0 1.101 1.457
40 0 1.101 1.42
41 0 1.101 0.965
42 0 1.101 1.42
43 0 1.101 1.42
44 -1.7077 1.0982 1.0982
45 2.0517 1.0982 1.3768
46 0 1.457 1.42
47 0 1.42 1.42
48 0 1.42 1.42

AngleTorsion Coeffs

1 0 0 0 0 0 0 108.4 120.05
2 -0.2454 0 -0.1136 0.3113 0.4516 -0.1988 112.67 110.77
3 -1.9225 -1.345 0.221 2.0125 0.944 -2.7612 112.67 111.91
4 0.5623 -0.3041 -0.4015 0.9672 -0.7566 -1.2331 112.67 111.27
5 -3.5903 2.5225 0.4888 0.8726 -0.3577 0.3888 111.27 105.8
6 -0.2454 0 -0.1136 0.3113 0.4516 -0.1988 112.67 110.77
7 0.5623 -0.3041 -0.4015 0.9672 -0.7566 -1.2331 112.67 111.27
8 0.5623 -0.3041 -0.4015 0.9672 -0.7566 -1.2331 112.67 111.27
9 -2.7466 1.4877 -0.8955 0.5676 0.945 0.0703 111.27 104.5
10 0 -4.4683 0 0 3.8987 0 120.05 118.9
11 0 -0.1242 0 0 3.4601 0 120.05 117.94
12 0 0 0 0 0 0 120.05 120
13 1.2031 1.3645 -0.7071 -2.7883 1.5193 1.4796 112.444 111.91
14 -1.3582 0.1465 -0.5729 -2.6321 0.9353 -0.8398 112.444 110.62
15 0 0 0 0 0 0 109 120
16 -0.7777 0.434 -0.6653 -1.8234 1.6393 0.5144 104.5 108.728
17 0 0 0 0 0 0 102.969 123.42
18 0 0 0 0 0 0 111.91 109
19 -3.343 4.4558 -0.0346 0.2873 -0.8072 -0.096 111.91 110.954
20 0 0 0 0 0 0 111.27 102.969
21 0 0 0 0 0 0 111.27 102.969
22 -0.7777 0.434 -0.6653 -1.8234 1.6393 0.5144 104.5 108.728
23 0 0 0 0 0 0 108.4 110.77
24 0 0 0 0 0 0 111 120.05
25 0.2251 0.6548 0.1237 4.6266 0.1632 0.0461 120.05 111
26 1.9767 1.0239 0 1.9767 1.0239 0 118.9 118.9
27 0 2.5014 0 0 2.7147 0 118.9 117.94
28 0 0 0 0 0 0 118.9 120
29 0 10.0155 0 0 1.7404 0 118.9 123.42
30 0 0 0 0 0 0 120 110
31 0 0 0 0 0 0 109 110.62
32 0 0 0 0 0 0 102.969 108.728
33 -0.8085 0.5569 -0.2466 -0.8085 0.5569 -0.2466 110.77 110.77
34 -0.8085 0.5569 -0.2466 -0.8085 0.5569 -0.2466 110.77 110.77
35 2.3668 2.492 -1.0122 -0.1892 0.4918 0.7273 110.77 111.27
36 -0.8085 0.5569 -0.2466 -0.8085 0.5569 -0.2466 110.77 110.77
37 2.3668 2.492 -1.0122 -0.1892 0.4918 0.7273 110.77 111.27
38 -3.9582 2.0063 0.3213 -0.4294 -0.4442 -0.6141 110.62 110.954
39 0.5111 1.6328 -1.0155 -1.1075 0.282 0.8318 110.77 111.91
40 2.3668 2.492 -1.0122 -0.1892 0.4918 0.7273 110.77 111.27
41 -3.406 1.6396 0.0737 0 -0.281 -0.5944 108.728 105.8
42 2.3668 2.492 -1.0122 -0.1892 0.4918 0.7273 110.77 111.27
43 2.3668 2.492 -1.0122 -0.1892 0.4918 0.7273 110.77 111.27
44 0 2.4501 0 0 2.4501 0 117.94 117.94
45 0 1.8729 0 0 2.5706 0 117.94 123.42
46 0 0 0 0 0 0 111.91 111.27
47 0.5511 0.9737 -0.6673 0.5511 0.9737 -0.6673 111.27 111.27
48 0.5511 0.9737 -0.6673 0.5511 0.9737 -0.6673 111.27 111.27

Improper Coeffs # class2

1 0 0
2 0 0
3 0 0
4 0 0
5 0 0
6 0 0
7 0 0
8 0 0
9 0 0
10 0 0
11 0 0
12 0 0
13 0 0
14 0 0
15 0 0
16 0 0
17 0 0
18 0 0
19 0 0
20 0 0
21 0 0
22 0 0
23 0 0
24 7.8153 0
25 4.8912 0
26 0 0
27 13.0421 0
28 0 0
29 0 0
30 0 0

AngleAngle Coeffs

1 2.0403 -1.8202 1.0827 108.4 110.77 111
2 1.0827 -1.8202 2.0403 110.77 108.4 111
3 0.2738 -0.4825 0.2738 110.77 110.77 107.66
4 0.2738 -0.4825 0.2738 110.77 110.77 107.66
5 2.4286 0.5381 -2.5301 110.77 111.91 110.62
6 0.1689 2.5926 3.9177 111.27 110.77 108.728
7 0.2738 -0.4825 0.2738 110.77 110.77 107.66
8 3.9177 2.5926 0.1689 110.77 111.27 108.728
9 3.9177 2.5926 0.1689 110.77 111.27 108.728
10 0.1689 2.5926 3.9177 111.27 110.77 108.728
11 0.1689 2.5926 3.9177 111.27 110.77 108.728
12 0 0 0 111 111 111
13 2.3794 3.0118 2.3794 111 111 107.66
14 -0.3157 -0.3157 -0.3157 107.66 107.66 107.66
15 2.4321 2.4321 -3.5496 107.66 110.62 110.62
16 2.4259 2.4259 2.1283 107.66 108.728 108.728
17 2.4259 2.4259 2.1283 107.66 108.728 108.728
18 -1.3199 -1.3199 0.1184 112.67 110.77 110.77
19 -0.833 -0.833 -3.5744 112.67 111.27 111.27
20 0.1689 2.5926 3.9177 111.27 110.77 108.728
21 -1.3199 -1.3199 0.1184 112.67 110.77 110.77
22 -0.833 -0.833 -3.5744 112.67 111.27 111.27
23 0.1689 2.5926 3.9177 111.27 110.77 108.728
24 0 0 0 120.05 120.05 118.9
25 0 0 0 118.9 117.94 117.94
26 0 0 0 118.9 120 120
27 0 0 0 118.9 123.42 123.42
28 0 0 0 112.444 109 109
29 0 0 0 110.954 109 110
30 0 0 0 110 110 107.067

Atoms # full

283 1 4 0 4.015516798206884 9.280982822480912 5.3315315848643685 0 0 0
281 1 4 0 5.213512632612755 9.48707989725563 5.999271058555859 0 0 0
278 1 4 0 5.509688241065579 8.912126803392493 7.231169176172673 0 0 0
277 1 4 -0.1268 3.264759191670274 8.09858251566297 7.281824318976201 0 0 0
280 1 4 0 2.972651865338862 8.707226406881169 6.069659466823742 0 0 0
276 1 4 0 4.565178718035913 8.064319925517363 7.770522967408078 0 0 0
275 1 5 0.1268 2.512846949552648 7.444398684060344 7.715763871868966 0 0 0
45 1 5 0.1268 5.855291890369845 5.606460653477596 5.0279384893525805 0 0 0
47 1 4 -0.1268 6.502114061247294 5.174297239454053 4.22412643034282 0 0 0
40 1 5 0.053 3.299368270891764 7.501278879698153 3.533511272965595 0 0 0
169 1 10 -0.1595 6.126274183005123 7.285591374257758 3.239012660628674 0 0 0
41 1 1 -0.0233 3.3765379208722384 8.495813721996448 3.0858168991834054 0 0 0
349 8 4 0 6.548933058286872 3.5230268985378896 9.571256297943926 0 1 0
403 8 1 -0.159 8.388091286570265 3.6095723717034187 7.945345849423692 0 1 0
274 1 1 -0.106 4.823619469766716 7.259023278137316 9.020328423729552 0 0 0
50 1 5 0.1268 6.997824042572558 3.2931798929006724 5.282188162371639 0 0 0
42 1 5 0.053 2.3571451947317406 8.766307404857923 2.744337814778285 0 0 0
345 8 1 -0.106 7.280177082183793 4.369361262920611 8.555532023190068 0 1 0
346 8 5 0.053 7.636728869399474 5.352906844315346 8.957183538100729 0 1 0
116 1 8 -0.4974 6.76830208756496 9.112437119560344 7.796182932686174 0 0 0
114 1 6 0.2487 7.204529960877917 8.345995200723657 8.235562607645416 0 0 0
340 8 5 0.053 6.594838658198545 4.644806515748544 7.722560509676909 0 1 0
227 1 6 0.2487 7.379963785289579 9.587167935297993 7.107435151827775 0 0 0
193 9 9 -0.266 8.992631818543943 7.53798613786823 7.032719157003808 -1 0 0
49 1 4 -0.1268 7.109524382519964 3.9320901504413506 4.365396805815707 0 0 0
174 1 4 0.0265 6.795546592950285 6.070387211447274 3.2040198766894115 0 0 0
401 8 5 0.053 8.825262815685894 4.298404459664661 7.263874708051102 0 1 0
177 1 4 0 7.966630717714474 3.5525349312793977 3.3299803150896152 0 0 0
407 8 5 0.053 9.26299262397498 3.508657001632608 8.579598993469403 0 1 0
56 1 1 -0.106 8.62367519408237 2.2235965724103437 3.5572032425598907 0 0 0
399 8 5 0.053 8.180908449702677 2.7091996112066155 7.466897568117988 0 1 0
273 1 5 0.053 4.048164084228942 6.546476558589376 9.327304196426855 0 0 0
179 5 5 0.1268 9.33166484161099 8.39770852815804 2.7030462548118352 0 0 0
18 1 5 0.1268 10.344687225839836 3.370875656655109 5.490068285737006 0 0 0
117 1 5 0.053 5.742689935719906 6.652025504701055 8.893422334405042 0 0 0
450 1 5 0.053 6.935068521718631 9.59522173783462 4.661773791715241 0 0 0
124 1 4 -0.1268 8.266185492685356 4.42596785721218 2.287307161365232 0 0 0
15 1 4 0 10.088663433552204 2.217715528281675 3.7112131910384245 0 0 0
326 6 4 0 8.601481239170658 15.493635244462007 1.3894474100539438 0 -1 1
168 1 1 0.027 5.876496081122394 8.220722750838366 2.178078803880305 0 0 0
113 1 1 -0.159 5.10810018964373 8.189654996062481 10.202493144557595 0 0 0
176 1 4 -0.1268 7.732323174598533 5.692881407347411 2.234879283338096 0 0 0
167 1 5 0.053 6.393903077745973 9.12985242958481 2.4256001204148796 0 0 0
531 3 3 0.08 1.806713210346472 3.463097588798107 9.6839335597111 1 0 1
529 3 5 0.053 2.9090462116861975 4.370725866838766 8.000894403061567 1 0 1
43 1 2 0.08 4.278343596376168 8.390974610189243 1.8615837423087895 0 0 0
533 3 5 0.053 2.7294279451112917 3.1431932104047204 10.118333893580939 1 0 1
126 5 5 0.1268 10.357677715526512 6.350052313582339 3.1368577400402673 0 0 0
570 10 5 0.053 8.49602998654904 10.233398231372378 9.859548072998342 0 0 0
354 8 4 0 5.848935182000107 2.394706698068318 9.11706086891883 0 1 0
355 8 6 0.2487 5.7494143041728085 2.9254036585139582 7.166556658921306 0 1 0
289 1 5 0.053 1.4163950608486715 6.748507966990831 5.262089257940025 0 0 0
282 1 1 -0.106 1.4870071869492958 8.823041083390887 5.72374813596301 0 0 0
357 8 8 -0.4974 5.699019781753845 2.0878381760948925 7.730900609273068 0 1 0
270 11 5 0.053 1.647963509288084 5.53446583215403 1.4054405309626103 1 1 1
483 1 5 0.053 19.67652551005058 9.30239053575831 4.769646528441047 -1 0 0
28 3 5 0.1268 15.940297965516983 15.10469856663361 7.904763358048158 0 -1 1
57 1 5 0.053 8.219258764290947 1.70253275031499 4.378843538335106 0 0 0
443 11 5 0.053 5.141249645188168 3.96228670688131 2.0693050367800296 1 1 1
472 11 3 0.08 2.871430592039676 3.9653243270289003 2.459682451184003 1 1 1
132 1 5 0.053 8.269349870289826 1.6216714661394493 2.6937452266811603 0 0 0
473 11 1 0.027 4.164946833746086 3.919479245151761 1.5540044358997607 1 1 1
474 11 5 0.053 2.6654514396127427 2.986643607898122 3.0070292724727343 1 1 1
428 9 5 0.053 10.411427403723394 9.523567742443118 5.674534348074598 -1 0 0
466 11 9 -0.266 2.4262016360474155 4.97827990340936 3.3511139819228584 1 1 1
269 11 1 0.027 1.6847094835003915 4.753025557584615 2.182683577471443 1 1 1
378 9 5 0.053 10.60551805563389 6.812829086343143 5.944496825105425 -1 0 0
377 2 5 0.053 11.826288186862497 19.076453746592094 10.26147990295963 0 -1 0
285 1 8 -0.3314 3.90459521738052 9.64094619775266 3.963689059013037 0 0 0
447 1 1 -0.159 6.271056312065776 10.297297315563819 5.2515943195007 0 0 0
158 1 5 0.053 6.080481853927348 8.621462154468011 10.237294416819875 0 0 0
180 5 4 -0.1268 10.409981120878005 8.339536302913885 2.5212714411322796 0 0 0
356 8 4 0 5.3161095772641485 1.5624910982982412 10.06938681556588 0 1 0
286 1 6 0.2487 4.780221161441264 9.983815503229511 3.6558173861441223 0 0 0
420 8 5 0.1268 7.8419454438984815 19.012672733746683 8.39799297755949 0 0 0
127 1 5 0.1268 9.026270215176478 4.178867016846597 1.5644695098361117 0 0 0
53 1 5 0.1268 10.317250010392875 19.49490098353074 1.8421729300905212 0 -1 0
315 2 5 0.053 10.38100608288025 2.1807949700159415 9.857075073226643 0 0 0
379 9 3 0.08 10.37520161317733 7.5778963415361815 6.6258231500594 -1 0 0
223 9 1 0.027 9.898489203924715 7.145953332620068 7.967356804424544 -1 0 0
222 9 5 0.053 9.833346298119311 6.076141748647374 8.137407519786674 -1 0 0
122 7 5 0.053 15.566893873497204 5.716556421915766 10.394662185264162 -1 0 0
19 2 5 0.053 2.513438178628175 17.211808858768947 1.4783536594268185 1 -1 1
17 1 4 -0.1268 10.760033101574862 2.647163399040161 4.868238329824056 0 0 0
339 9 5 0.1268 19.601869238614064 8.131421638562479 9.636101710589585 -1 0 0
528 3 1 0.027 1.9205596345437193 4.065846192476663 8.366368304192832 1 0 1
532 3 1 0.027 19.125681514588734 2.5034577789806165 10.220233565813006 0 0 1
288 1 5 0.053 18.825806965893356 7.254599928096467 6.784649428137185 -1 0 0
279 1 5 0.053 19.570322485771648 9.605629006868059 6.478466709095894 -1 0 0
287 1 1 -0.159 19.171818950316762 7.444399334096998 5.764919032331776 -1 0 0
128 5 4 -0.1268 11.026459219285051 7.193577294839927 2.9562268409395807 0 0 0
507 3 5 0.053 19.575312010920243 4.111853652382824 7.569185232426115 0 0 1
185 5 4 0 11.162104007003773 9.387989862310228 1.9847906325505538 0 0 0
224 9 5 0.053 9.987569831045507 7.740799221206141 8.85845479464637 -1 0 0
271 11 5 0.053 19.067091241459167 4.306597916330952 2.2777127035331772 0 1 1
430 9 1 0.027 11.100273928302936 8.904034144474434 6.296950502059295 -1 0 0
489 1 5 0.053 18.256949468126905 7.477998438003639 5.190010430662006 -1 0 0
342 9 4 0 17.467270829611508 8.498879399567025 10.094482407477896 -1 0 0
212 10 5 0.053 18.37206840564763 8.483044542492198 2.546063460682243 0 0 1
432 9 5 0.053 11.925506562767662 8.726260750703979 5.502177748296864 -1 0 0
294 7 1 0.027 13.761742336156608 3.33135329774991 8.48197464141494 -1 0 0
534 3 10 -0.1595 18.05969629206708 2.133345774178021 9.363573531879293 0 0 1
134 5 5 0.053 13.657923115840793 6.843041196836916 4.928102850362585 0 0 0
248 5 5 0.053 15.089290467113411 4.491042147990368 3.6951090519403884 0 0 0
250 5 1 0.027 16.331314618631147 5.839698432606558 4.9268126217281445 0 0 0
380 9 10 -0.1595 11.57188716410129 9.707882206208522 7.368884721673951 -1 0 0
384 9 4 0.0265 12.826207543375613 9.488662237638525 7.806722619429184 -1 0 0
387 9 5 0.1268 12.803290322412362 7.393990573074582 7.609730247262828 -1 0 0
388 9 4 -0.1268 13.424378252251818 8.256692134866409 7.909533801426692 -1 0 0
335 9 5 0.1268 15.205041190632768 7.071659081772482 8.164673961281744 -1 0 0
392 9 4 -0.1268 14.786085980380454 8.066450492589743 8.146334864954852 -1 0 0
133 5 5 0.053 13.361908702829975 5.137761702397954 5.102609113656621 0 0 0
129 5 10 -0.1595 12.932393444026786 5.834963383041925 3.25766229661146 0 0 0
251 5 3 0.08 15.119375801563418 5.465326107172043 4.181186997094976 0 0 0
103 5 5 0.053 16.32118324676524 6.523220910440504 5.735440837314406 0 0 0
102 5 5 0.053 17.14495247135315 5.16637245857192 4.92689283605437 0 0 0
125 5 9 -0.266 16.05005758703195 6.419993129808572 3.6770666974252366 0 0 0
131 5 1 0.027 13.669123657580416 5.8843986261394905 4.454029521631191 0 0 0
291 7 9 -0.266 14.761326575077177 4.152852048335179 7.841459367832818 -1 0 0
130 5 4 0.0265 12.422310203694904 6.997631376538935 2.9150820426446113 0 0 0
334 9 4 0 15.560971894909743 9.175106330556364 8.493398265342407 -1 0 0
337 9 1 -0.106 17.04335913091039 9.028831215295266 8.770769828976306 -1 0 0
123 7 3 0.08 14.22266200692875 4.5821262436532155 9.104616740993212 -1 0 0
297 7 5 0.053 12.853698593405639 3.350904188924102 7.9164302180771475 -1 0 0
249 7 5 0.053 14.1312778299071 2.348058513744583 8.803813633571107 -1 0 0
336 9 5 0.053 17.35729055587437 8.255177348821228 8.093272331842496 -1 0 0
292 7 5 0.053 13.506758920565872 5.372021000697552 9.065209908261533 -1 0 0
14 1 4 -0.1268 12.146325647876857 2.4712269373094014 4.995869534927744 0 0 0
6 1 5 0.053 15.065604886392677 2.9420407285910994 5.399585963877329 0 0 0
135 5 4 -0.1268 13.131766590988112 8.06791953541255 2.4332917018417346 0 0 0
373 8 5 0.053 16.597862392968956 10.097325550593373 5.678154461035634 0 0 0
136 5 4 -0.1268 12.509232425929866 9.166938461915084 1.9607363762967305 0 0 0
137 5 5 0.1268 14.235794409035966 8.08416814344258 2.4841384176663874 0 0 0
370 8 9 -0.266 15.993527161148457 10.772203598651021 3.821449778663901 0 0 0
366 8 5 0.053 14.235057363836782 9.829188728975918 4.648331908688489 0 0 0
16 1 5 0.1268 12.691705020368062 2.9144897308047475 5.844345217392472 0 0 0
12 1 4 0.0265 12.87710912906322 1.7143567327685303 4.013444947283359 0 0 0
5 1 5 0.053 16.82943881912758 1.9276922132096548 6.3845265275928496 0 0 0
8 1 1 0.027 14.947120791908285 1.8239426146599098 5.315858548557371 0 0 0
119 7 5 0.053 16.135494193398465 4.081722594631107 10.05598215294721 -1 0 0
121 7 1 0.027 15.203958681066961 4.684998206852273 10.263303011044682 -1 0 0
368 8 3 0.08 14.775517243939133 10.783036052725222 4.573785682641827 0 0 0
527 3 9 -0.266 1.5562990927296403 4.8555557831031795 9.492840123708282 1 0 1
13 1 4 -0.1268 10.825314838887515 1.5508061275472314 2.724191254803242 0 0 0
338 9 5 0.053 17.540047038126318 10.054244461756035 8.563670480316347 -1 0 0
328 6 1 -0.106 10.050091692158524 15.587202674523695 1.7783341331241642 0 -1 1
390 9 4 -0.1268 14.951326137834814 10.444387173901877 8.475652635046998 -1 0 0
488 11 5 0.053 15.702945847438338 2.8053963866501994 1.9441234590458651 1 1 1
4 1 3 0.08 16.49549347954333 1.3750625577741218 5.5099660751728035 0 0 0
7 1 5 0.053 14.403646517253794 1.4378604053077382 6.194665569438231 0 0 0
225 4 5 0.053 15.777939992155439 17.085723723667243 2.850995142931206 0 0 0
372 8 1 0.027 16.041050303394577 10.949941172815025 5.250054498802736 0 0 0
322 6 4 0 6.360953423993871 14.725306748890558 1.987627563983534 0 -1 1
448 1 5 0.053 6.949326186900724 10.745021201839508 5.9656431946190125 0 0 0
255 8 4 -0.1268 9.942035970559168 16.7340697972784 9.907149427298199 0 0 0
539 3 5 0.053 4.168461093428316 19.736049416740066 4.593357539562948 0 0 0
446 1 5 0.053 5.856940838260816 11.080436832214192 4.599207804350888 0 0 0
363 8 5 0.053 5.052030336726957 17.80250991037093 10.027204976149863 0 0 0
360 8 5 0.053 4.376133383032812 18.448608485092493 8.666847821093835 0 0 0
73 3 7 0.4241 5.024860735526159 10.728865764953614 8.609278860447006 0 0 0
98 3 5 0.053 5.868185058899256 1.4857016777726386 5.080213950738164 0 1 0
576 3 5 0.053 5.893091213201345 19.590159613903516 2.6361609964932544 0 0 0
546 3 5 0.053 6.187936967836055 18.013371043049972 3.110872174274686 0 0 0
572 3 5 0.053 4.626458491082557 18.326742660180145 2.6601868300953377 0 0 0
545 3 1 -0.159 5.477871576905293 18.78132818800865 3.151557705172924 0 0 0
421 8 4 -0.1268 8.71656334304889 18.350159733291292 8.605506606323253 0 0 0
138 3 5 0.053 3.693323547920784 11.137192085581267 7.276655982625489 1 -1 1
142 3 1 0.027 2.2312013134862587 11.834159403957871 8.88416771604254 1 -1 1
359 8 6 0.2487 4.901446390705083 1.6169302158935928 7.493055081642734 0 1 0
140 3 2 0.08 3.6137698166736296 11.885976694490996 8.125849016522617 1 -1 1
254 3 5 0.053 5.040704104681497 12.90723185518603 6.947382666526992 1 -1 1
258 3 5 0.053 3.4581342566732114 13.09928279979194 6.233903705412001 1 -1 1
540 3 6 0.2487 7.192226603358517 17.93167134775711 4.768576052916389 0 0 0
547 3 6 0.2487 7.5527937828314835 16.37303091146613 5.0707017574409345 0 0 0
154 6 5 0.053 4.464679964904649 14.59189308872689 3.233637342568894 0 -1 1
151 6 5 0.053 5.889800767339947 13.731775861039614 3.9570841896565865 0 -1 1
152 6 1 -0.159 5.418062221606975 14.043021195957062 3.004075369976656 0 -1 1
156 6 6 0.2487 7.726986159520435 13.436146848369967 3.7409218779602385 0 -1 1
327 6 8 -0.4974 8.238135808908048 14.184790319566162 3.397578140056175 0 -1 1
325 6 4 0 7.6966151118075 14.800641021320438 2.236979533127909 0 -1 1
65 3 4 0 5.82722309757429 16.9929685015432 5.879318037728508 0 0 0
542 3 8 -0.4974 7.156350709857557 17.234644973139186 5.446029528647768 0 0 0
46 3 5 0.053 6.5687600139859175 14.05650181309377 7.5868687530054535 0 0 0
64 3 4 0 4.841221298179711 17.898396247820607 5.470404773006799 0 0 0
48 3 5 0.053 7.3656550505387655 15.563299399992538 7.919250469228986 0 0 0
67 3 4 0 5.551746047123014 15.859182189064414 6.6007785207127965 0 0 0
69 3 1 -0.159 6.7676363925515215 15.03450889733843 7.069110329331107 0 0 0
44 3 5 0.053 7.439276349806788 14.785400317986678 6.230584680490886 0 0 0
70 3 4 0 4.287105734609159 15.57920874359505 7.0718357003088315 0 0 0
63 3 1 -0.106 5.1056008175766205 19.18391798291387 4.649064695709159 0 0 0
66 3 4 -0.1268 3.5284829917251397 17.543928493385785 5.802776218877845 0 0 0
72 3 8 -0.3314 3.8851401855352488 14.487401048267532 7.835346065536806 0 0 0
68 3 4 0 3.2757920287445614 16.459958917375406 6.6306486787306005 0 0 0
74 3 6 0.2487 2.888642549277102 14.676549122024444 8.014860244749645 0 0 0
257 3 1 -0.0233 4.007581509430128 13.149662984196869 7.242363069239725 1 -1 1
100 3 5 0.1268 2.753293026155972 18.338208748012313 5.655136182565648 0 0 0
422 8 5 0.1268 9.68847535210635 19.078421149454087 6.88204794450132 0 0 0
423 8 4 -0.1268 9.725814681784637 18.391547587332823 7.685609384478015 0 0 0
139 3 11 -0.5571 4.612537490590068 11.567309938169222 9.006447431496287 1 -1 1
150 6 5 0.053 5.031424208612242 13.120056705817056 2.538702664083309 0 -1 1
329 6 6 0.2487 9.222192743095913 14.005237428613578 3.4950706275642744 0 -1 1
144 3 5 0.053 2.3745430064411623 12.449691398869566 9.787042907498146 1 -1 1
141 3 5 0.053 2.015854874258413 10.772188716326182 9.06987240787582 1 -1 1
567 10 5 0.053 9.185973162917762 13.899886076888624 7.957303658474745 0 0 0
569 10 1 0.027 9.288519240375818 13.440208883663175 8.918922808572276 0 0 0
462 8 4 0.0265 8.800384605296248 17.552990733114918 9.729819062934434 0 0 0
568 10 3 0.08 8.446774381901378 12.35754942894042 9.334748996789934 0 0 0
565 10 5 0.053 7.536032583944601 12.20410372893688 8.758340837056004 0 0 0
361 8 1 -0.159 4.517473122376009 18.71640936404475 9.696897587105903 0 0 0
362 8 5 0.053 3.54893553874114 18.647656653165377 10.209709414405546 0 0 0
426 8 5 0.1268 10.309084963076769 15.926169700375906 5.45017812131997 0 0 0
71 3 1 -0.106 1.7925280746432906 16.27612185643647 7.035044032188544 0 0 0
571 10 1 0.027 8.897450606485485 11.2046471538725 10.31017386186545 0 0 0
205 3 5 0.053 1.790964960531511 18.08918293579856 8.034702545643515 0 0 0
203 3 5 0.053 1.741516866510506 16.81077286497036 9.269377154851984 0 0 0
385 6 5 0.053 10.257531163495708 15.767831667977392 2.8926549952739062 0 -1 1
376 8 5 0.1268 10.744794694057212 13.650082974321993 4.592372424844639 0 0 0
564 10 9 -0.266 8.35513242680081 13.729529831710142 9.950683750387075 0 0 0
178 5 5 0.1268 7.997188401705582 11.956187516337021 1.4206244775409251 0 0 0
183 5 5 0.053 10.101527146860889 11.124978265371608 2.430896030120171 0 0 0
93 4 5 0.053 19.414424985739863 11.909728314390433 3.7402209944377307 0 0 0
94 4 5 0.053 19.142747875516534 13.157209137021544 4.8953134145822546 0 0 0
107 2 9 -0.266 1.7666266531200372 19.304810026203192 1.8620195587239285 1 -1 1
187 5 1 -0.106 10.515399824539275 10.688338321118502 1.567618825000711 0 0 0
11 1 4 -0.1268 12.226663042045208 1.3910071379412017 2.8133873008297634 0 0 0
221 8 5 0.053 11.484844602143614 18.27296286049893 5.759918471468132 0 0 0
99 1 5 0.053 18.428787132280753 19.073801683481506 4.499796094449327 0 -1 0
9 1 10 -0.1595 14.252296529981518 1.4009419899475481 4.125301855261899 0 0 0
3 1 1 0.027 17.314750885363345 19.11937828191936 4.532812858949743 0 -1 0
365 8 5 0.053 14.398452203628247 12.84273398407805 4.098640000668711 0 0 0
91 4 4 0 17.432595110031265 14.60218129120422 3.368025505856288 0 0 0
36 3 5 0.1268 14.60304202147444 17.671224777567176 8.724376080397393 0 -1 1
148 3 4 -0.1268 17.683062214679737 13.802062522209651 7.972322258700757 0 -1 1
451 10 5 0.053 10.341215253485162 13.53216694803511 9.170374865109476 0 0 0
101 3 5 0.053 1.533561261878605 15.125559902441328 7.168145779808967 0 0 0
87 4 5 0.053 13.44363669960711 15.004486130795772 3.0637958611222285 0 0 0
38 4 5 0.053 1.858133280523161 13.354891925316952 3.600494141529833 1 0 0
149 3 4 -0.1268 18.3318111300529 13.01030622225686 10.138964727743655 0 -1 1
386 9 4 -0.1268 13.643689734938453 10.594220556223865 8.066404195698206 -1 0 0
220 8 5 0.1268 11.708382483254685 15.955166893390343 8.957367103561403 0 0 0
109 4 4 0 17.967964912103476 12.832944666824716 1.7158562601687533 0 0 0
95 4 8 -0.4974 17.748574947141954 15.233632148940838 4.600549543470358 0 0 0
217 8 4 -0.1268 10.83089797286137 16.67142062140776 8.886768750412863 0 0 0
143 3 10 -0.1595 19.56244572170533 12.393547130467766 8.107448184492203 0 -1 1
343 9 4 -0.1268 18.77118459668022 8.095200749836295 10.36060930213807 -1 0 0
96 4 6 0.2487 17.584134103110635 16.25633583314147 4.422198341659452 0 0 0
218 8 4 0 12.252014881240997 16.25211847296743 6.228959983450999 0 0 0
146 3 4 0.0265 18.51304083720933 13.028411151041993 8.769077280271723 0 -1 1
375 8 5 0.053 16.36717440719498 11.92460419638374 5.631962992966593 0 0 0
535 3 5 0.1268 15.928887422707772 19.465579071500798 8.115913679011975 0 -1 1
364 8 5 0.053 13.146235589116351 11.635514898698842 3.3888689304512454 0 0 0
188 8 4 -0.1268 13.604434423547014 14.238158676236226 6.118906480089764 0 0 0
215 8 5 0.1268 14.228745190969184 16.174366495800296 7.041157653776487 0 0 0
26 3 4 0.0265 17.450439021333985 19.37953963157416 9.754508616456178 0 -1 1
202 3 5 0.053 18.778276854611 17.13612707067319 8.261082333111506 -1 0 0
382 9 5 0.1268 13.225501770871034 11.607607920118127 8.006583911577167 -1 0 0
424 8 4 0 10.821238596914657 17.566969601317517 7.818005532903137 0 0 0
33 3 4 -0.1268 15.522455970257633 17.820933542691705 9.373429325152998 0 -1 1
374 8 4 -0.1268 11.51396030457078 14.21333042156747 5.092318337483331 0 0 0
30 3 4 0 15.968351277992355 16.984637710400857 10.365202630022953 0 -1 1
204 3 1 -0.159 1.4066305393292684 17.10605770084151 8.23123370370592 0 0 0
75 3 5 0.053 19.649145229372607 16.65445926751027 6.199618773931223 -1 0 0
89 4 1 -0.106 15.435566049109198 16.056423191156433 3.167423295976799 0 0 0
1 1 9 -0.266 16.688247683019696 18.371642566932984 5.570596704897077 0 -1 0
32 3 4 -0.1268 16.31549282202704 18.948521958618556 9.014379401896445 0 -1 1
83 4 5 0.053 13.290104724339127 16.692905038193814 3.0530945603892983 0 0 0
35 3 5 0.053 14.47203711842769 15.38612033839652 9.95307791101627 0 -1 1
10 1 5 0.1268 12.822548760628054 19.274873564965738 2.064517973037014 0 -1 0
145 3 5 0.1268 17.74249185541826 13.738717968124844 6.923060337656306 0 -1 1
369 8 10 -0.1595 12.761536104006984 12.195781173331083 5.196341086859144 0 0 0
216 8 4 -0.1268 13.470116667885886 15.61440440406946 6.432386092787635 0 0 0
37 4 6 0.2487 19.248019250644496 11.233393639660184 2.0320625112382276 0 0 0
427 8 5 0.053 12.79026735438226 18.138487854996313 6.977332329758294 0 0 0
2 1 5 0.053 16.965351882436625 18.970625695267238 3.563602777288309 0 -1 0
184 8 5 0.1268 14.616128899727443 13.703941450037895 6.484265088873533 0 0 0
425 8 4 -0.1268 11.297302807592818 15.527709648888512 5.5938762488009335 0 0 0
62 4 5 0.053 15.471396823202838 16.050326873074265 4.236307212534411 0 0 0
371 8 4 0.0265 12.645171009136117 13.505791900953193 5.428222916207555 0 0 0
391 9 5 0.1268 15.551168507940691 11.361733728485948 8.60737385618455 -1 0 0
112 4 4 0 18.21968820813246 13.469756168922538 2.9120548538945075 0 0 0
29 3 4 0 16.458340252299045 14.630548741719723 9.908063813066034 0 -1 1
110 4 5 0.053 13.882375379016848 15.98202088507017 1.701902925373221 0 0 0
219 8 1 -0.106 11.857534241240558 17.629997290412177 6.614559796620388 0 0 0
92 4 1 -0.159 19.30993025474058 12.938261714264145 3.877857771288034 0 0 0
24 3 4 -0.1268 16.693423954044096 14.620649840736515 8.52889479720291 0 -1 1
268 4 4 -0.1268 16.148098965582793 14.374617999866953 1.3842397363756949 0 0 0
97 4 6 0.2487 18.658143035467802 15.066815465442549 4.9257512554899385 0 0 0
367 8 1 0.027 13.753790500344264 11.921730957349578 4.252246905426496 0 0 0
85 4 1 -0.159 13.985712711458898 15.891371550557833 2.758199806380488 0 0 0
111 4 4 0 16.358956644892622 14.999541364395878 2.616759762688287 0 0 0
582 2 5 0.053 18.49482620656886 17.21308796148878 2.5304172302566963 0 -1 1
464 6 6 0.2487 3.9450005694679655 14.822952270292696 1.4670896376379203 0 -1 1
115 1 5 0.053 4.400929871969128 9.005544675714562 10.311189379078437 0 0 0
389 6 5 0.053 10.33320157096272 13.477102724261993 1.5708364306810008 0 -1 1
31 3 1 -0.106 15.415272728947091 15.561252161305216 10.499973931700202 0 -1 1
452 10 5 0.1268 12.677932649905664 10.01923811948599 10.452843740098881 0 0 0
120 1 5 0.1268 8.054453668729174 6.358192151277402 1.3867555441881478 0 0 0
313 2 9 -0.266 11.641019011554619 3.7399578604855273 10.56494901353734 0 0 0
210 10 1 0.027 18.13342375495168 8.048367699023938 1.5062267956669544 0 0 1
461 8 10 -0.1595 7.677551885436466 17.49048812442875 10.571289046851117 0 0 0
191 5 5 0.1268 13.184826341804555 10.001196742485345 1.763826258099158 0 0 0
584 11 5 0.1268 7.345644443970853 6.395614763906199 16.10318963926979 1 1 0
469 11 4 0.0265 5.366162035980907 4.555970872883234 18.08087962686438 1 1 0
470 11 4 -0.1268 5.792195376816463 5.605496323358202 17.270563778580048 1 1 0
331 11 4 -0.1268 6.012637054763855 3.3060887474150844 17.991816633593423 1 1 0
272 11 5 0.1268 7.658613854484417 2.124185378430162 17.067191409191075 1 1 0
585 11 4 -0.1268 7.002559744862212 5.465229982400593 16.634417333911284 1 1 0
333 11 4 -0.1268 7.132370243719693 3.1219684374038366 17.15934202323617 1 1 0
516 11 4 0 7.633727510806249 4.228684141247915 16.489122903498608 1 1 0
515 11 1 -0.106 8.781817364272865 4.125566655827487 15.556793593853216 1 1 0
514 11 5 0.053 8.662137013062065 3.354461958982995 14.819211912097856 1 1 0
513 11 5 0.053 8.840125379304439 5.050763451043446 14.962113882011563 1 1 0
330 11 5 0.1268 5.733960082182909 2.3860308464814746 18.54438817196418 1 1 0
468 11 5 0.1268 5.313658777878178 6.61117029065485 17.19322556813838 1 1 0
525 9 5 0.053 2.4508759721592543 4.852459689564402 15.544755482878799 0 0 0
52 5 5 0.053 7.320443051287216 8.670850695970229 14.775534398532468 0 0 -1
475 11 4 0 10.149490652096835 3.9101065736115523 16.261979320267045 1 1 0
164 8 5 0.053 5.6247553566803505 2.833772211970972 13.96948806865994 0 1 0
165 8 1 -0.106 6.042510491026042 3.6071942598893645 13.245528524630673 0 1 0
166 8 5 0.053 6.953557772568858 3.8180418043247237 13.736166111764508 0 1 0
159 8 5 0.053 4.766166883698414 4.970234231903828 14.453737201504802 0 1 0
347 8 4 0 6.093294251582298 3.039457504296338 11.857878310680642 0 1 0
162 8 1 -0.159 5.10187769626382 4.849854508568507 13.392648688449007 0 1 0
160 8 5 0.053 5.534387507343776 5.840675432418136 13.0631587526752 0 1 0
61 5 5 0.1268 8.930276926095196 8.893939726320781 15.946989989368621 0 0 -1
161 8 5 0.053 4.20358541350266 4.6738372996364035 12.760850506490712 0 1 0
577 10 4 -0.1268 9.847909012010048 9.362639352327054 12.216200853966944 0 0 0
562 11 5 0.1268 10.176851025411132 5.73289017974323 17.375729347260688 1 1 0
579 10 5 0.1268 9.584200888092296 7.648525911291456 13.520827944990755 0 0 0
574 10 5 0.1268 8.783716955090568 9.700175416148518 12.30226009320399 0 0 0
78 5 1 0.027 4.165299590566908 9.648669371764267 13.928367697089596 0 0 -1
476 11 5 0.1268 10.451271512952575 2.0662331914331418 15.160559062380381 1 1 0
477 11 4 -0.1268 10.726435888084668 4.852996366624099 17.0885870210156 1 1 0
467 11 10 -0.1595 4.196579528726181 4.819098283412858 18.78693581718162 1 1 0
60 5 4 -0.1268 8.69110978832425 9.637829050219851 16.747840728511356 0 0 -1
190 5 4 -0.1268 9.647632729722726 9.776171796743906 17.779136420755925 0 0 -1
518 9 5 0.053 1.7567808442759008 5.574976690542753 13.180112565243096 0 0 0
521 9 3 0.08 1.470010293871322 5.396372689534687 15.357529884483379 0 0 0
157 1 5 0.053 5.120231577396769 7.5499318262207575 11.175482585394608 0 0 0
77 5 9 -0.266 4.681135214114297 8.31104898148904 13.950930442486877 0 0 -1
79 5 3 0.08 5.625460776819005 9.389093265916438 13.747441516102288 0 0 -1
524 9 5 0.053 1.9442561116781785 6.996306612860014 14.155433963858972 0 0 0
58 5 4 0.0265 7.4312987798838455 10.24687333785367 16.94019651775832 0 0 -1
59 5 10 -0.1595 6.390264346054013 10.03050048955076 16.081407692191853 0 0 -1
578 10 4 -0.1268 10.24832458540973 8.156314307900821 12.804440485325618 0 0 0
520 9 1 0.027 19.759382433170856 6.121861373522418 14.016475681722481 -1 0 0
55 5 1 0.027 6.758989785309898 9.622736824602478 14.749794311974854 0 0 -1
517 9 5 0.1268 1.8135555394601506 7.226168435386637 11.59397305440724 0 0 0
237 7 5 0.1268 1.7546025322260466 1.7382748952276554 15.26289886216038 0 0 0
175 8 7 0.4241 7.9478395300449955 1.4765664196178048 11.75416642585532 0 1 0
351 8 4 0 5.58840837948588 1.7674361868625632 11.476892709717411 0 1 0
76 5 5 0.053 3.5608764461397207 10.002043874404723 14.794401751781322 0 0 -1
80 5 5 0.053 3.5482912132044544 9.886368917153803 13.086784176944235 0 0 -1
243 8 11 -0.5571 8.275968663817647 19.673775747858883 12.686544268978466 0 0 0
526 9 5 0.053 18.801547197170407 4.452594193126594 17.09848133103727 -1 0 0
311 2 1 0.027 10.626557160912641 3.606289614696429 11.510789445561594 0 0 0
308 2 5 0.053 10.954569687197319 3.5807696637198396 12.578658172313949 0 0 0
39 1 11 -0.5571 4.229074414344705 9.541005514853888 19.387019866006845 0 0 -1
186 5 4 0 9.436825120052365 10.523264923525161 18.981676817644555 0 0 -1
449 1 7 0.4241 3.396404723756652 9.667602008394264 18.92649218205684 0 0 -1
575 10 4 0.0265 10.685444629493539 10.015990473759596 11.314526687370577 0 0 0
25 3 4 -0.1268 17.28810689499079 13.823379985946145 10.687444786722603 0 -1 1
172 1 5 0.053 6.248245308789491 7.867202926451801 19.61124778624864 0 0 -1
284 9 5 0.1268 15.462941421143695 8.570169064808232 10.981940138584577 -1 0 0
170 1 5 0.053 3.9352752531805097 7.499826800633744 19.667241613228946 0 0 -1
314 2 5 0.053 9.712138894900027 4.159581162608619 11.389809660578514 0 0 0
478 11 4 -0.1268 10.954644264084912 2.814053656692442 15.881429911706872 1 1 0
519 9 9 -0.266 19.57858869070943 6.341638808153398 16.439165232194327 -1 0 0
192 5 5 0.1268 10.57595543565685 9.162284170636491 17.610659041931882 0 0 -1
523 9 1 0.027 18.71228413969081 5.244223574959623 16.304968272031005 -1 0 0
486 11 9 -0.266 16.541076780645398 4.522487280729099 19.456603930918874 1 1 0
508 3 5 0.053 18.740014028638754 2.9833947383306603 11.135090529045726 0 0 1
207 10 5 0.053 18.372031772729883 7.0241038934517555 19.689237985767164 0 0 0
350 9 4 -0.1268 19.210922987676724 7.540502132989512 11.557780650924455 -1 0 0
536 6 5 0.1268 19.41882805211838 9.207414602444913 16.042898107505227 -1 0 0
348 9 4 -0.1268 16.541372585175964 8.269501681284599 11.092684078303334 -1 0 0
211 10 3 0.08 17.369119538671782 8.78671779075817 18.921917814090705 0 0 0
522 9 5 0.053 17.622394274689114 5.328662046249634 15.92073801119599 -1 0 0
493 11 5 0.053 16.73976167086523 3.5493197126865503 17.501892519120254 1 1 0
479 11 4 -0.1268 12.024076128677402 4.785491782971135 17.50601462762657 1 1 0
236 7 5 0.1268 18.422982047518353 3.1770044870251075 13.65565589397801 -1 0 0
358 9 10 -0.1595 18.40804033844386 6.454786465890356 13.624378269563499 -1 0 0
353 9 4 0.0265 18.213198670600903 7.2143903173218416 12.473073616782557 -1 0 0
209 10 5 0.053 16.589133099993358 8.596833164370121 16.899114157241712 0 0 0
480 11 4 -0.1268 12.26812670324986 2.6881802484896484 16.302471498369364 1 1 0
290 9 5 0.1268 16.05198341624261 7.301015845981743 12.894202481578315 -1 0 0
241 7 10 -0.1595 14.606322401183794 4.226072364955481 11.443537729241877 -1 0 0
563 11 5 0.1268 12.525234356028559 5.629697007619381 18.038868798239484 1 1 0
482 11 4 0.0265 12.81172316184275 3.6385801476276782 17.144878507785677 1 1 0
484 11 10 -0.1595 14.101707378510508 3.435097285504461 17.47605929178743 1 1 0
235 7 4 -0.1268 17.3880339276649 2.924103227218775 13.483450949275143 -1 0 0
460 10 5 0.053 11.428152927846485 5.7546134916884375 13.689175486145148 0 0 0
580 10 4 0 11.61132595715152 7.735832292026427 12.754521809608898 0 0 0
239 7 4 -0.1268 16.701015876857305 3.6792905861035514 12.548838115086049 -1 0 0
208 10 1 0.027 16.594128482170504 8.100759056103078 17.82936208697341 0 0 0
487 11 1 0.027 14.231980543089362 3.5819112866091762 18.89015403008836 1 1 0
419 10 5 0.1268 14.158527351329658 5.037818844812262 14.818820673975983 0 0 0
418 10 4 -0.1268 13.92705431398098 6.018948675674504 15.323665192194275 0 0 0
414 10 4 0.0265 14.449789557539741 7.613843175221432 17.129316206972273 0 0 0
417 10 4 0 12.977304613048492 6.891289424723523 14.749211650547565 0 0 0
416 10 5 0.1268 15.600182186782732 5.833932291350223 16.744350828111944 0 0 0
415 10 4 -0.1268 14.731156747278805 6.405706600553906 16.463919594395527 0 0 0
413 10 10 -0.1595 15.15936456511203 8.058709815239261 18.208129359367454 0 0 0
455 10 4 -0.1268 12.665106129653205 7.99642401253508 15.533649284634267 0 0 0
412 10 4 -0.1268 13.311045265918743 8.320066865085254 16.752937768817027 0 0 0
581 10 1 -0.106 12.189382349765209 6.554868147292243 13.446673740481776 0 0 0
549 10 5 0.053 12.869396034702477 6.187152051205055 12.659782939454388 0 0 0
234 7 4 -0.1268 14.62564642230429 2.5796267336110157 13.192435526245605 -1 0 0
238 7 4 0.0265 15.354413427069813 3.4817586605394997 12.369858703293119 -1 0 0
454 10 5 0.1268 11.970264389563342 8.655257115440481 15.09328121950936 0 0 0
411 10 5 0.1268 12.994516085990961 9.265384481042732 17.3618635822435 0 0 0
457 10 5 0.1268 13.495015124884404 8.197170521686907 11.909520893234728 0 0 0
456 10 4 -0.1268 12.445954738838992 8.43544474052269 11.870202739078286 0 0 0
206 10 5 0.053 17.009122375495075 7.126826431417168 17.642888219368643 0 0 0
118 7 5 0.1268 13.562321286803382 2.445687596542826 13.125206816995435 -1 0 0
352 9 4 -0.1268 16.867752027239682 7.638931234890778 12.236601465777705 -1 0 0
453 10 4 -0.1268 12.039654500097372 9.513001908482572 11.163712285892183 0 0 0
233 7 4 0 16.704240193444534 2.0291491687383374 14.30501035350487 -1 0 0
240 7 5 0.1268 17.178367217741215 4.3962373699845365 11.869408828362603 -1 0 0
232 7 4 -0.1268 15.324348658187326 1.9637706425363792 14.24751386230834 -1 0 0
481 11 5 0.1268 12.881325175912703 1.9005390613399373 15.948445807879859 1 1 0
440 6 5 0.1268 17.527770089172094 8.866055615033948 14.606154682796603 -1 0 0
490 11 3 0.08 15.648722839743606 3.354108118860819 19.478489505910183 1 1 0
485 11 5 0.053 13.881857573610839 4.561760776419067 19.158541447659054 1 1 0
492 11 1 0.027 16.842032316232714 3.4605175549887877 18.621370540705122 1 1 0
226 7 5 0.053 17.825685711011005 2.1418556008930603 16.059782371785843 -1 0 0
213 10 9 -0.266 18.757514273603945 8.785647187769005 18.803731681893744 0 0 0
494 11 5 0.053 17.737669114050114 2.906602181929763 18.849108108687915 1 1 0
560 6 4 -0.1268 18.923206943701523 10.017961141297993 15.647203662347264 -1 0 0
557 6 4 -0.1268 17.85983845875139 9.87168997224898 14.768185943839747 -1 0 0
429 6 5 0.053 15.721563780157874 9.59923095512025 13.181599608715418 -1 0 0
309 2 5 0.053 12.784203685167421 1.676249597413632 11.421045120497213 0 0 0
441 6 5 0.1268 14.500357037231614 10.225776618032436 15.430963448953344 -1 0 0
256 8 5 0.1268 9.93980861903163 16.16296509863784 10.81735133286226 0 0 0
341 8 5 0.1268 7.090364780675217 4.85281902664463 11.175657099897297 0 1 0
506 2 5 0.053 18.801660660680596 16.143595647851285 19.580426943971453 0 -1 0
104 2 5 0.053 1.5035540041830515 19.651343543188318 18.072996318969672 1 -1 0
230 7 5 0.1268 14.875397457067866 19.580650080433074 14.78558446234352 -1 -1 0
312 2 3 0.08 10.967316602883448 2.503449157069653 10.662779782573454 0 0 0
530 3 5 0.053 19.773015467349698 1.7130191212265853 10.64628346421334 0 0 1
573 10 10 -0.1595 10.312029517516352 11.17931367881286 10.611762013737653 0 0 0
242 8 5 0.053 6.062622213979764 19.278029877694586 14.273027790700214 0 0 0
81 5 5 0.053 5.970487776164165 9.436053210633396 12.727365639111374 0 0 -1
214 10 5 0.053 16.862131513791052 9.756895627348387 19.21533709588759 0 0 0
491 11 5 0.053 13.588179512792868 2.901593902617082 19.322468985574467 1 1 0
332 6 5 0.053 10.51919789307378 16.551651944477896 19.651830464509707 0 -1 0
442 6 4 0.0265 12.105897569215228 12.430979345630568 14.444198080544732 -1 0 0
54 5 5 0.053 7.396283419816573 10.343789788718782 14.279403939809702 0 0 -1
566 10 5 0.053 8.340635934465688 11.431264411945548 11.196345253892833 0 0 0
181 5 4 -0.1268 7.220624729106626 10.973808750039044 18.07665643453109 0 0 -1
155 4 8 -0.4974 18.82947576899533 11.810409567782433 19.74339312095048 0 0 -1
471 11 5 0.053 4.049694703542293 2.8551904582971295 19.57857136372631 1 1 0
182 5 4 -0.1268 8.172070167688448 11.145031830510783 19.09830679597929 0 0 -1
51 5 5 0.1268 6.234475792782855 11.249140820494125 18.384328791848276 0 0 -1
173 8 8 -0.3314 5.044280414671631 19.18900545478251 12.462657421754402 0 0 0
106 2 5 0.053 3.1579179710958853 19.248044600563 18.704583673289292 1 -1 0
201 7 4 -0.1268 1.4757477344627306 19.186902515639062 14.870727948014583 0 -1 0
541 7 5 0.053 5.279363033880042 13.765042457963563 10.782848032886406 0 -1 0
244 8 1 -0.0233 6.033282169869495 18.603933790329535 13.467018113150118 0 0 0
323 6 4 -0.1268 8.084386719499237 15.951452989370475 18.61302828843108 0 -1 0
583 6 5 0.053 5.189015839980266 18.606909353351526 16.655450923315122 0 -1 0
245 8 5 0.053 5.671123814286502 17.596525366708363 13.663550804380684 0 0 0
246 8 5 0.053 7.960455935825223 18.164360857086734 13.960752179830848 0 0 0
247 8 2 0.08 7.555353374520819 18.46607731369722 12.996947167120666 0 0 0
459 8 5 0.053 8.833733347125158 16.862074605474525 12.190892104047746 0 0 0
171 8 6 0.2487 4.6272651457846905 18.390681663885587 11.963971142772063 0 0 0
509 6 5 0.053 6.157077469629059 18.514021543600954 18.13413228901824 0 -1 0
324 6 5 0.1268 8.769763103981624 16.358560281203417 17.832240521170135 0 -1 0
548 7 5 0.053 5.361441033024875 15.363395143413069 11.554804913170404 0 -1 0
252 8 1 0.027 7.861967128653364 17.33167091919814 12.026904713757817 0 0 0
537 6 5 0.053 3.7335427412475135 12.315623175884049 16.521150115841316 0 0 0
316 6 5 0.053 7.018867129717987 16.999140377968804 16.480329040517354 0 -1 0
319 6 1 -0.106 6.201511200491075 16.655389348909203 17.108845538910053 0 -1 0
404 7 4 -0.1268 2.4284795808204116 18.323344546483362 14.353115660283551 0 -1 0
561 6 1 0.027 2.7618097413420744 12.635110958398657 16.794202074865233 0 0 0
406 7 1 0.027 2.5674818216024713 14.944101496296286 12.927241222094901 0 -1 0
405 7 3 0.08 3.6289452839011336 14.099625525427513 12.183137685763256 0 -1 0
544 7 1 0.027 4.929685139137394 14.413321925944576 11.586199496298647 0 -1 0
543 7 9 -0.266 4.845493988181809 13.829249112734923 12.871079518530518 0 -1 0
402 7 10 -0.1595 2.8780981347615295 16.297555963743513 13.268087583170516 0 -1 0
510 6 1 -0.159 5.502648845333312 17.908405856685235 17.517977596259627 0 -1 0
409 7 5 0.1268 3.4413273079506257 18.65710671207249 14.200161121215555 0 -1 0
552 6 5 0.053 3.7925223383654267 15.145408617192587 17.02009291886052 0 0 0
86 6 2 0.08 2.8546197367090316 13.59678801222101 18.06176514155471 0 0 0
200 6 5 0.053 8.148742620258012 14.059305486308551 13.183287937659728 -1 0 0
197 6 3 0.08 8.778295883069411 14.07434546074988 14.11738049553828 -1 0 0
199 6 9 -0.266 8.550907211911003 15.074858147437459 15.080951501655365 -1 0 0
198 6 5 0.053 7.009734911461883 13.650660205351405 15.25804322295008 -1 0 0
408 7 5 0.053 1.5939343424261752 15.070670979974668 12.296886871258701 0 -1 0
465 6 5 0.053 5.594793863801702 16.061584304901928 16.475996505291615 0 -1 0
90 6 5 0.053 2.5346167713809815 13.172368126570639 15.893716015992808 0 0 0
253 8 5 0.053 7.109663885221036 16.498205719149617 12.208975648800573 0 0 0
538 7 5 0.053 3.1508853520280278 13.128257874933222 11.923210158412815 0 -1 0
82 6 5 0.053 4.875544267052367 13.911912086905202 17.368883440768542 0 0 0
511 6 5 0.053 4.598057756396814 17.843247668484914 18.180491067285303 0 -1 0
321 6 4 0 6.739054830625876 15.841760022797672 18.345528327302354 0 -1 0
84 6 1 -0.0233 4.0339735826369 14.457908228725332 17.876992763556103 0 0 0
88 6 5 0.053 3.1535335991677713 13.020869597629689 18.980586782566867 0 0 0
196 6 1 0.027 8.049390656671495 13.758244686525305 15.382689788399146 -1 0 0
194 6 5 0.053 8.577925484895513 13.105784198955691 16.18065700879987 -1 0 0
400 7 4 0.0265 1.986134943925768 17.026741068426965 13.98892087547558 0 -1 0
559 6 11 -0.5571 1.685299802403232 14.376408740133636 18.325313419140187 0 0 0
410 7 5 0.053 2.2035106965553317 14.463377457248464 13.831511748877292 0 -1 0
317 6 8 -0.3314 4.466159270351191 15.227742522107325 19.057262927590784 0 -1 0
558 6 10 -0.1595 1.9140529990451933 11.47255356096726 16.88231943072359 0 0 0
320 6 4 0 5.873707698340458 15.224824511987944 19.21250508673343 0 -1 0
105 2 1 0.027 2.0804063265140575 19.161529251690517 18.8934908849742 1 -1 0
300 2 5 0.1268 10.21886923171583 17.922158716727523 14.200769801681917 0 -1 0
344 8 4 -0.1268 6.622119296687438 3.819220262007109 10.92106578299338 0 1 0
381 6 5 0.053 10.436374805013351 14.33136024958823 18.510290046186597 0 -1 0
108 2 3 0.08 1.7421244369203377 17.94783557097704 19.64111215667733 1 -1 0
163 6 5 0.053 9.934137104134152 12.960730449556902 12.99388634419123 -1 0 0
195 6 1 0.027 10.181363404366493 13.65237543081722 13.840651859043037 -1 0 0
299 2 4 0 13.117670365797332 16.37846057600386 14.716074497957187 0 -1 0
553 6 4 -0.1268 17.419122166270874 12.236368589254617 14.667422664357114 -1 0 0
554 6 4 -0.1268 18.517443078279896 12.441781534303905 15.48507631834918 -1 0 0
504 2 1 0.027 18.748435955744206 17.258329710270893 19.788616420944507 0 -1 0
310 2 1 0.027 11.775412485021738 1.3828086607890313 11.126008992741122 0 0 0
259 4 5 0.053 14.650975680129354 11.809311335174424 19.596234279369 0 0 -1
306 2 10 -0.1595 11.14449953535736 19.104247226358957 12.278294377326295 0 -1 0
555 6 4 0 17.113337928985842 10.928602066562373 14.240158046117763 -1 0 0
431 6 5 0.053 16.22776538488073 11.005707651231315 12.221539149766578 -1 0 0
434 6 1 -0.106 15.931179973164232 10.668689973222138 13.252959633003249 -1 0 0
437 6 5 0.1268 12.26824038231419 13.44352184381105 12.43971851629952 -1 0 0
302 2 4 -0.1268 13.83437911220481 16.931716275707927 13.618382297070497 0 -1 0
229 7 1 -0.106 17.431943576121533 19.769640220501024 15.423721000898555 -1 -1 0
261 4 5 0.053 16.84247460221038 11.5201051183902 18.07265954562211 0 0 -1
458 2 5 0.053 14.371781590205313 14.648889112677953 14.992270355343388 0 -1 0
264 4 5 0.053 14.429487758678516 11.316769799085645 17.96124019768545 0 0 -1
501 2 10 -0.1595 17.61054447736619 17.847776587497478 19.193628893378147 0 -1 0
445 7 4 -0.1268 18.177935780468836 17.586380282172996 14.542023906053716 -1 -1 0
231 7 4 0 18.544847492172075 18.837174696922162 15.001717756967246 -1 -1 0
550 6 5 0.1268 16.75466224794306 13.103015000031819 14.427387026821659 -1 0 0
433 6 5 0.1268 14.37253241008871 12.559953725727569 11.892138645588151 -1 0 0
189 5 5 0.053 11.259012487141549 11.356471615631065 19.573763040183763 0 0 -1
394 6 10 -0.1595 10.93848766625556 12.954454703392575 14.832363108916507 -1 0 0
396 7 5 0.1268 18.66209701499745 15.806785444888307 13.595199647214745 -1 -1 0
318 6 7 0.4241 19.352415141414312 13.797585994400979 18.378284250944695 -1 -1 0
265 4 5 0.053 14.134327022550936 12.97050905102791 18.32685497281353 0 0 -1
267 4 4 0 16.855230603040006 13.204691483020596 19.42383264294216 0 0 -1
296 2 5 0.1268 11.284775530262303 16.149877015917518 15.578918358145241 0 -1 0
502 2 4 -0.1268 14.517870425537764 17.21911472418358 17.2859992995046 0 -1 0
395 6 5 0.1268 12.29538908924263 11.099386615205024 16.063766130119205 -1 0 0
263 4 1 -0.159 14.795863763088875 12.112577425466231 18.57734739696364 0 0 -1
153 4 6 0.2487 18.465542132807798 11.227749009546214 18.99837917149219 0 0 -1
435 6 4 -0.1268 13.890055975992974 12.156952550826228 12.840531854249644 -1 0 0
266 4 5 0.1268 15.337110124458972 14.69007809192943 19.190694549068205 0 0 -1
303 2 5 0.1268 14.835252463622009 16.49751754659141 13.390376507452011 0 -1 0
497 2 4 -0.1268 16.209394412091278 15.834676887070708 16.506996352457875 0 -1 0
304 2 4 0.0265 11.87967458803806 18.273295769347307 13.066122452084437 0 -1 0
262 4 1 -0.106 16.308123770548427 12.4825424908999 18.26202645508576 0 0 -1
398 6 5 0.053 10.695763103608403 14.565880455015348 13.392371523786203 -1 0 0
23 3 4 -0.1268 17.165796037745814 17.324406714569818 11.025721998428347 0 -1 1
228 7 5 0.053 16.807484108471257 19.146514347712667 16.08719633770515 -1 -1 0
505 2 5 0.1268 15.139990433026473 18.590262412295147 18.841833504831484 0 -1 0
20 3 5 0.1268 18.623684706942925 18.743845401934337 11.53148723616687 0 -1 1
438 6 4 -0.1268 12.72568168334423 12.757349148076884 13.180446077302928 -1 0 0
27 3 5 0.1268 17.202013292694915 13.722301985417788 11.756077884027611 0 -1 1
22 3 4 -0.1268 17.87463471522667 18.52550754821268 10.816649748083844 0 -1 1
295 2 1 -0.106 13.91821783072717 15.428478476414414 15.649445942286295 0 -1 0
500 2 4 0.0265 16.78064369409904 17.341279024944406 18.23020369701313 0 -1 0
444 7 5 0.1268 17.08247672264247 17.430664479344003 14.673784486423802 -1 -1 0
498 2 4 -0.1268 17.18473281398885 16.341697325756193 17.34699436135478 0 -1 0
556 6 4 0.0265 19.26229412424137 11.344286188314952 15.967808131698133 -1 0 0
499 2 4 0 14.861274304235412 16.193677322085435 16.442406422226515 0 -1 0
307 2 5 0.1268 13.817874247194798 18.30212399299309 11.93344560930141 0 -1 0
301 2 4 -0.1268 11.256363690820287 17.652930519391 14.084034381945147 0 -1 0
383 6 1 -0.159 10.731405494247475 14.366214821079648 19.63059149998604 0 -1 0
551 6 5 0.1268 18.746464663917664 13.419734572615088 15.926753613315078 -1 0 0
305 2 4 -0.1268 13.220565508560286 17.897403342565887 12.744644520428379 0 -1 0
147 3 5 0.1268 18.995481544114895 12.406709580399474 10.83145458140127 0 -1 1
495 2 5 0.1268 16.458626523396493 15.034236747079351 15.82138141261878 0 -1 0
397 7 4 -0.1268 19.083908836722813 16.687583800611975 14.000693516075847 -1 -1 0
503 2 4 -0.1268 15.48581021743193 17.829710890975818 18.129810958530605 0 -1 0
21 3 5 0.1268 17.50129551709955 16.703242187263513 11.834448939297658 0 -1 1
34 3 5 0.053 15.21185338122962 15.362918012042666 11.598422741936876 0 -1 1
436 6 4 0 14.642880713387235 11.322293716372206 13.649158065976087 -1 0 0
298 2 4 -0.1268 11.825461424819395 16.698653141033198 14.883511054909249 0 -1 0
293 2 5 0.053 13.175400304232642 14.846472618032045 16.244151846806602 0 -1 0
260 4 5 0.053 16.300898083876568 13.039323541544347 17.38000256216791 0 0 -1
439 6 4 -0.1268 14.053991357289494 11.010337104087865 14.810444743228429 -1 0 0
463 2 5 0.1268 13.47763610607019 17.56231438475553 17.360279680306217 0 -1 0
393 6 4 -0.1268 12.800373692355777 11.501121659268732 15.193730275336131 -1 0 0
496 2 5 0.1268 18.260176906397177 16.11715934398318 17.33050831631538 0 -1 0
512 6 5 0.053 11.793963244997093 14.321013711660745 19.70764209033433 0 -1 0

Velocities

283 0.001351550805071244 -0.004429354173711743 -0.008148876137034166
281 0.0009584723268543064 -0.004350101579390953 -0.0006411977154380193
278 -0.00030423076429482036 -0.003788637692806398 -0.004085517148943743
277 0.0024798615882660126 -0.0015605908423934928 0.007625763050661379
280 -0.0014622737170623399 -6.87533580798637e-05 -0.0007739969611772855
276 -0.0038647876249812895 0.002817382033119541 -0.004527525574871502
275 -0.008317373776456105 -0.0059630618770826664 0.018224722700280985
45 0.010460311833896802 -0.0042927377948638835 -0.01602743251242194
47 -0.0029815926792762844 -0.0026445443333255486 -0.004195366865561455
40 -0.0295336720309835 0.009881302178607528 -0.0033810446394289748
169 -0.0032487884321869215 0.0016048057831196043 -0.0005767087577180982
41 -0.0071248996569424 0.011134551950025334 -0.005585418630137513
349 -0.001745363640342568 0.0023451039408445284 0.0021052611524108363
403 -0.005868288523266633 0.010290324308704735 -0.00023035876964912005
274 -0.00385200083615137 -0.0007084630604625374 -0.0042079538552514005
50 0.009827212469165757 0.006440988381980196 0.018953471754384058
42 -0.0020821827364919604 0.007313685937225114 -0.010095492940874922
345 0.001908153011477948 -0.0014517584852729193 0.002706920466737423
346 -0.007546414434849926 -0.01382516929705872 0.016003566494881324
116 -0.0001641984665088805 0.000690962695829431 -0.00042413864551575257
114 0.0028309112925927085 0.0008437798245968857 0.017740952753701234
340 -0.00024570452234089966 0.014019301470710923 -0.00629307114620425
227 0.02271184530922106 -0.020229029465144967 -0.010160717612844655
193 0.00013976540266572845 -0.001104642376886896 0.0036331866028187845
49 0.000728839921247345 -0.006766671883035815 0.004296610014945664
174 0.0024894645150020022 -0.0010796328064518323 -0.00437196339375488
401 0.006004665935806106 -0.0028167150275475008 -0.014633776357905972
177 -0.009914763549876322 1.7438829506867632e-05 0.003002333902811344
407 0.025894623093621668 -0.03354678291554238 0.00010421793478124257
56 -0.003385839915829922 -0.002253471689674017 -0.0051848154790971514
399 0.035631378460197136 0.00010579816178028336 0.006586791610063339
273 -0.015270725154604639 -0.012626592063596783 0.016918038651831654
179 0.00582632243493528 -0.024644269706428013 -0.015827760541166143
18 -0.00870024208125369 0.025495135743337134 0.02039454278558889
117 0.021766406042802344 0.020653804651397826 0.00148394297921433
450 0.002458054691286039 0.009070457097289061 0.019839581931595057
124 -0.0032098507630881996 0.0016437949071955382 -0.0030626463879477196
15 -0.0024982288439301596 -0.0034814445258705704 -0.0006455063459775601
326 -0.003449016812123016 -0.0015992712792424132 -0.003492897041915552
168 0.00011143661740276454 -0.0041185506393324415 0.0009355265547804121
113 -0.0007591700958928657 -0.0033182081910919214 -0.0027722690841755033
176 -0.001330011328178018 0.001592301938565277 0.00511451128971212
167 0.0020264716283693008 -0.027377313314580928 0.03321053245497038
531 0.0004442740233813022 -0.002500948425742815 0.003140550525561182
529 -0.020968131421011733 -0.0005910884716453602 -0.007191785471506725
43 -0.005005059224647017 -0.007346632913207464 0.004911244462077693
533 0.0027535636298932067 0.02513845135362637 0.005614919605346242
126 -0.0051165630227656324 0.0262871161795837 0.01780592625386234
570 -0.003059588041309375 -0.025077010810161216 -0.0050977997272152915
354 0.008474898910083913 0.0068092824073471645 0.0008160785639940794
355 0.011550383979311133 0.015098222353331933 -0.019032333274962367
289 -0.005488321158713553 0.006054343892772458 -0.0033822695376371443
282 0.0001650036224932891 -0.0005552428324157209 -0.0017299098692796979
357 -0.0017427159066173575 -0.0038351552971571563 -0.0009254873604234263
270 0.003146104697970281 -0.004921129969950381 -0.001320216294285612
483 -0.01015353084836899 -0.020058559060940503 0.04456487030548055
28 -0.03109046047055377 0.016017044489074046 -0.020521445918391352
57 -0.0010388438346780392 0.030298093393877987 0.006922451183267569
443 -0.009283791383505024 0.0018556650057696123 0.011699174157388493
472 -0.003513758166501388 0.0014678503397481412 -0.0011813378947995415
132 -0.006577089832804902 -0.006717050472891459 0.038271291911296926
473 -0.0006166740639286625 0.0041993195489300065 0.0005172330078337196
474 -0.016308942583545653 -0.010688438651696953 0.012368988070249512
428 -0.004804120994953067 -0.011231364714734328 0.02269067696065344
466 0.00027651508550502826 -0.0004064278220636816 0.002175866314014402
269 -0.0018442174173704936 -0.005403632867375748 -0.00676996338931561
378 0.00211713625045344 -0.006678496822836611 0.024462759091017326
377 0.013960036244478892 0.012768854651657885 -0.0026280454268559337
285 0.0063707942113473085 0.011752133171458871 -0.00011948557675067585
447 0.0013812626288611414 0.0004102344946305837 -0.0018816460226506238
158 -0.011069572518500952 0.012821874675622293 0.011305369356637666
180 0.004920610643723066 0.002457985618372984 -0.007197362268009902
356 0.004110921607245898 0.0038801193041865896 0.0031700572207961
286 -0.004054098693630891 -0.037646694101566285 0.014663771312540354
420 -0.022988941431866146 -0.013191172599922448 0.0005429852189017024
127 -0.033856504662044096 -0.015043032364702825 0.0001577293915793885
53 0.02063986567299321 0.010272136077823209 0.00810429071644022
315 0.011697938398567012 -0.015556940654635691 0.036200994700627244
379 0.005711603695532428 -0.0017183223228230107 -0.004723861009893237
223 -0.006441309310013766 -0.004529809284405456 -0.0028681192076066104
222 -0.006500666074687172 0.0024918738422671552 -0.01699062781233446
122 -0.022555680722521426 0.005437717289965096 -0.023670094058604124
19 0.0023417751104923587 -0.012582713473430257 -0.002567603317913734
17 -0.004836546672408622 -0.003740382181600772 0.0039076939567693515
339 0.005401322975299429 -0.018335370803703472 -0.01555060400269608
528 0.0025621473476939924 0.0014256827026600102 0.002896394227121675
532 0.002962516054361591 0.0013684548533563527 -0.009646885816030697
288 0.0037733735686877636 -0.002375702348777775 -0.000994210855961635
279 0.01996277759856121 -0.00888667252276528 -0.0022936907666758783
287 0.001715987149709317 -0.002071869621936602 -0.001108487651991487
128 0.0005013185426042688 0.00690518460736078 0.0007177887482309819
507 -0.029868134326047884 -0.013178485563664978 -0.0381778321079266
185 -0.0024129494375908756 -0.009074088007608852 0.0040927737807693945
224 0.000609202041165527 0.028504622253681503 -0.0065756723472832216
271 0.04213080485338922 -0.02873529863151405 0.01002219764809437
430 0.0015195462985879307 0.003770462764569939 -0.0057458199140463
489 0.014723136603332534 -0.012338630735935618 0.016576438028829122
342 -0.0016636129727438955 0.0020242629136912366 0.0010521530542802657
212 -0.008374380909855997 -0.009578889871267381 -0.03380539867598057
432 0.003937374568763068 0.01567947035892417 0.0014598431339822077
294 -0.002836782447033225 -0.0023646092418303922 -2.1719669242451737e-06
534 -0.0021499570516924135 0.0031834587339679785 0.0008434156604118657
134 -0.0025186478936734726 0.015581795446056527 -0.0046361967612765335
248 -0.023302735552407545 -0.01619753102773657 0.0064296490663169024
250 0.005678384544079966 -0.0015034406757989996 0.001786432561960951
380 -0.0018899429196356122 0.0033293204992313626 -0.003197280413484942
384 0.0002221311467566811 -0.0029304506668639805 -0.0027917237678561878
387 0.023628645711691678 -0.002997263265914201 -0.011496105885264864
388 0.00626254008632857 -0.0012206471619468514 -0.0027915936455948573
335 0.019243236276819047 -0.01678657458025395 -0.008437041778186596
392 -0.0028566231558972144 0.0010317049140475727 -0.004529317901829022
133 0.0014776543664095385 -0.008226403675677441 -0.009485118427096444
129 -0.0004033267037011972 -0.006755220764686131 -0.0049704546768566185
251 -0.001763078141459335 -0.00036210149531456663 0.0025558000570989736
103 -0.012687535050324895 0.019777894233278883 0.00916749041435712
102 0.015760837632238844 -0.005896496326872098 -0.015122716083868696
125 -0.0030439475553285457 -0.005391453723974563 -0.004824219644788828
131 0.009909299978037456 0.006870656629447129 0.0013467224040499062
291 0.0013427948758671783 -0.0005579389477850968 0.0016630658110308421
130 -3.1771509315826734e-05 0.0008321717984279872 -0.0011201172816460508
334 0.010353381318076149 0.0035507079569448673 0.00278991976031257
337 -0.003544952346128368 -0.004297416689663856 -0.0031098723824208047
123 0.0024507562265365466 0.0005259986791334879 -0.00305679933153165
297 0.01025564170581022 -0.016496409862270103 -0.009355179416205174
249 0.0071175243094500455 -0.00811991558889259 0.003225765271886877
336 0.0056463695499438865 -0.01593597727105426 -0.015322093157533495
292 -0.013294276907386009 -0.01597755785239852 0.015545344397354569
14 -0.000324521736261968 -0.003175524136065029 -9.632828746936728e-05
6 0.01428488661682398 0.022462409142113688 0.021364284000853967
135 -0.007959479161290264 -0.007127491338688266 -0.0009565426012782925
373 -0.009333574383891227 -0.02406551317665098 -3.83741932848927e-05
136 -0.0012429467248635945 0.0026339044917923363 0.004557913750997867
137 -0.04059650997423917 0.023543358816900676 0.010080045752917481
370 0.004990561812362144 0.0007565551799318107 0.0040214424087805425
366 0.004255938611441914 -0.01794663191992886 -0.0027170577764835816
16 0.013250789102818574 0.017863121041346384 0.013319873205768145
12 0.007190245375656907 0.0011838999718614296 0.00460674578764119
5 0.016472782235731905 0.00034167227924789575 -0.012031280824919046
8 -0.0023875913510564752 0.0068122258037257855 -0.0007241126461964743
119 -0.03067969764970157 0.011902566109101714 0.010658808344733128
121 -0.005085686014237507 0.0009016971553802767 -0.002712471734477487
368 -0.005329623756981484 -0.0008126478613734243 0.004375138660630257
527 -0.0014852407753571046 -0.0005420730059174318 -0.00018217883145365548
13 -0.0018073645429779195 -0.0036497230595375317 -0.006766550420280848
338 0.010306606743222885 0.007507789759539402 -0.020751458842206152
328 0.0027056733791708297 0.002458816318073953 -0.004967232178228268
390 -0.006841665047260369 -0.0008121333909582516 -9.193586070263851e-05
488 0.012853780804651507 -0.030837546607456155 0.01747977018472106
4 0.008239314426587837 0.004034522664311785 -0.004968817794808653
7 -0.009373754746710341 -0.006517099359409091 -0.02713104606157677
225 0.020134656387120958 0.018424966284048806 -0.022166620021960147
372 0.007367541059766053 0.0027070518901293017 -0.0006318249276495078
322 0.008706363526385433 0.004252467878309709 0.007523414127646552
448 0.01083599452611551 0.0007736548880541637 8.070748687078532e-05
255 0.0018514528516766805 -0.0033617129500513702 -0.007917559495911589
539 0.022282560270967797 0.007400658801503701 -0.008822966542058164
446 0.005511866789864729 0.012256256834413587 -0.005478754969540741
363 -0.0006992824567058774 0.018519957558709076 -0.006049612102366365
360 0.0203015408525643 -0.016180591874201535 0.0013787162423036935
73 -0.010553412393330013 0.025487668584932278 -0.005533449420073673
98 0.0039515932350678825 -0.0152392207671392 0.005270824834963971
576 0.017401860110911826 -0.011449152357154728 0.010786673958305628
546 -0.019243178204022365 -0.02137271116322133 -0.008504131980812303
572 0.029119030667842476 0.018235961682692994 0.022233790141718054
545 -0.005453042536911043 0.006600613733520906 0.0008754289499504289
421 -8.303643199065857e-05 -0.007797935498291387 -0.001193942913785128
138 -0.00899233988595921 -0.015322219350639387 -0.006374473040018554
142 -0.009008313155060194 0.0014514480696331763 -0.0015937899870687993
359 -0.0052512634985517545 -0.01042269558108215 0.00019436333090826265
140 -0.0010484873941616567 -0.006792833671204595 0.0046298463049409995
254 0.0014674729377471304 0.030785014251288836 -0.0231445703221478
258 -0.0019234169748491164 -0.02026928809171282 0.006865595371421663
540 0.006960843023729855 0.019046879608640762 0.018331794965384507
547 -0.010332239684433796 -0.016132121582964013 -0.012741420541660843
154 -0.024843504911081435 0.04222615987754646 -0.020039110250287772
151 0.03035753572794853 0.01836585435862927 0.015101198709425204
152 -0.004562172954392103 0.006748964202479949 0.0008687734611180607
156 -0.004799508763600174 -0.010584557852071207 -0.009609381821088928
327 0.0033994301191113585 0.0004633698784470649 0.0019168758623918322
325 0.007039502403981094 -0.011464673154058524 0.001656862855790128
65 -0.0051963846646327656 0.006998346959269045 -0.0050870067549328175
542 3.689892858470576e-05 -0.006496195086675364 0.0056014173748723615
46 0.005433161182810633 0.01786053781974768 -0.019313354543009458
64 0.0019016312510604983 0.0075772384788769555 -0.001593793016541285
48 0.0027092877161189887 0.032837294425277296 -0.009766971364270361
67 0.0014819382657957503 -0.0014821300223877678 0.003650401354262438
69 -0.002950444759887273 0.001014910623918204 -0.0014322315396739082
44 -0.02634539636387032 0.01605433553496088 -0.01794432288299465
70 -0.0004571773232235283 -0.0113021085688094 0.0018901095694875021
63 0.005066128559256173 0.0004698675473703722 -0.002248786911926957
66 0.0008765131507654905 0.007868253077390842 0.005915783789047406
72 -8.855601394589984e-07 0.0025885405101571625 0.0069713882088385335
68 0.002511503277121878 0.004708221156595905 0.004424881663473954
74 0.00823677225069521 0.013781491232994669 0.02520438969751384
257 -0.001818503566015587 -0.006101172803033827 -0.0077399548640176025
100 -0.011798551541533028 0.02593476456094082 0.012794878882776993
422 0.01822193221614799 -0.0027497018777939966 -0.0003722732505690137
423 -0.0044277839889821395 -0.0014731141080697302 0.0006597576007270849
139 0.0017380418755250757 0.0002017752776977288 0.005158479064146462
150 -0.00517895964699079 -0.00863947511439917 0.01919649403175878
329 -0.02566636049792915 0.004424033029987453 -0.0004170737390769878
144 0.004273544486972439 -0.014365816438261892 -0.00964389748558672
141 0.0165335165011259 0.01717451816639658 -0.024647585342501648
567 0.0007964850293652526 0.023253863805538542 0.026652632959719487
569 -0.0034772393070985957 -0.003602113911127138 0.0010436803640080075
462 -0.0013418174407038993 -0.00942657706686919 -0.005546737019354234
568 -0.0006862627788138435 0.0056426879300664244 0.002868114555583925
565 -0.004440262522710672 0.00888106016746952 -0.00860669480651436
361 -0.0030585919303490606 -0.005503980564256545 0.0036109031295686275
362 0.014005584339821887 -0.0064004016239453095 0.016434602206614173
426 -0.017850149181944584 -0.016455840534655156 0.00044074622470907714
71 0.004322532064485924 -0.005135313634242417 -0.0026143444741901496
571 -0.0034034314368216133 -0.0051043492436816 -0.005508639522437786
205 0.019179265011525913 -0.024086913407464935 0.016103304597649148
203 -0.016515745346659838 0.00786535447053075 0.002482766368072418
385 -0.014650624593463403 -0.0009363237650418087 0.02023826914805981
376 0.007148075992663437 0.01715770307606095 -0.002062352680031947
564 0.0028042376676752374 0.002201910030141723 0.0012554927102557587
178 0.008431575582235624 -0.030334465804964916 0.01164308582976545
183 -0.009716618836879784 0.023727503124369824 -0.03461141500879297
93 -0.01754239859935698 -0.005095130515282435 0.006999192032543035
94 0.026621429797770886 0.00866795472319464 -0.013997560297761825
107 -0.005935672620711349 -0.0021612623132982512 -0.0006257340676119242
187 -0.003517071439022551 -0.0022396640810409415 0.004201744687086213
11 -0.007606817724606773 -9.262177417747924e-05 -0.0011537572964435542
221 -0.019739659831235684 0.0006133757651862591 0.006223153697679012
99 0.00826203952614543 -0.0024418189361484254 -0.00951301643753207
9 -0.0061269106959388146 0.0015013801264948422 0.005525988202076085
3 0.0008542969318860983 0.001595197032207901 -0.0005835893546223862
365 0.00017143893718610888 0.007132582341961901 -0.01792783774732147
91 0.0013662951887397432 0.00256835649642128 0.005766216196991944
36 -0.029637309425847636 -0.0106438940012611 -0.025878453838259416
148 -0.0006550921751800579 0.004595847482417306 -0.0016273038576428553
451 -0.03894531039013412 -0.003908827267270672 -0.005548887108698936
101 -0.021270634893680813 -0.011648941418137937 -0.02814327170976868
87 0.032543928509712154 0.01220018043635857 0.005184829325838531
38 0.00207095165130893 -0.020072226707457317 0.0032620150435005517
149 0.005759343376711409 0.00282883121284129 0.0028503933478179213
386 0.0012841186559514532 -0.006694842766706899 -0.001567851897494797
220 -0.002865999128440602 0.006266293502809929 0.023997888390590714
109 0.0028291135322576467 -0.007938077763789905 0.0015245356792621236
95 -0.0008792466518387001 -0.004193704126031231 0.004045313970599073
217 0.011137793010506844 -0.003513224611911898 0.0080944331573743
143 0.009140140274879088 -0.0033658929192735857 0.004811573191578945
343 0.0015302783173329452 -0.0050423767501085615 -0.006459879722771548
96 0.0019374342717404043 -0.0072739583632371735 0.03864357437345122
218 -0.004163616894640816 -0.005534051196051272 -0.004485231797511925
146 0.0038976261956331325 0.0043844466400282936 -0.003133025566109229
375 0.001579174068110164 0.021820897393630533 0.0029705667809359943
535 -0.0038090116924936438 -0.003964514842171945 -0.006118783778306867
364 -0.02013581842089362 0.014548752853007791 0.0078981926836157
188 0.0034427806572939887 -0.0036452747400702156 0.0029297166107439
215 -0.016749534644691325 0.005370291083839465 -0.01192581831889188
26 0.005754009037427788 0.009752483798457508 -0.008869474570628871
202 0.01343668582525744 0.016526587383881505 -0.02681660550970721
382 -0.03858163298963448 0.005867944812895847 0.006694655426313187
424 0.0020124811160845196 0.003102979510234852 -0.002053871486202126
33 -0.0012169172052167558 0.0039683272671432596 -0.006196960491054811
374 -0.0007607029111570085 -0.0016633436657315956 0.005836185671791051
30 0.006909934035247341 0.0023687704526410393 0.0010819881338057823
204 0.0008745860085158767 0.00048969695673699 -0.01318638715609953
75 0.02720515646297857 -0.013473989325102673 -0.01877878130043685
89 -0.001679682852484952 0.000980105749076864 -0.002692897065122476
1 0.0015784243615839149 -0.0023895825626077025 0.0014174953486355139
32 0.0005349531869163782 0.007882443211556855 0.00019097916635908672
83 -0.001132215692913046 -0.002833584548200262 0.01834574023709231
35 0.016488450123676782 0.011203504396479593 -0.022177067678462285
10 -0.012992059329289889 -0.03163858351202309 -0.0035568040944345463
145 0.009247520507333747 -0.0021049954098448843 0.004798160670967749
369 0.004337154008107532 0.001832698171204785 -0.0013659821883254854
216 -0.004720766269425966 0.005712875737497171 -0.0007037984972169989
37 -0.019322439903561243 -0.0099376775046439 0.005838547097124269
427 0.011867638268651856 -0.019180790166178203 -0.0009027536547046645
2 -0.01829065635210737 0.022493785343863065 -0.012688000765562348
184 -0.00525983609729862 -0.015143366658083213 -0.03147069320936624
425 -0.006429831477604178 -0.0016767683791640508 0.004393758958703161
62 0.015045171867646449 0.021143217042189626 0.011642309190078593
371 0.0021121798506628753 -0.002135551335782444 0.013881759819583771
391 -0.003315822528524513 -0.03019821402628441 0.014249641005634346
112 -0.003675890326001168 -0.0008254134549519303 -0.002258131585011853
29 0.0027025963210363605 0.001402220107084614 -0.010162685206951046
110 0.005685515772443778 0.011491766706335197 0.014371648128727965
219 0.002824208250131281 -0.0011511496093868422 0.002437270111984007
92 0.0005345261594833172 -0.012048272174950948 0.004421039782992159
24 0.003334889322102969 -0.0049444140222003686 0.00197697916942104
268 0.0014027249916840057 -0.000527946234512224 0.0036736303009976996
97 -0.0046479510451207726 -0.014265767114391736 6.859087469143063e-05
367 0.0032254202224618013 -0.004961958032647994 0.00201953457599026
85 0.004009568621983326 0.010682819303002411 -0.0029721803305414827
111 0.011247511714548897 -0.00205913290613599 0.0015345023444777403
582 -0.01566750853333882 -0.025615736950233618 0.03628179660794619
464 0.006441240633751071 0.023114408658614537 -0.034368657036958426
115 0.03598953736649409 0.002038599241459013 0.006109400397263699
389 -0.00816236540155854 -0.019672136089273047 0.001531029866598642
31 6.1032961261912274e-05 0.002467429524520551 -0.002941556343242547
452 -0.001198161978869037 -0.011185290757427292 0.00390787134478141
120 0.012258741097920672 0.020989552349889837 0.022578445292693313
313 0.004890344643766855 0.0031159142436830703 -0.005281907491402049
210 0.003934852400032162 0.0028748619507300496 0.005777318507003307
461 0.0015107053828262132 -0.002860006229934757 0.0036799259810548894
191 -0.03168460167221524 0.014324864350745231 -0.0012008462677295128
584 -0.01487416364246622 0.013463319595151426 0.001487292558266842
469 -0.003869471625201798 -0.0027205536686871717 -0.0017293607478779704
470 -0.005479117868626015 0.0058191686022615015 0.007579031570943996
331 -0.0012221156973308968 0.0033373934642946168 -0.0020553790240955775
272 -6.503872467514308e-05 -0.006838799054784585 0.032875442603684135
585 0.004363115812926373 -0.0012719236663402374 -0.0050167238551221405
333 0.003537923925586133 -0.0028939875993362458 0.0036790603869167287
516 0.0007672647509927336 -0.0016043556714686036 -0.00031976372207385723
515 0.007348189791923287 0.003213833242776422 0.00040089274046541004
514 0.006283084067236298 -0.007831355325110288 -0.028330528344552183
513 0.009313762213667108 -0.016254647735283786 0.010436040788730457
330 -0.00652503890203835 -0.013554917275954951 -0.0004239700430314487
468 0.014412986120426333 0.0003353250033593423 0.007327685834715612
525 0.008661596175604214 -0.01225957210595463 0.0024348447573993488
52 -0.017603525020858244 -0.01818489746019363 0.021932659682850596
475 0.009215094789805499 -0.005570647559130346 -0.0012468844067501377
164 -0.016031215129078038 0.02086693272775857 -0.016482589901205026
165 0.0009870725507521237 -0.0004588882982122829 -0.005667450292829196
166 0.005303407744245225 0.021752813411467162 -0.006612105670517909
159 -0.028344989361749312 -0.016127206443286496 0.00815957028711451
347 0.0017145827485495577 0.0030510137333264456 -0.003426272789478706
162 0.006104981529855684 -0.004167012442390439 0.0024937191428368744
160 0.00667061146097399 -0.023491310148162123 -0.02302829052691585
61 0.020388545841488557 -0.003780114157996514 0.040587259313301934
161 -0.0019612338120048537 -0.019636027947216243 0.011819722130063508
577 0.0040800940937775546 0.002205910206466475 -0.0011414013445465365
562 0.008694916709369869 -0.010204273372337208 0.005315370808852764
579 0.0058308831899698465 -0.011416044552943025 -0.013605903093559567
574 0.021033261631094938 0.016635147040993857 0.00289477227960584
78 -0.008072840109727478 0.0033048586125362387 -0.0013239262020183474
476 0.025965982315125376 -0.013879122316914733 0.0017267746526377554
477 0.008642548129295498 0.002302663202242352 0.0006103008552121169
467 -0.0033003340565394192 -0.0002114369207413396 -0.007990406589889495
60 -0.002693246335919931 0.007299848245172396 -0.003053247640864746
190 -0.0002752053485123225 -0.003963657956781602 -0.0015869658404593426
518 -0.007629111766359291 0.006901057654793002 -0.003747986513819579
521 -0.0017038422632292907 -0.0003317145202248009 0.001357473569637063
157 -0.013937431193143458 -0.002094883343687925 0.0008184902183406061
77 -0.0025659805598666585 0.0051570645044506005 0.006658601078968048
79 -0.006188672905554688 -0.0074121704637648495 0.0004038650561323866
524 -0.007821860124828715 -0.0033591973892466913 -0.019171118208363397
58 -0.0013826362317837242 0.0023036869747736183 -0.0033123160742174443
59 -0.003034932271224439 0.004092538112526522 -0.0007049237063223253
578 -0.0015420420067267003 0.001604798548713727 -0.0013658351989324924
520 0.004306724522470212 0.0012054463551720413 -0.002527233082635892
55 0.0027967774032705488 -0.0008889016918419614 0.0029551434183901076
517 -0.01222333689531751 0.004169615024825189 0.003768184029189681
237 -0.016570548715997137 -0.028274716493641622 -0.026330884003872984
175 -0.010380668616180082 -0.01978349479422795 -0.027304596960918276
351 -0.007291611604700011 -0.0043735780814781085 0.0008740161626148148
76 -0.014221883669069423 -0.001250541047458002 -0.007276913069273679
80 0.012272182599755191 -0.013067404983934154 -0.00773841167991941
243 -0.006842624566889622 -0.00386813083176393 -0.002472119519953263
526 -0.00924360435453211 -0.012937967698439426 0.03180571109520585
311 -0.0026093755553016655 0.001433886521844877 -0.0024958863158749786
308 0.015134206498405824 -0.004969390802186956 0.01583342920777385
39 -0.004315983844913857 -0.005601683809771161 0.006701513485767951
186 -0.00249718482312126 -0.003694244923149338 -0.0021849484311030083
449 -0.0038192560061300223 0.004508810075225505 0.039394195256312985
575 0.006322492247454895 0.007696945773576521 0.003504482302722942
25 0.004591112362886851 0.0002809148256118224 0.0018272003467960437
172 0.00903472581438559 0.023308375715172042 0.018717936657772962
284 0.02207554775990352 -0.002705780133375327 0.001393812376473457
170 -0.005895842407565548 -0.010585343600814395 -0.012889604677160906
314 0.003241439851115448 0.007111089666858792 0.0016324030750359713
478 0.003007690690171723 0.00029492658845949905 -0.0010666689165811124
519 0.004486855463638391 0.0004399684090339081 0.002503408392955392
192 -0.008357843496999211 -0.009268126024169848 -0.01937145047222903
523 -0.005971533045866511 -0.0009692222577945626 0.008827805484591788
486 -0.00737769207399535 0.005102764596246656 -0.0021334965694122126
508 -0.008686051526917926 -0.008736772517555717 -0.0020026023144958643
207 0.007656824377203794 0.0031482535754778955 0.012478743825035696
350 0.00024723009528620176 -0.0011642178005401313 0.00019436990355529014
536 0.00427888523753531 0.010817041893427283 0.019376112233844556
348 -0.0006988755413363431 0.005056042206590897 -0.001039652830511965
211 0.00319783347812238 -0.0022470197003454555 0.001566301296986844
522 0.0035811630680649183 -0.003942405473799451 0.0158967842234087
493 0.02134596755954535 0.00974842527203535 -0.004059911080987763
479 0.003202924681128898 0.0018968574133178477 -0.011808699967524034
236 -0.012756229158933477 -0.003788991623784044 0.008034138821848114
358 0.0002855688472861625 -0.007894533641227943 -0.008554501654460714
353 0.0027708919926846248 0.0053287901903548455 -0.0032324940731282
209 0.01556370435065557 0.015310413898940426 0.014557276171729654
480 -0.007444894477056685 0.0007653744882158704 -0.00285415061064664
290 -0.003478991484595638 -0.00657377156007983 -0.00040970981721412516
241 -0.0037245385855615627 0.004316347304325527 -0.0071272787237959805
563 -0.0015353067661737741 -0.003273967269288754 -0.02455898938119249
482 0.005477007296489759 -0.0018056155440587412 0.002880978657270375
484 -0.0032612407568274886 0.000924586846917282 -0.0014899986372922008
235 0.0014841959386717055 0.0016384034689691466 0.0016539936105939863
460 -0.018870049515368397 -0.011160056120084604 0.0038330773443463625
580 0.0006218100196868671 0.0005650821486801626 -0.0003096920529360296
239 0.005275243915504198 0.00079596600690682 -0.004000458671642121
208 0.014246210907842236 -0.0033419405085441294 0.008798729092111504
487 0.0016025728961436782 0.00032880944242109846 -0.0032828638774234312
419 -0.02725742108789218 -0.01854675181600554 0.021667168559442694
418 -0.0043181116084351915 0.00011027185106535059 0.0030269352382420235
414 0.009536934293578731 -0.0010537312020236294 -0.005515263064550475
417 -0.0006113116441521589 0.007253423385699033 -0.0025197469457269375
416 -0.00782635403903332 0.013941143791847476 -0.018987298121070115
415 0.006260919232387593 0.001307669610615603 -0.003520389933772147
413 -0.003835877539657058 0.0033844265708499344 -0.005399278128848488
455 0.005746192563225808 0.0050512353584163195 -0.0019349423494325912
412 -0.0073129825067591355 0.000984754549357834 0.00047661016953270605
581 -0.0003968578981281799 0.005273936266117169 -0.0008119317702326802
549 0.0009910537955542613 -0.002675086170694612 0.01866133895469531
234 0.0026214076294252112 0.002581519507974718 -0.0015475073871721622
238 -0.008174549358263984 0.0008359380690952491 -0.005003648180804523
454 0.026500136415204587 0.009246452600020447 -0.02843728167559472
411 -0.0015324319498323552 0.0038018809135393853 -0.002158491017748466
457 -0.0013639838150340563 -0.005421096577480695 0.053957200860033416
456 -0.006972162773439309 -0.001585661143394218 0.0041612087757143
206 -0.00392320233783954 -0.004985271378127838 0.012108726977103988
118 -0.009592641525776808 0.0014470318377546316 0.0008075602409389942
352 -9.565929651165964e-05 0.00040608226147559486 0.0015435322718920506
453 -0.0028160325623070586 -0.007279409022560832 -0.004119839818669241
233 0.0033061239226638314 -0.004444723081216928 0.004946651076165459
240 -0.012158119148999339 -0.017609492729549227 -0.005850846411314377
232 0.004579961634964659 -0.004802615574691846 0.005225948050032091
481 0.010655708844040162 -0.0023175495864985354 0.004065435136516762
440 -0.004711915721413768 0.046413812810868066 -0.018816199498182647
490 0.0028069770081256495 -0.0005401378190818743 0.0061542502280449414
485 0.021035270754436487 0.025047252918708983 0.03573846320041694
492 0.005668059535095137 -0.0055216020045702864 0.005263209821573809
226 0.01709161219822023 -9.755147573446178e-05 -0.0117786859119868
213 0.0024073638081668586 -0.004020557511539758 -0.002358553173141886
494 -0.009223887894935183 0.015460330900813564 -0.018547774569061194
560 -0.0030531501520765308 0.004394404132755075 0.0072083086360454065
557 -0.0015421614903645062 0.0069638284260563465 0.003197504128520351
429 0.0005625108237320308 0.0071022389185938705 -0.0009298455541402733
309 0.0021488198549768434 -0.009707585306399575 0.006943906476543257
441 -0.028474115430811606 -0.010227757231079425 -0.0017621874490434055
256 -0.010841767366930821 0.0012451979050250959 -0.003486756536820457
341 -0.01060651700902886 0.0029706369336289225 0.03621729248332677
506 0.0024538513340928696 0.020593886468442055 0.01820220181413688
104 0.013377659462835572 0.015346947785105843 0.016894600839531346
230 0.011002564982338632 0.011659447527064585 -0.022288590823056977
312 -0.0010907901913969037 0.0008436255888762731 -0.0026357679889177123
530 -0.0362973821469745 -0.013561464924897787 -0.024741553620875184
573 -0.0015807161488179974 -0.0023433597290485934 0.002008960068173816
242 -0.020597655937002347 0.005367592570383106 0.007999654383054621
81 0.016483828950535392 -0.02107014235268285 -0.00883680232053165
214 0.003766225583427104 0.02055072525536752 -0.008739448570989801
491 0.015921682688044517 -0.017417971878303202 -0.0013331094922415597
332 -0.004513083382363159 -0.0045863370309918855 0.011929129590671772
442 0.004735158681786562 0.003762486545223881 0.006616357814657971
54 -0.002278813265858053 -0.013143605687510372 -0.024035634421983587
566 0.014896689102353896 -0.012340783753961146 -0.010254932707591624
181 -0.005259903276592332 0.009631462646590577 0.00322331966901019
155 -0.0008940340616792663 -0.0016124976341125355 0.0009275738751557784
471 0.026632612776715255 -0.019010032654365586 -0.04265752485894584
182 -0.004677000052164331 -0.00463374262061302 0.0054173314394806524
51 0.018355994515834632 0.0012737596405267067 -0.03367042022291749
173 -0.0063840212750392745 0.002051307354096834 0.0021764627535839514
106 -0.022840227724612815 -0.0021123117108229937 -0.013378637256279363
201 -0.0010620593471849194 0.0017128075292625487 -0.0033489907238823256
541 -0.011318347273607563 0.012779481641010374 -0.015525830965401052
244 0.004515464568393263 -0.005048615122978983 0.0005605791644082244
323 -0.00571333954551602 -0.0015126317683585948 0.008657348154919543
583 0.015717561247116246 -0.010721733671266515 -0.026263413988047147
245 0.0011155519972604955 0.009073970071330657 0.042922938911061054
246 0.002930025120627458 -0.011341763330431619 0.00515970914561084
247 0.004589180780846834 -0.0007891241293690209 -0.0008685155749325436
459 -0.021030935295172352 -0.00948526561658792 0.01397490871563237
171 -0.023359214884958377 0.028277803017969554 -0.012869893148013602
509 -0.00373905432451102 -0.011678749137414375 0.0006119517564145055
324 -0.002058694224247865 0.018527273748159757 -0.01107398900147121
548 -0.02089281628504898 0.010659191618446898 -0.020743553502991095
252 -0.00557871460563244 -2.5589550993267503e-05 0.004406012383241612
537 0.014966735886987185 0.007560379931665625 0.03606706085908498
316 0.011742738430064289 0.01364138690876209 0.01588325364925984
319 0.0005022022911851704 -0.00039399213779911106 -0.005380258439667342
404 -0.0009538061154418223 -0.0036084353544451877 0.0037601927622942163
561 2.9760533234055835e-05 0.005120963713205297 -0.003621294117220362
406 -0.005494500238115091 -0.005890867325046993 0.0024466965751914803
405 0.0025853849377578 -0.007080450377337261 -0.005676976905259121
544 -0.004712128703947161 0.007658428658294543 -0.004762345704045113
543 -0.0008051185753888937 -0.005300681317295764 0.0016836685738475822
402 0.0012256205445040165 -0.0026242307531652567 0.006308908611607603
510 -0.007284183717400198 -0.009325765883806595 -0.0008430474871443616
409 -0.025269495285405882 -0.0017115905400544983 0.013855136295013212
552 0.006691765636088578 0.009892282267615059 -0.012273830008717766
86 0.0014152015452528115 0.00027406875018466773 -0.001100968759801557
200 -0.01135618813864016 0.02288127300868314 -0.0054418271058612674
197 -0.001707159656842341 -0.002664716254698138 -0.006869248132240276
199 0.003711822640062876 -0.0015405831273730259 -0.00048437417647715947
198 0.027437471571942255 -0.01163846511945094 0.005843385796117509
408 -0.005961749425239596 -0.0036491945277542224 0.010369833316526347
465 0.021161319693618723 -0.022968084470620664 0.00797688901784185
90 0.005342178030968006 0.0005335581194213176 0.007111663886131239
253 0.014835724396487802 -0.021004632546873937 0.0013543263690594478
538 0.019779265572410328 -0.004832920950482715 -0.019755029035769894
82 -0.004918992666203353 -0.007966379699327727 -0.020197828556995104
511 0.025307084353173793 -0.027672165831271425 0.014365726696249057
321 -0.0030645810559468585 -0.004133275592203303 0.00547941895776935
84 0.0003791311191087462 0.0019296183294720028 -0.0018006026701409932
88 -0.022444706617090412 0.00744309280274674 0.01800446551501146
196 0.0004030667453628516 0.0010107200966046714 -0.0007553108005112713
194 -0.005058553262662709 0.01246043474067173 0.04394356678831718
400 -0.0014433951219755428 -0.0023047751254598736 0.0024516159894717956
559 -0.0013719454975978926 0.003428351340493983 -0.0031556893324441357
410 0.017441060759273326 0.01085681556073352 0.012064715566697099
317 -0.0017569956697344033 0.003335783806476397 0.0029358078920521708
558 -0.0012844227311419804 -0.0009475514263273183 0.0037647767391453257
320 0.004698767042529389 0.0018706403569754843 0.002926939888073608
105 -0.0012269545340535377 0.0023346641401203482 -0.0037496296336971954
300 -0.008050280261057217 -0.012632643530166713 0.002714829387428159
344 0.0037936384649801466 0.0025617264340191304 0.0008095114612225833
381 -0.01566825499051993 -0.014480202502588043 0.008942562088537115
108 -0.010062571340483837 -0.0025938163551676775 -0.00206611371523037
163 0.028235232283206013 -0.016466429857310796 0.00602958860852755
195 0.00044250064510468264 0.005816132377251337 0.005788503401713082
299 0.0051315543723863015 -0.010812630225339803 -0.0028124143149183393
553 -0.000763108378814716 -0.0014184383354620958 -0.004465571277593664
554 0.0005547310684644717 0.005767391964803 -0.003418327417429832
504 -0.006773702492497116 0.006322707943437888 -0.00011511710445820514
310 -0.0021522781066796483 0.0052651257973276525 -0.0012317833581980198
259 0.022646011695330627 0.03426226945884092 0.004598266823472691
306 -0.000992007147463599 -0.003040499966815771 0.008265639919563588
555 -0.011426407033240129 0.0022388112323085147 -0.005229660646466202
431 0.008159491605358974 -0.0005323561587362378 -0.013735547041306365
434 0.005380783976238113 -0.00044454758660825703 -0.0013420092082975677
437 -0.03313362298482088 0.024895218212403165 0.019124673557083086
302 0.00818826774356177 -0.0008575792853576221 0.0003379216112294889
229 0.003994252071776542 -0.001200254615264518 0.0029611227222368056
261 0.04864467816135458 0.012840349280104125 0.027134132697800246
458 -0.027589677043680302 0.017624882371257998 -0.01851553485283663
264 0.004715989751042341 -0.01585856229086469 0.02373281547954033
501 -0.002127459958823755 0.004540382431991108 0.0027878330799702643
445 0.0059359872587790175 0.0057832906919864395 0.003665819048776721
231 -0.0028973233144428657 0.004308593473648831 -0.0017768326107498174
550 0.008014749503881863 0.01059346833229963 0.0037532994026972535
433 -0.042173486754451255 -0.021501892254763635 -0.019580443717664108
189 -0.0022781022335681463 -0.015456870406049884 0.012237874046376173
394 0.0047649707887426245 0.005105018979127262 -0.0009281460582577721
396 0.003348745534144159 0.017542468515346493 0.044293257210838224
318 0.011434679170801803 -0.02001478427093173 0.01194730472935737
265 -0.00865405408096097 -0.0012171152737709614 0.012527372305896801
267 0.001947685332134828 0.0029049674661922225 -0.00045765094664838054
296 -0.01708451742400965 0.0264804334575135 0.0019794449175386335
502 0.010207215535117047 0.005566711137854575 0.0015290975335538572
395 -0.004922865088134213 0.015994612408412892 -0.010430231232020262
263 -0.002800004597566751 0.00172146334059424 0.005683026509329473
153 -0.01491635026766016 0.0020034840043640723 0.001241475717727925
435 0.001339840916513946 -0.010327862643279005 0.0006803076461013108
266 0.009167129706932113 0.006499851364486985 0.016146668693139018
303 -0.016865422715525494 0.020261719074797204 -0.0017906452763600067
497 0.008354713141536792 0.0014643588627478914 0.001291163693696723
304 0.0005613121783545477 0.000305720085797369 0.007402090129419723
262 -0.002884691287966997 0.002486257709543051 -0.00406617853691007
398 0.026629261416760187 0.011366946745886815 -0.0015157511294850757
23 0.0008781566634874217 0.0032369194194948503 0.0034661755518739755
228 0.023018693625897278 0.003135333211904769 0.024570068522455635
505 -0.00029999134333996827 0.010941065845816975 -0.0006324408454966783
20 0.013903650068104076 0.001977540118069787 -0.014499014447198632
438 -0.000567577750928984 0.000528085921950681 0.005192163131871169
27 0.006551775511486651 -0.004743329107655322 -0.023182317717326137
22 -0.003511607416100802 0.0005690152302201794 0.001916422268810874
295 -0.004680624898511412 0.008713638163033567 -0.005717633735790215
500 -4.637665181341551e-07 0.00032383207349720623 -0.0009781214603553463
444 0.0027044586516059206 -0.00906970385587159 -0.0057216610518216315
498 0.004778967321082839 -0.006070675816750566 -0.006610327203726142
556 0.002027039721968369 -0.008159414919840284 0.0004092738057416779
499 -0.002890685658587876 -0.007412419582517549 0.004368369498791638
307 -0.035984824899226574 0.00833422813413948 -0.014156800288089152
301 -0.0008865262632002022 -0.006084197864529315 -0.004699987476575032
383 -0.009532248716115991 0.0016502585646132539 0.0033020756827982466
551 -0.01474744884766692 0.00042825024024869873 -0.022635703378107313
305 -0.0031363886302277814 0.0036250901187413584 0.006235679555970212
147 -0.010551436184854586 0.0020772597806161647 0.007383556175290712
495 0.01372113410664747 -0.002521654539260127 -0.023520386099481913
397 -0.007111297841064609 -0.007449512596732832 -0.004754637045415141
503 0.0012160368171887153 0.002023208933762332 -0.0006316139082964538
21 -0.0002390036517611613 0.022750272197225255 0.01182290648875881
34 -0.0027546008560115584 0.012044203897105001 0.009766718225341633
436 0.004522053351104365 0.008332318114546343 0.0048853107782055845
298 -0.004133866543795063 -0.0002749562142405614 -0.006058316248636439
293 0.030291681505305527 0.006040990026677094 -0.010979185601466893
260 0.0016633996862056484 0.009622005780381202 0.0003758598026871595
439 -0.003825836301372044 0.005430660429093072 -0.006837445049017026
463 0.001655856156447753 0.008805941590365171 0.03772128024170799
393 -0.004398130184968961 0.0023159757129241148 -0.008286530402035126
496 0.013359504033587245 -0.005706467917817297 -0.011965951076191616
512 -0.007914853409611997 0.02255305636724289 0.004251683901505372

Bonds

1 13 283 281
2 15 283 285
3 13 281 278
4 15 278 116
5 13 277 280
6 14 277 275
7 13 280 283
8 13 276 277
9 13 276 278
10 13 47 174
11 14 47 45
12 6 41 285
13 2 41 43
14 5 41 40
15 5 41 42
16 13 349 354
17 5 403 401
18 5 403 407
19 5 403 399
20 4 274 276
21 5 274 117
22 5 274 273
23 4 345 349
24 1 345 403
25 5 345 346
26 5 345 340
27 17 114 116
28 17 227 116
29 13 49 47
30 14 49 50
31 16 174 169
32 13 174 176
33 13 177 49
34 13 177 124
35 4 56 15
36 4 56 177
37 5 56 132
38 5 56 57
39 14 124 127
40 13 15 13
41 13 326 323
42 13 326 325
43 8 168 169
44 2 168 43
45 5 168 172
46 5 168 167
47 1 113 274
48 5 113 115
49 5 113 158
50 5 113 157
51 13 176 124
52 14 176 120
53 12 531 527
54 11 531 533
55 10 43 39
56 9 43 170
57 15 354 357
58 13 354 356
59 17 355 357
60 4 282 280
61 1 282 287
62 5 282 279
63 5 282 483
64 12 472 466
65 11 472 474
66 3 473 472
67 8 473 467
68 5 473 471
69 5 473 443
70 7 269 466
71 3 269 472
72 5 269 271
73 5 269 270
74 4 447 281
75 5 447 446
76 5 447 450
77 5 447 448
78 14 180 179
79 13 356 351
80 17 286 285
81 12 379 193
82 11 379 378
83 3 223 379
84 7 223 193
85 5 223 222
86 5 223 224
87 13 17 15
88 14 17 18
89 7 528 527
90 3 528 531
91 5 528 507
92 5 528 529
93 3 532 531
94 8 532 534
95 5 532 508
96 5 532 530
97 5 287 289
98 5 287 288
99 5 287 489
100 13 128 180
101 14 128 126
102 13 185 136
103 13 185 180
104 8 430 380
105 3 430 379
106 5 430 432
107 5 430 428
108 13 342 348
109 7 294 291
110 3 294 123
111 5 294 297
112 5 294 249
113 3 250 251
114 7 250 125
115 5 250 103
116 5 250 102
117 16 384 380
118 13 384 388
119 13 388 392
120 14 388 387
121 14 392 335
122 12 251 125
123 11 251 248
124 8 131 129
125 3 131 251
126 5 131 134
127 5 131 133
128 16 130 129
129 13 130 128
130 13 334 390
131 13 334 392
132 4 337 342
133 4 337 334
134 5 337 338
135 5 337 336
136 12 123 291
137 11 123 292
138 13 14 17
139 14 14 16
140 13 135 130
141 14 135 137
142 13 136 135
143 14 136 191
144 16 12 9
145 13 12 14
146 13 12 11
147 3 8 4
148 8 8 9
149 5 8 6
150 5 8 7
151 3 121 123
152 8 121 241
153 5 121 119
154 5 121 122
155 12 368 370
156 11 368 366
157 13 13 11
158 14 13 53
159 4 328 326
160 5 328 385
161 5 328 332
162 13 390 386
163 14 390 391
164 12 4 1
165 11 4 5
166 3 372 368
167 7 372 370
168 5 372 375
169 5 372 373
170 13 322 325
171 13 255 217
172 14 255 256
173 18 73 139
174 5 545 576
175 5 545 572
176 5 545 546
177 14 421 420
178 8 142 143
179 2 142 140
180 5 142 144
181 5 142 141
182 17 359 357
183 10 140 139
184 9 140 138
185 17 540 542
186 17 547 542
187 4 152 322
188 5 152 154
189 5 152 151
190 5 152 150
191 17 156 327
192 15 325 327
193 15 65 542
194 13 65 67
195 13 64 65
196 13 67 70
197 4 69 67
198 5 69 46
199 5 69 44
200 5 69 48
201 15 70 72
202 4 63 64
203 1 63 545
204 5 63 98
205 5 63 539
206 13 66 64
207 14 66 100
208 13 68 66
209 13 68 70
210 17 74 72
211 6 257 72
212 2 257 140
213 5 257 254
214 5 257 258
215 13 423 421
216 14 423 422
217 17 329 327
218 3 569 568
219 7 569 564
220 5 569 451
221 5 569 567
222 16 462 461
223 13 462 255
224 13 462 421
225 12 568 564
226 11 568 565
227 4 361 356
228 5 361 363
229 5 361 360
230 5 361 362
231 4 71 68
232 5 71 75
233 5 71 101
234 8 571 573
235 3 571 568
236 5 571 566
237 5 571 570
238 4 187 186
239 4 187 185
240 5 187 189
241 5 187 183
242 14 11 10
243 7 3 1
244 3 3 4
245 5 3 99
246 5 3 2
247 15 91 95
248 13 148 146
249 14 148 145
250 13 149 25
251 14 149 147
252 13 386 384
253 14 386 382
254 15 109 155
255 13 109 112
256 13 217 424
257 14 217 220
258 13 343 342
259 14 343 339
260 17 96 95
261 13 218 425
262 13 218 216
263 16 146 143
264 13 146 149
265 13 188 216
266 14 188 184
267 16 26 534
268 13 26 22
269 13 26 32
270 13 424 423
271 13 33 32
272 14 33 36
273 13 374 371
274 14 374 376
275 13 30 33
276 1 204 71
277 5 204 203
278 5 204 202
279 5 204 205
280 4 89 111
281 5 89 225
282 5 89 62
283 14 32 535
284 14 216 215
285 17 37 155
286 13 425 374
287 14 425 426
288 16 371 369
289 13 371 188
290 13 112 91
291 13 29 24
292 13 29 25
293 4 219 424
294 4 219 218
295 5 219 221
296 5 219 427
297 4 92 112
298 5 92 93
299 5 92 94
300 5 92 38
301 13 24 148
302 14 24 28
303 13 268 267
304 14 268 266
305 17 97 95
306 8 367 369
307 3 367 368
308 5 367 364
309 5 367 365
310 1 85 89
311 5 85 110
312 5 85 83
313 5 85 87
314 13 111 268
315 13 111 91
316 17 464 317
317 4 31 30
318 4 31 29
319 5 31 35
320 5 31 34
321 7 210 213
322 3 210 211
323 5 210 207
324 5 210 212
325 16 469 467
326 13 469 470
327 13 469 331
328 13 470 585
329 14 470 468
330 14 331 330
331 13 585 516
332 14 585 584
333 13 333 331
334 14 333 272
335 13 516 333
336 4 515 516
337 4 515 475
338 5 515 513
339 5 515 514
340 13 475 477
341 13 475 478
342 4 165 347
343 5 165 164
344 5 165 166
345 13 347 344
346 13 347 351
347 1 162 165
348 5 162 160
349 5 162 161
350 5 162 159
351 13 577 578
352 14 577 574
353 7 78 77
354 3 78 79
355 5 78 80
356 5 78 76
357 13 477 479
358 14 477 562
359 13 60 190
360 14 60 61
361 13 190 186
362 14 190 192
363 12 521 519
364 11 521 525
365 12 79 77
366 11 79 81
367 16 58 59
368 13 58 60
369 13 58 181
370 14 578 579
371 3 520 521
372 8 520 358
373 5 520 518
374 5 520 524
375 3 55 79
376 8 55 59
377 5 55 54
378 5 55 52
379 18 175 243
380 15 351 173
381 7 311 313
382 3 311 312
383 5 311 308
384 5 311 314
385 13 186 182
386 18 449 39
387 16 575 573
388 13 575 577
389 14 25 27
390 14 478 476
391 7 523 519
392 3 523 521
393 5 523 522
394 5 523 526
395 13 350 343
396 14 350 517
397 13 348 352
398 14 348 284
399 12 211 213
400 11 211 214
401 13 479 482
402 14 479 563
403 16 353 358
404 13 353 350
405 13 353 352
406 13 480 478
407 14 480 481
408 16 482 484
409 13 482 480
410 13 235 239
411 14 235 236
412 13 580 456
413 13 580 578
414 14 239 240
415 3 208 211
416 8 208 413
417 5 208 206
418 5 208 209
419 8 487 484
420 3 487 490
421 5 487 485
422 5 487 491
423 13 418 417
424 14 418 419
425 16 414 413
426 13 414 415
427 13 414 412
428 13 417 455
429 13 415 418
430 14 415 416
431 13 455 412
432 14 455 454
433 14 412 411
434 4 581 417
435 4 581 580
436 5 581 460
437 5 581 549
438 13 234 232
439 14 234 118
440 16 238 241
441 13 238 234
442 13 238 239
443 13 456 453
444 14 456 457
445 14 352 290
446 13 453 575
447 14 453 452
448 13 233 235
449 13 232 233
450 14 232 230
451 12 490 486
452 11 490 488
453 3 492 490
454 7 492 486
455 5 492 493
456 5 492 494
457 13 560 557
458 14 560 536
459 14 557 440
460 12 312 313
461 11 312 315
462 16 442 394
463 13 442 438
464 13 442 393
465 14 181 51
466 13 182 181
467 14 182 178
468 13 201 404
469 14 201 237
470 6 244 173
471 2 244 247
472 5 244 245
473 5 244 242
474 13 323 321
475 14 323 324
476 10 247 243
477 9 247 246
478 17 171 173
479 8 252 461
480 2 252 247
481 5 252 459
482 5 252 253
483 4 319 321
484 1 319 510
485 5 319 316
486 5 319 465
487 13 404 400
488 14 404 409
489 8 561 558
490 2 561 86
491 5 561 90
492 5 561 537
493 8 406 402
494 3 406 405
495 5 406 410
496 5 406 408
497 12 405 543
498 11 405 538
499 3 544 405
500 7 544 543
501 5 544 548
502 5 544 541
503 5 510 583
504 5 510 509
505 5 510 511
506 10 86 559
507 9 86 88
508 12 197 199
509 11 197 200
510 13 321 320
511 6 84 317
512 2 84 86
513 5 84 82
514 5 84 552
515 7 196 199
516 3 196 197
517 5 196 198
518 5 196 194
519 16 400 402
520 13 400 397
521 13 320 322
522 15 320 317
523 3 105 108
524 7 105 107
525 5 105 104
526 5 105 106
527 13 344 349
528 14 344 341
529 12 108 107
530 11 108 19
531 3 195 197
532 8 195 394
533 5 195 163
534 5 195 398
535 13 299 302
536 13 553 554
537 14 553 550
538 13 554 556
539 14 554 551
540 8 504 501
541 3 504 108
542 5 504 506
543 5 504 582
544 3 310 312
545 8 310 306
546 5 310 309
547 5 310 377
548 13 555 553
549 13 555 557
550 4 434 436
551 4 434 555
552 5 434 431
553 5 434 429
554 13 302 305
555 14 302 303
556 4 229 233
557 4 229 231
558 5 229 228
559 5 229 226
560 14 445 444
561 13 231 201
562 13 231 445
563 18 318 559
564 13 267 109
565 13 502 503
566 14 502 463
567 5 263 264
568 5 263 259
569 5 263 265
570 17 153 155
571 13 435 436
572 14 435 433
573 14 497 495
574 16 304 306
575 13 304 301
576 13 304 305
577 4 262 267
578 1 262 263
579 5 262 261
580 5 262 260
581 13 23 30
582 14 23 21
583 13 438 435
584 14 438 437
585 13 22 23
586 14 22 20
587 4 295 299
588 4 295 499
589 5 295 293
590 5 295 458
591 16 500 501
592 13 500 498
593 13 498 497
594 14 498 496
595 16 556 558
596 13 556 560
597 13 499 502
598 13 499 497
599 13 301 298
600 14 301 300
601 1 383 328
602 5 383 512
603 5 383 381
604 5 383 389
605 14 305 307
606 13 397 445
607 14 397 396
608 13 503 500
609 14 503 505
610 13 436 439
611 13 298 299
612 14 298 296
613 13 439 393
614 14 439 441
615 14 393 395

Angles

1 24 280 283 281
2 26 281 283 285
3 26 280 283 285
4 9 447 281 283
5 24 283 281 278
6 9 447 281 278
7 24 276 278 281
8 26 276 278 116
9 26 281 278 116
10 24 276 277 280
11 25 276 277 275
12 25 280 277 275
13 9 282 280 277
14 24 277 280 283
15 9 282 280 283
16 9 274 276 277
17 9 274 276 278
18 24 277 276 278
19 24 49 47 174
20 25 49 47 45
21 25 174 47 45
22 14 168 169 174
23 16 43 41 285
24 30 40 41 285
25 30 42 41 285
26 15 43 41 40
27 29 40 41 42
28 15 43 41 42
29 9 345 349 344
30 24 344 349 354
31 9 345 349 354
32 2 345 403 401
33 2 345 403 407
34 2 345 403 399
35 29 401 403 407
36 29 401 403 399
37 29 407 403 399
38 1 113 274 276
39 2 113 274 117
40 2 113 274 273
41 23 276 274 117
42 29 117 274 273
43 23 276 274 273
44 1 403 345 349
45 23 349 345 346
46 23 349 345 340
47 2 403 345 346
48 29 346 345 340
49 2 403 345 340
50 28 278 116 227
51 28 278 116 114
52 35 227 116 114
53 13 223 193 379
54 24 177 49 47
55 25 177 49 50
56 25 47 49 50
57 27 47 174 169
58 24 47 174 176
59 27 176 174 169
60 9 56 177 49
61 9 56 177 124
62 24 49 177 124
63 22 15 56 177
64 23 15 56 132
65 23 15 56 57
66 23 177 56 132
67 29 132 56 57
68 23 177 56 57
69 24 177 124 176
70 25 177 124 127
71 25 176 124 127
72 9 56 15 17
73 24 17 15 13
74 9 56 15 13
75 9 328 326 323
76 9 328 326 325
77 24 323 326 325
78 17 43 168 169
79 15 43 168 172
80 15 43 168 167
81 32 172 168 169
82 29 172 168 167
83 32 167 168 169
84 2 274 113 115
85 29 115 113 158
86 29 115 113 157
87 2 274 113 158
88 29 158 113 157
89 2 274 113 157
90 24 174 176 124
91 25 174 176 120
92 25 124 176 120
93 6 528 531 532
94 8 528 531 527
95 7 528 531 533
96 7 532 531 533
97 34 533 531 527
98 8 532 531 527
99 3 41 43 168
100 5 41 43 39
101 4 41 43 170
102 4 168 43 170
103 33 170 43 39
104 5 168 43 39
105 26 349 354 357
106 24 349 354 356
107 26 356 354 357
108 1 287 282 280
109 23 280 282 279
110 23 280 282 483
111 2 287 282 279
112 29 279 282 483
113 2 287 282 483
114 28 354 357 359
115 28 354 357 355
116 35 359 357 355
117 6 269 472 473
118 8 269 472 466
119 7 269 472 474
120 7 473 472 474
121 34 474 472 466
122 8 473 472 466
123 21 472 473 467
124 19 472 473 471
125 19 472 473 443
126 32 471 473 467
127 29 471 473 443
128 32 443 473 467
129 13 269 466 472
130 31 271 269 466
131 19 472 269 271
132 29 271 269 270
133 31 270 269 466
134 19 472 269 270
135 20 472 269 466
136 11 41 285 283
137 28 283 285 286
138 12 41 285 286
139 23 281 447 446
140 23 281 447 450
141 23 281 447 448
142 29 446 447 450
143 29 446 447 448
144 29 450 447 448
145 24 185 180 128
146 25 185 180 179
147 25 128 180 179
148 9 361 356 354
149 24 354 356 351
150 9 361 356 351
151 6 430 379 223
152 8 430 379 193
153 7 430 379 378
154 7 223 379 378
155 34 378 379 193
156 8 223 379 193
157 20 379 223 193
158 19 379 223 222
159 19 379 223 224
160 31 222 223 193
161 29 222 223 224
162 31 224 223 193
163 24 14 17 15
164 25 14 17 18
165 25 15 17 18
166 31 507 528 527
167 19 531 528 507
168 29 507 528 529
169 31 529 528 527
170 19 531 528 529
171 20 531 528 527
172 21 531 532 534
173 19 531 532 508
174 19 531 532 530
175 32 508 532 534
176 29 508 532 530
177 32 530 532 534
178 2 282 287 289
179 2 282 287 288
180 2 282 287 489
181 29 289 287 288
182 29 289 287 489
183 29 288 287 489
184 24 130 128 180
185 25 130 128 126
186 25 180 128 126
187 9 187 185 136
188 9 187 185 180
189 24 136 185 180
190 21 379 430 380
191 32 432 430 380
192 32 428 430 380
193 19 379 430 432
194 29 432 430 428
195 19 379 430 428
196 9 337 342 343
197 24 343 342 348
198 9 337 342 348
199 31 297 294 291
200 19 123 294 297
201 29 297 294 249
202 31 249 294 291
203 19 123 294 249
204 20 123 294 291
205 14 532 534 26
206 20 251 250 125
207 19 251 250 103
208 19 251 250 102
209 31 103 250 125
210 29 103 250 102
211 31 102 250 125
212 14 430 380 384
213 27 386 384 380
214 24 386 384 388
215 27 388 384 380
216 24 384 388 392
217 25 384 388 387
218 25 392 388 387
219 24 334 392 388
220 25 334 392 335
221 25 388 392 335
222 14 131 129 130
223 6 131 251 250
224 8 131 251 125
225 7 131 251 248
226 7 250 251 248
227 34 248 251 125
228 8 250 251 125
229 13 250 125 251
230 21 251 131 129
231 32 134 131 129
232 32 133 131 129
233 19 251 131 134
234 29 134 131 133
235 19 251 131 133
236 13 294 291 123
237 27 135 130 129
238 24 135 130 128
239 27 128 130 129
240 9 337 334 390
241 9 337 334 392
242 24 390 334 392
243 22 342 337 334
244 23 342 337 338
245 23 342 337 336
246 23 334 337 338
247 29 338 337 336
248 23 334 337 336
249 6 294 123 121
250 8 294 123 291
251 7 294 123 292
252 7 121 123 292
253 34 292 123 291
254 8 121 123 291
255 24 12 14 17
256 25 12 14 16
257 25 17 14 16
258 24 136 135 130
259 25 136 135 137
260 25 130 135 137
261 24 185 136 135
262 25 185 136 191
263 25 135 136 191
264 13 372 370 368
265 27 14 12 9
266 27 11 12 9
267 24 14 12 11
268 21 4 8 9
269 19 4 8 6
270 19 4 8 7
271 32 6 8 9
272 29 6 8 7
273 32 7 8 9
274 21 123 121 241
275 19 123 121 119
276 19 123 121 122
277 32 119 121 241
278 29 119 121 122
279 32 122 121 241
280 6 367 368 372
281 8 367 368 370
282 7 367 368 366
283 7 372 368 366
284 34 366 368 370
285 8 372 368 370
286 13 528 527 531
287 24 15 13 11
288 25 15 13 53
289 25 11 13 53
290 1 383 328 326
291 2 383 328 385
292 2 383 328 332
293 23 326 328 385
294 29 385 328 332
295 23 326 328 332
296 24 334 390 386
297 25 334 390 391
298 25 386 390 391
299 6 3 4 8
300 8 3 4 1
301 7 3 4 5
302 7 8 4 5
303 34 5 4 1
304 8 8 4 1
305 20 368 372 370
306 19 368 372 375
307 19 368 372 373
308 31 375 372 370
309 29 375 372 373
310 31 373 372 370
311 9 152 322 320
312 24 320 322 325
313 9 152 322 325
314 24 462 255 217
315 25 462 255 256
316 25 217 255 256
317 2 63 545 576
318 2 63 545 572
319 2 63 545 546
320 29 576 545 572
321 29 576 545 546
322 29 572 545 546
323 24 462 421 423
324 25 462 421 420
325 25 423 421 420
326 17 140 142 143
327 15 140 142 144
328 15 140 142 141
329 32 144 142 143
330 29 144 142 141
331 32 141 142 143
332 3 257 140 142
333 5 257 140 139
334 4 257 140 138
335 4 142 140 138
336 33 138 140 139
337 5 142 140 139
338 23 322 152 154
339 23 322 152 151
340 23 322 152 150
341 29 154 152 151
342 29 154 152 150
343 29 151 152 150
344 28 325 327 156
345 28 325 327 329
346 35 156 327 329
347 24 326 325 322
348 26 326 325 327
349 26 322 325 327
350 26 64 65 542
351 24 64 65 67
352 26 67 65 542
353 28 65 542 547
354 28 65 542 540
355 35 547 542 540
356 9 63 64 66
357 24 66 64 65
358 9 63 64 65
359 9 69 67 65
360 24 65 67 70
361 9 69 67 70
362 23 67 69 46
363 23 67 69 44
364 23 67 69 48
365 29 46 69 44
366 29 46 69 48
367 29 44 69 48
368 24 68 70 67
369 26 68 70 72
370 26 67 70 72
371 1 545 63 64
372 23 64 63 98
373 23 64 63 539
374 2 545 63 98
375 29 98 63 539
376 2 545 63 539
377 24 68 66 64
378 25 68 66 100
379 25 64 66 100
380 11 257 72 70
381 28 70 72 74
382 12 257 72 74
383 9 71 68 66
384 9 71 68 70
385 24 66 68 70
386 16 140 257 72
387 30 254 257 72
388 30 258 257 72
389 15 140 257 254
390 29 254 257 258
391 15 140 257 258
392 24 424 423 421
393 25 424 423 422
394 25 421 423 422
395 18 140 139 73
396 20 568 569 564
397 19 568 569 451
398 19 568 569 567
399 31 451 569 564
400 29 451 569 567
401 31 567 569 564
402 27 255 462 461
403 27 421 462 461
404 24 255 462 421
405 6 571 568 569
406 8 571 568 564
407 7 571 568 565
408 7 569 568 565
409 34 565 568 564
410 8 569 568 564
411 23 356 361 363
412 23 356 361 360
413 23 356 361 362
414 29 363 361 360
415 29 363 361 362
416 29 360 361 362
417 1 204 71 68
418 2 204 71 75
419 2 204 71 101
420 23 68 71 75
421 29 75 71 101
422 23 68 71 101
423 21 568 571 573
424 32 566 571 573
425 32 570 571 573
426 19 568 571 566
427 29 566 571 570
428 19 568 571 570
429 13 569 564 568
430 13 105 107 108
431 22 186 187 185
432 23 186 187 189
433 23 186 187 183
434 23 185 187 189
435 29 189 187 183
436 23 185 187 183
437 24 12 11 13
438 25 12 11 10
439 25 13 11 10
440 14 8 9 12
441 31 99 3 1
442 19 4 3 99
443 29 99 3 2
444 31 2 3 1
445 19 4 3 2
446 20 4 3 1
447 24 111 91 112
448 26 111 91 95
449 26 112 91 95
450 24 24 148 146
451 25 24 148 145
452 25 146 148 145
453 24 146 149 25
454 25 146 149 147
455 25 25 149 147
456 24 390 386 384
457 25 390 386 382
458 25 384 386 382
459 26 267 109 155
460 24 267 109 112
461 26 112 109 155
462 28 91 95 97
463 28 91 95 96
464 35 97 95 96
465 24 255 217 424
466 25 255 217 220
467 25 424 217 220
468 14 142 143 146
469 24 350 343 342
470 25 350 343 339
471 25 342 343 339
472 9 219 218 425
473 9 219 218 216
474 24 425 218 216
475 27 148 146 143
476 24 148 146 149
477 27 149 146 143
478 24 371 188 216
479 25 371 188 184
480 25 216 188 184
481 27 22 26 534
482 27 32 26 534
483 24 22 26 32
484 9 219 424 217
485 24 217 424 423
486 9 219 424 423
487 24 30 33 32
488 25 30 33 36
489 25 32 33 36
490 24 425 374 371
491 25 425 374 376
492 25 371 374 376
493 9 31 30 23
494 24 23 30 33
495 9 31 30 33
496 2 71 204 203
497 29 203 204 202
498 29 203 204 205
499 2 71 204 202
500 29 202 204 205
501 2 71 204 205
502 1 85 89 111
503 2 85 89 225
504 2 85 89 62
505 23 111 89 225
506 29 225 89 62
507 23 111 89 62
508 13 3 1 4
509 24 26 32 33
510 25 26 32 535
511 25 33 32 535
512 14 367 369 371
513 24 218 216 188
514 25 218 216 215
515 25 188 216 215
516 24 218 425 374
517 25 218 425 426
518 25 374 425 426
519 27 374 371 369
520 24 374 371 188
521 27 188 371 369
522 9 92 112 109
523 24 109 112 91
524 9 92 112 91
525 9 31 29 24
526 9 31 29 25
527 24 24 29 25
528 22 424 219 218
529 23 424 219 221
530 23 424 219 427
531 23 218 219 221
532 29 221 219 427
533 23 218 219 427
534 23 112 92 93
535 23 112 92 94
536 23 112 92 38
537 29 93 92 94
538 29 93 92 38
539 29 94 92 38
540 24 29 24 148
541 25 29 24 28
542 25 148 24 28
543 24 111 268 267
544 25 111 268 266
545 25 267 268 266
546 21 368 367 369
547 32 364 367 369
548 32 365 367 369
549 19 368 367 364
550 29 364 367 365
551 19 368 367 365
552 2 89 85 110
553 29 110 85 83
554 29 110 85 87
555 2 89 85 83
556 29 83 85 87
557 2 89 85 87
558 9 89 111 268
559 9 89 111 91
560 24 268 111 91
561 22 30 31 29
562 23 30 31 35
563 23 30 31 34
564 23 29 31 35
565 29 35 31 34
566 23 29 31 34
567 13 311 313 312
568 31 207 210 213
569 19 211 210 207
570 29 207 210 212
571 31 212 210 213
572 19 211 210 212
573 20 211 210 213
574 14 252 461 462
575 27 470 469 467
576 27 331 469 467
577 24 470 469 331
578 24 469 470 585
579 25 469 470 468
580 25 585 470 468
581 24 469 331 333
582 25 469 331 330
583 25 333 331 330
584 24 470 585 516
585 25 470 585 584
586 25 516 585 584
587 24 516 333 331
588 25 516 333 272
589 25 331 333 272
590 9 515 516 585
591 24 585 516 333
592 9 515 516 333
593 22 516 515 475
594 23 516 515 513
595 23 516 515 514
596 23 475 515 513
597 29 513 515 514
598 23 475 515 514
599 9 515 475 477
600 9 515 475 478
601 24 477 475 478
602 1 162 165 347
603 2 162 165 164
604 2 162 165 166
605 23 347 165 164
606 29 164 165 166
607 23 347 165 166
608 9 165 347 344
609 9 165 347 351
610 24 344 347 351
611 2 165 162 160
612 29 160 162 161
613 29 160 162 159
614 2 165 162 161
615 29 161 162 159
616 2 165 162 159
617 24 575 577 578
618 25 575 577 574
619 25 578 577 574
620 31 80 78 77
621 19 79 78 80
622 29 80 78 76
623 31 76 78 77
624 19 79 78 76
625 20 79 78 77
626 24 475 477 479
627 25 475 477 562
628 25 479 477 562
629 14 473 467 469
630 24 58 60 190
631 25 58 60 61
632 25 190 60 61
633 24 60 190 186
634 25 60 190 192
635 25 186 190 192
636 6 523 521 520
637 8 523 521 519
638 7 523 521 525
639 7 520 521 525
640 34 525 521 519
641 8 520 521 519
642 13 78 77 79
643 6 78 79 55
644 8 78 79 77
645 7 78 79 81
646 7 55 79 81
647 34 81 79 77
648 8 55 79 77
649 27 60 58 59
650 27 181 58 59
651 24 60 58 181
652 14 55 59 58
653 24 580 578 577
654 25 580 578 579
655 25 577 578 579
656 21 521 520 358
657 19 521 520 518
658 19 521 520 524
659 32 518 520 358
660 29 518 520 524
661 32 524 520 358
662 21 79 55 59
663 19 79 55 54
664 19 79 55 52
665 32 54 55 59
666 29 54 55 52
667 32 52 55 59
668 24 347 351 356
669 26 356 351 173
670 26 347 351 173
671 18 247 243 175
672 31 308 311 313
673 19 312 311 308
674 29 308 311 314
675 31 314 311 313
676 19 312 311 314
677 20 312 311 313
678 18 43 39 449
679 9 187 186 190
680 24 190 186 182
681 9 187 186 182
682 27 453 575 573
683 24 453 575 577
684 27 577 575 573
685 24 29 25 149
686 25 29 25 27
687 25 149 25 27
688 24 475 478 480
689 25 475 478 476
690 25 480 478 476
691 13 523 519 521
692 31 522 523 519
693 19 521 523 522
694 29 522 523 526
695 31 526 523 519
696 19 521 523 526
697 20 521 523 519
698 13 492 486 490
699 24 353 350 343
700 25 353 350 517
701 25 343 350 517
702 24 342 348 352
703 25 342 348 284
704 25 352 348 284
705 6 210 211 208
706 8 210 211 213
707 7 210 211 214
708 7 208 211 214
709 34 214 211 213
710 8 208 211 213
711 24 477 479 482
712 25 477 479 563
713 25 482 479 563
714 14 520 358 353
715 27 350 353 358
716 27 352 353 358
717 24 350 353 352
718 24 482 480 478
719 25 482 480 481
720 25 478 480 481
721 14 121 241 238
722 27 479 482 484
723 24 479 482 480
724 27 480 482 484
725 14 487 484 482
726 24 233 235 239
727 25 233 235 236
728 25 239 235 236
729 9 581 580 456
730 9 581 580 578
731 24 456 580 578
732 24 238 239 235
733 25 238 239 240
734 25 235 239 240
735 21 211 208 413
736 19 211 208 206
737 19 211 208 209
738 32 206 208 413
739 29 206 208 209
740 32 209 208 413
741 21 490 487 484
742 32 485 487 484
743 32 491 487 484
744 19 490 487 485
745 29 485 487 491
746 19 490 487 491
747 24 415 418 417
748 25 415 418 419
749 25 417 418 419
750 27 415 414 413
751 27 412 414 413
752 24 415 414 412
753 9 581 417 418
754 24 418 417 455
755 9 581 417 455
756 24 414 415 418
757 25 414 415 416
758 25 418 415 416
759 14 208 413 414
760 24 417 455 412
761 25 417 455 454
762 25 412 455 454
763 24 414 412 455
764 25 414 412 411
765 25 455 412 411
766 22 417 581 580
767 23 417 581 460
768 23 417 581 549
769 23 580 581 460
770 29 460 581 549
771 23 580 581 549
772 24 238 234 232
773 25 238 234 118
774 25 232 234 118
775 27 234 238 241
776 27 239 238 241
777 24 234 238 239
778 24 580 456 453
779 25 580 456 457
780 25 453 456 457
781 24 353 352 348
782 25 353 352 290
783 25 348 352 290
784 24 456 453 575
785 25 456 453 452
786 25 575 453 452
787 9 229 233 232
788 24 232 233 235
789 9 229 233 235
790 24 234 232 233
791 25 234 232 230
792 25 233 232 230
793 6 487 490 492
794 8 487 490 486
795 7 487 490 488
796 7 492 490 488
797 34 488 490 486
798 8 492 490 486
799 20 490 492 486
800 19 490 492 493
801 19 490 492 494
802 31 493 492 486
803 29 493 492 494
804 31 494 492 486
805 13 210 213 211
806 24 556 560 557
807 25 556 560 536
808 25 557 560 536
809 24 555 557 560
810 25 555 557 440
811 25 560 557 440
812 6 311 312 310
813 8 311 312 313
814 7 311 312 315
815 7 310 312 315
816 34 315 312 313
817 8 310 312 313
818 14 571 573 575
819 27 438 442 394
820 27 393 442 394
821 24 438 442 393
822 24 58 181 182
823 25 58 181 51
824 25 182 181 51
825 28 109 155 153
826 28 109 155 37
827 35 153 155 37
828 24 186 182 181
829 25 186 182 178
830 25 181 182 178
831 11 244 173 351
832 28 351 173 171
833 12 244 173 171
834 24 231 201 404
835 25 231 201 237
836 25 404 201 237
837 16 247 244 173
838 30 245 244 173
839 30 242 244 173
840 15 247 244 245
841 29 245 244 242
842 15 247 244 242
843 24 326 323 321
844 25 326 323 324
845 25 321 323 324
846 3 244 247 252
847 5 244 247 243
848 4 244 247 246
849 4 252 247 246
850 33 246 247 243
851 5 252 247 243
852 17 247 252 461
853 15 247 252 459
854 15 247 252 253
855 32 459 252 461
856 29 459 252 253
857 32 253 252 461
858 1 510 319 321
859 23 321 319 316
860 23 321 319 465
861 2 510 319 316
862 29 316 319 465
863 2 510 319 465
864 24 201 404 400
865 25 201 404 409
866 25 400 404 409
867 17 86 561 558
868 15 86 561 90
869 15 86 561 537
870 32 90 561 558
871 29 90 561 537
872 32 537 561 558
873 21 405 406 402
874 32 410 406 402
875 32 408 406 402
876 19 405 406 410
877 29 410 406 408
878 19 405 406 408
879 6 406 405 544
880 8 406 405 543
881 7 406 405 538
882 7 544 405 538
883 34 538 405 543
884 8 544 405 543
885 20 405 544 543
886 19 405 544 548
887 19 405 544 541
888 31 548 544 543
889 29 548 544 541
890 31 541 544 543
891 13 544 543 405
892 14 406 402 400
893 2 319 510 583
894 2 319 510 509
895 2 319 510 511
896 29 583 510 509
897 29 583 510 511
898 29 509 510 511
899 3 84 86 561
900 5 84 86 559
901 4 84 86 88
902 4 561 86 88
903 33 88 86 559
904 5 561 86 559
905 6 196 197 195
906 8 196 197 199
907 7 196 197 200
908 7 195 197 200
909 34 200 197 199
910 8 195 197 199
911 13 196 199 197
912 9 319 321 323
913 24 323 321 320
914 9 319 321 320
915 16 86 84 317
916 30 82 84 317
917 30 552 84 317
918 15 86 84 82
919 29 82 84 552
920 15 86 84 552
921 31 198 196 199
922 19 197 196 198
923 29 198 196 194
924 31 194 196 199
925 19 197 196 194
926 20 197 196 199
927 27 404 400 402
928 24 404 400 397
929 27 397 400 402
930 18 86 559 318
931 11 84 317 320
932 28 320 317 464
933 12 84 317 464
934 14 561 558 556
935 24 321 320 322
936 26 322 320 317
937 26 321 320 317
938 20 108 105 107
939 19 108 105 104
940 19 108 105 106
941 31 104 105 107
942 29 104 105 106
943 31 106 105 107
944 24 347 344 349
945 25 347 344 341
946 25 349 344 341
947 6 504 108 105
948 8 504 108 107
949 7 504 108 19
950 7 105 108 19
951 34 19 108 107
952 8 105 108 107
953 21 197 195 394
954 19 197 195 163
955 19 197 195 398
956 32 163 195 394
957 29 163 195 398
958 32 398 195 394
959 9 295 299 298
960 24 298 299 302
961 9 295 299 302
962 24 555 553 554
963 25 555 553 550
964 25 554 553 550
965 24 553 554 556
966 25 553 554 551
967 25 556 554 551
968 21 108 504 501
969 32 506 504 501
970 32 582 504 501
971 19 108 504 506
972 29 506 504 582
973 19 108 504 582
974 21 312 310 306
975 19 312 310 309
976 19 312 310 377
977 32 309 310 306
978 29 309 310 377
979 32 377 310 306
980 14 310 306 304
981 9 434 555 553
982 9 434 555 557
983 24 553 555 557
984 22 436 434 555
985 23 436 434 431
986 23 436 434 429
987 23 555 434 431
988 29 431 434 429
989 23 555 434 429
990 24 299 302 305
991 25 299 302 303
992 25 305 302 303
993 22 233 229 231
994 23 233 229 228
995 23 233 229 226
996 23 231 229 228
997 29 228 229 226
998 23 231 229 226
999 14 504 501 500
1000 24 231 445 397
1001 25 231 445 444
1002 25 397 445 444
1003 9 229 231 201
1004 9 229 231 445
1005 24 201 231 445
1006 14 195 394 442
1007 9 262 267 268
1008 24 268 267 109
1009 9 262 267 109
1010 24 499 502 503
1011 25 499 502 463
1012 25 503 502 463
1013 2 262 263 264
1014 2 262 263 259
1015 2 262 263 265
1016 29 264 263 259
1017 29 264 263 265
1018 29 259 263 265
1019 24 438 435 436
1020 25 438 435 433
1021 25 436 435 433
1022 24 499 497 498
1023 25 499 497 495
1024 25 498 497 495
1025 27 301 304 306
1026 27 305 304 306
1027 24 301 304 305
1028 1 263 262 267
1029 23 267 262 261
1030 23 267 262 260
1031 2 263 262 261
1032 29 261 262 260
1033 2 263 262 260
1034 24 22 23 30
1035 25 22 23 21
1036 25 30 23 21
1037 24 442 438 435
1038 25 442 438 437
1039 25 435 438 437
1040 24 26 22 23
1041 25 26 22 20
1042 25 23 22 20
1043 22 299 295 499
1044 23 299 295 293
1045 23 299 295 458
1046 23 499 295 293
1047 29 293 295 458
1048 23 499 295 458
1049 27 503 500 501
1050 24 503 500 498
1051 27 498 500 501
1052 24 500 498 497
1053 25 500 498 496
1054 25 497 498 496
1055 27 554 556 558
1056 24 554 556 560
1057 27 560 556 558
1058 9 295 499 502
1059 9 295 499 497
1060 24 502 499 497
1061 24 304 301 298
1062 25 304 301 300
1063 25 298 301 300
1064 2 328 383 512
1065 29 512 383 381
1066 29 512 383 389
1067 2 328 383 381
1068 29 381 383 389
1069 2 328 383 389
1070 24 304 305 302
1071 25 304 305 307
1072 25 302 305 307
1073 24 400 397 445
1074 25 400 397 396
1075 25 445 397 396
1076 24 502 503 500
1077 25 502 503 505
1078 25 500 503 505
1079 9 434 436 435
1080 24 435 436 439
1081 9 434 436 439
1082 24 301 298 299
1083 25 301 298 296
1084 25 299 298 296
1085 24 436 439 393
1086 25 436 439 441
1087 25 393 439 441
1088 24 442 393 439
1089 25 442 393 395
1090 25 439 393 395

Dihedrals

1 26 280 283 281 278
2 30 281 283 285 286
3 30 280 283 285 286
4 10 447 281 278 276
5 10 447 281 283 280
6 25 283 281 447 446
7 25 283 281 447 450
8 25 283 281 447 448
9 28 283 281 278 116
10 25 278 281 447 446
11 25 278 281 447 450
12 25 278 281 447 448
13 12 447 281 278 116
14 12 447 281 283 285
15 28 278 281 283 285
16 26 276 278 281 283
17 30 276 278 116 227
18 30 276 278 116 114
19 30 281 278 116 227
20 30 281 278 116 114
21 26 276 277 280 283
22 26 280 277 276 278
23 10 282 280 277 276
24 25 277 280 282 279
25 25 277 280 282 483
26 26 277 280 283 281
27 11 282 280 277 275
28 27 283 280 277 275
29 25 283 280 282 279
30 25 283 280 282 483
31 10 282 280 283 281
32 12 282 280 283 285
33 28 277 280 283 285
34 10 274 276 277 280
35 11 274 276 277 275
36 10 274 276 278 281
37 12 274 276 278 116
38 25 277 276 274 117
39 25 278 276 274 117
40 25 277 276 274 273
41 25 278 276 274 273
42 26 277 276 278 281
43 28 277 276 278 116
44 27 278 276 277 275
45 29 49 47 174 169
46 26 49 47 174 176
47 27 174 47 49 50
48 45 45 47 174 169
49 17 168 169 174 47
50 17 168 169 174 176
51 32 174 169 168 167
52 32 174 169 168 172
53 18 43 41 285 283
54 46 285 41 43 39
55 19 43 41 285 286
56 38 40 41 285 286
57 38 42 41 285 286
58 35 40 41 43 39
59 34 40 41 43 170
60 35 42 41 43 39
61 34 42 41 43 170
62 10 345 349 344 347
63 25 344 349 345 346
64 25 344 349 345 340
65 28 344 349 354 357
66 26 344 349 354 356
67 11 345 349 344 341
68 27 354 349 344 341
69 25 354 349 345 346
70 25 354 349 345 340
71 10 345 349 354 356
72 12 345 349 354 357
73 1 113 274 276 277
74 1 113 274 276 278
75 23 276 274 113 115
76 23 276 274 113 158
77 23 276 274 113 157
78 1 403 345 349 344
79 23 349 345 403 401
80 23 349 345 403 407
81 23 349 345 403 399
82 1 403 345 349 354
83 33 346 345 403 401
84 33 346 345 403 407
85 33 346 345 403 399
86 33 340 345 403 401
87 33 340 345 403 407
88 33 340 345 403 399
89 22 379 193 223 222
90 22 379 193 223 224
91 16 223 193 379 378
92 26 177 49 47 174
93 27 177 49 47 45
94 44 50 49 47 45
95 26 47 49 177 124
96 26 47 174 176 124
97 27 47 174 176 120
98 27 176 174 47 45
99 10 56 177 49 47
100 11 56 177 49 50
101 10 56 177 124 176
102 11 56 177 124 127
103 25 49 177 56 132
104 25 124 177 56 132
105 25 49 177 56 57
106 25 124 177 56 57
107 26 49 177 124 176
108 27 49 177 124 127
109 27 124 177 49 50
110 24 177 56 15 17
111 24 15 56 177 49
112 24 15 56 177 124
113 24 177 56 15 13
114 26 177 124 176 174
115 27 177 124 176 120
116 10 56 15 17 14
117 25 17 15 56 132
118 25 17 15 56 57
119 26 17 15 13 11
120 27 17 15 13 53
121 11 56 15 17 18
122 27 13 15 17 18
123 25 13 15 56 132
124 25 13 15 56 57
125 11 56 15 13 53
126 10 56 15 13 11
127 10 328 326 323 321
128 11 328 326 323 324
129 10 328 326 325 322
130 12 328 326 325 327
131 25 323 326 328 385
132 25 325 326 328 385
133 25 323 326 328 332
134 25 325 326 328 332
135 26 323 326 325 322
136 28 323 326 325 327
137 27 325 326 323 324
138 20 43 168 169 174
139 34 172 168 43 170
140 34 167 168 43 170
141 48 169 168 43 39
142 35 172 168 43 39
143 35 167 168 43 39
144 33 115 113 274 117
145 33 115 113 274 273
146 33 158 113 274 117
147 33 158 113 274 273
148 33 157 113 274 117
149 33 157 113 274 273
150 27 174 176 124 127
151 45 120 176 174 169
152 44 120 176 124 127
153 29 124 176 174 169
154 9 532 531 527 528
155 8 528 531 532 534
156 6 528 531 532 508
157 6 528 531 532 530
158 6 532 531 528 507
159 6 532 531 528 529
160 42 533 531 528 527
161 43 533 531 532 534
162 47 527 531 532 534
163 7 532 531 528 527
164 3 168 43 41 285
165 39 170 43 41 285
166 4 41 43 168 169
167 2 41 43 168 172
168 2 41 43 168 167
169 5 41 43 39 449
170 2 168 43 41 40
171 2 168 43 41 42
172 40 170 43 168 169
173 41 170 43 39 449
174 5 168 43 39 449
175 30 349 354 357 359
176 30 349 354 357 355
177 26 349 354 356 351
178 30 356 354 357 359
179 30 356 354 357 355
180 1 287 282 280 277
181 23 280 282 287 289
182 23 280 282 287 288
183 23 280 282 287 489
184 1 287 282 280 283
185 33 279 282 287 289
186 33 279 282 287 288
187 33 279 282 287 489
188 33 483 282 287 289
189 33 483 282 287 288
190 33 483 282 287 489
191 9 473 472 466 269
192 8 269 472 473 467
193 6 269 472 473 471
194 6 269 472 473 443
195 6 473 472 269 271
196 6 473 472 269 270
197 42 474 472 269 466
198 43 474 472 473 467
199 47 466 472 473 467
200 7 473 472 269 466
201 21 472 473 467 469
202 36 471 473 472 474
203 36 443 473 472 474
204 37 471 473 472 466
205 37 443 473 472 466
206 16 269 466 472 474
207 22 472 466 269 271
208 22 472 466 269 270
209 37 271 269 472 466
210 36 271 269 472 474
211 37 270 269 472 466
212 36 270 269 472 474
213 15 41 285 283 281
214 31 283 285 41 40
215 31 283 285 41 42
216 15 41 285 283 280
217 26 185 180 128 130
218 27 185 180 128 126
219 10 361 356 351 347
220 10 361 356 354 349
221 25 354 356 361 363
222 25 354 356 361 360
223 25 354 356 361 362
224 28 351 356 354 357
225 25 351 356 361 363
226 25 351 356 361 360
227 25 351 356 361 362
228 12 361 356 354 357
229 12 361 356 351 173
230 28 354 356 351 173
231 8 223 379 430 380
232 47 193 379 430 380
233 43 378 379 430 380
234 7 430 379 223 193
235 6 430 379 223 222
236 6 430 379 223 224
237 9 430 379 193 223
238 6 223 379 430 432
239 6 223 379 430 428
240 42 378 379 223 193
241 36 222 223 379 378
242 36 224 223 379 378
243 37 222 223 379 193
244 37 224 223 379 193
245 26 14 17 15 13
246 27 15 17 14 16
247 37 507 528 531 527
248 36 507 528 531 533
249 37 529 528 531 527
250 36 529 528 531 533
251 21 531 532 534 26
252 36 508 532 531 533
253 36 530 532 531 533
254 37 508 532 531 527
255 37 530 532 531 527
256 27 130 128 180 179
257 45 126 128 130 129
258 44 126 128 180 179
259 29 180 128 130 129
260 10 187 185 136 135
261 11 187 185 136 191
262 10 187 185 180 128
263 11 187 185 180 179
264 25 136 185 187 189
265 25 180 185 187 189
266 25 136 185 187 183
267 25 180 185 187 183
268 26 136 185 180 128
269 27 136 185 180 179
270 27 180 185 136 191
271 21 379 430 380 384
272 37 432 430 379 193
273 36 432 430 379 378
274 37 428 430 379 193
275 36 428 430 379 378
276 10 337 342 343 350
277 25 343 342 337 338
278 25 343 342 337 336
279 26 343 342 348 352
280 27 343 342 348 284
281 11 337 342 343 339
282 27 348 342 343 339
283 25 348 342 337 338
284 25 348 342 337 336
285 11 337 342 348 284
286 10 337 342 348 352
287 37 297 294 123 291
288 36 297 294 123 292
289 37 249 294 123 291
290 36 249 294 123 292
291 17 532 534 26 22
292 17 532 534 26 32
293 32 26 534 532 508
294 32 26 534 532 530
295 36 103 250 251 248
296 36 102 250 251 248
297 37 103 250 251 125
298 37 102 250 251 125
299 17 430 380 384 386
300 32 384 380 430 432
301 32 384 380 430 428
302 17 430 380 384 388
303 26 386 384 388 392
304 27 386 384 388 387
305 27 388 384 386 382
306 27 384 388 392 335
307 45 387 388 384 380
308 44 387 388 392 335
309 29 392 388 384 380
310 26 334 392 388 384
311 27 334 392 388 387
312 17 131 129 130 135
313 32 130 129 131 134
314 32 130 129 131 133
315 17 131 129 130 128
316 8 250 251 131 129
317 47 125 251 131 129
318 43 248 251 131 129
319 7 131 251 250 125
320 6 131 251 250 103
321 6 131 251 250 102
322 9 131 251 125 250
323 6 250 251 131 134
324 6 250 251 131 133
325 42 248 251 250 125
326 22 251 125 250 103
327 22 251 125 250 102
328 16 250 125 251 248
329 21 251 131 129 130
330 37 134 131 251 125
331 36 134 131 251 248
332 37 133 131 251 125
333 36 133 131 251 248
334 16 294 291 123 292
335 22 123 291 294 297
336 22 123 291 294 249
337 26 135 130 128 180
338 27 135 130 128 126
339 27 128 130 135 137
340 10 337 334 390 386
341 11 337 334 390 391
342 10 337 334 392 388
343 11 337 334 392 335
344 25 390 334 337 338
345 25 392 334 337 338
346 25 390 334 337 336
347 25 392 334 337 336
348 26 390 334 392 388
349 27 390 334 392 335
350 27 392 334 390 391
351 24 334 337 342 343
352 24 342 337 334 390
353 24 342 337 334 392
354 24 334 337 342 348
355 9 121 123 291 294
356 8 294 123 121 241
357 6 294 123 121 119
358 6 294 123 121 122
359 6 121 123 294 297
360 6 121 123 294 249
361 42 292 123 294 291
362 43 292 123 121 241
363 47 291 123 121 241
364 7 121 123 294 291
365 29 17 14 12 9
366 45 16 14 12 9
367 26 12 14 17 15
368 27 12 14 17 18
369 44 16 14 17 18
370 26 17 14 12 11
371 29 136 135 130 129
372 26 136 135 130 128
373 27 130 135 136 191
374 45 137 135 130 129
375 26 185 136 135 130
376 27 185 136 135 137
377 44 191 136 135 137
378 26 135 136 185 180
379 22 368 370 372 375
380 22 368 370 372 373
381 16 372 370 368 366
382 26 14 12 11 13
383 27 14 12 11 10
384 27 11 12 14 16
385 21 4 8 9 12
386 36 6 8 4 5
387 36 7 8 4 5
388 37 6 8 4 1
389 37 7 8 4 1
390 21 123 121 241 238
391 36 119 121 123 292
392 36 122 121 123 292
393 37 119 121 123 291
394 37 122 121 123 291
395 8 372 368 367 369
396 47 370 368 367 369
397 43 366 368 367 369
398 7 367 368 372 370
399 6 367 368 372 375
400 6 367 368 372 373
401 9 367 368 370 372
402 6 372 368 367 364
403 6 372 368 367 365
404 42 366 368 372 370
405 16 528 527 531 533
406 22 531 527 528 507
407 22 531 527 528 529
408 27 15 13 11 10
409 44 53 13 11 10
410 1 383 328 326 323
411 1 383 328 326 325
412 23 326 328 383 512
413 23 326 328 383 381
414 23 326 328 383 389
415 26 334 390 386 384
416 27 334 390 386 382
417 44 391 390 386 382
418 26 386 390 334 392
419 9 8 4 1 3
420 8 3 4 8 9
421 6 3 4 8 6
422 6 3 4 8 7
423 6 8 4 3 99
424 6 8 4 3 2
425 42 5 4 3 1
426 43 5 4 8 9
427 47 1 4 8 9
428 7 8 4 3 1
429 36 375 372 368 366
430 36 373 372 368 366
431 37 375 372 368 370
432 37 373 372 368 370
433 10 152 322 325 326
434 10 152 322 320 321
435 25 320 322 152 154
436 25 320 322 152 151
437 25 320 322 152 150
438 28 320 322 325 327
439 25 325 322 152 154
440 25 325 322 152 151
441 25 325 322 152 150
442 12 152 322 325 327
443 12 152 322 320 317
444 28 325 322 320 317
445 29 217 255 462 461
446 45 256 255 462 461
447 26 462 255 217 424
448 27 462 255 217 220
449 44 256 255 217 220
450 26 217 255 462 421
451 29 423 421 462 461
452 45 420 421 462 461
453 26 462 421 423 424
454 27 462 421 423 422
455 20 140 142 143 146
456 34 144 142 140 138
457 34 141 142 140 138
458 48 143 142 140 139
459 35 144 142 140 139
460 35 141 142 140 139
461 3 142 140 257 72
462 39 138 140 257 72
463 4 257 140 142 143
464 2 257 140 142 144
465 2 257 140 142 141
466 5 257 140 139 73
467 2 142 140 257 254
468 2 142 140 257 258
469 40 138 140 142 143
470 41 138 140 139 73
471 5 142 140 139 73
472 26 326 325 322 320
473 30 326 325 327 156
474 30 326 325 327 329
475 30 322 325 327 156
476 30 322 325 327 329
477 30 64 65 542 547
478 30 64 65 542 540
479 26 64 65 67 70
480 30 67 65 542 547
481 30 67 65 542 540
482 10 63 64 66 68
483 25 66 64 63 98
484 25 66 64 63 539
485 28 66 64 65 542
486 26 66 64 65 67
487 11 63 64 66 100
488 27 65 64 66 100
489 25 65 64 63 98
490 25 65 64 63 539
491 10 63 64 65 67
492 12 63 64 65 542
493 10 69 67 70 68
494 10 69 67 65 64
495 25 65 67 69 46
496 25 65 67 69 44
497 25 65 67 69 48
498 28 70 67 65 542
499 25 70 67 69 46
500 25 70 67 69 44
501 25 70 67 69 48
502 12 69 67 65 542
503 12 69 67 70 72
504 28 65 67 70 72
505 26 68 70 67 65
506 30 68 70 72 74
507 30 67 70 72 74
508 1 545 63 64 66
509 23 64 63 545 576
510 23 64 63 545 572
511 23 64 63 545 546
512 1 545 63 64 65
513 33 98 63 545 576
514 33 98 63 545 572
515 33 98 63 545 546
516 33 539 63 545 576
517 33 539 63 545 572
518 33 539 63 545 546
519 26 68 66 64 65
520 26 64 66 68 70
521 15 257 72 70 68
522 31 70 72 257 254
523 31 70 72 257 258
524 15 257 72 70 67
525 10 71 68 66 64
526 11 71 68 66 100
527 10 71 68 70 67
528 25 66 68 71 75
529 25 70 68 71 75
530 25 66 68 71 101
531 25 70 68 71 101
532 26 66 68 70 67
533 27 70 68 66 100
534 12 71 68 70 72
535 28 66 68 70 72
536 18 140 257 72 70
537 46 72 257 140 139
538 19 140 257 72 74
539 38 254 257 72 74
540 38 258 257 72 74
541 35 254 257 140 139
542 34 254 257 140 138
543 35 258 257 140 139
544 34 258 257 140 138
545 27 424 423 421 420
546 44 422 423 421 420
547 36 451 569 568 565
548 36 567 569 568 565
549 37 451 569 568 564
550 37 567 569 568 564
551 26 255 462 421 423
552 27 255 462 421 420
553 27 421 462 255 256
554 8 569 568 571 573
555 47 564 568 571 573
556 43 565 568 571 573
557 7 571 568 569 564
558 6 571 568 569 451
559 6 571 568 569 567
560 9 571 568 564 569
561 6 569 568 571 566
562 6 569 568 571 570
563 42 565 568 569 564
564 1 204 71 68 66
565 1 204 71 68 70
566 23 68 71 204 203
567 23 68 71 204 202
568 23 68 71 204 205
569 21 568 571 573 575
570 37 566 571 568 564
571 36 566 571 568 565
572 37 570 571 568 564
573 36 570 571 568 565
574 22 568 564 569 451
575 22 568 564 569 567
576 16 569 564 568 565
577 22 108 107 105 104
578 22 108 107 105 106
579 16 105 107 108 19
580 24 185 187 186 190
581 24 186 187 185 136
582 24 186 187 185 180
583 24 185 187 186 182
584 29 13 11 12 9
585 45 10 11 12 9
586 26 12 11 13 15
587 27 12 11 13 53
588 17 8 9 12 14
589 17 8 9 12 11
590 32 12 9 8 6
591 32 12 9 8 7
592 37 99 3 4 1
593 36 99 3 4 5
594 37 2 3 4 1
595 36 2 3 4 5
596 26 111 91 112 109
597 30 111 91 95 97
598 30 111 91 95 96
599 30 112 91 95 97
600 30 112 91 95 96
601 29 24 148 146 143
602 26 24 148 146 149
603 27 146 148 24 28
604 45 145 148 146 143
605 27 146 149 25 27
606 45 147 149 146 143
607 44 147 149 25 27
608 29 25 149 146 143
609 29 390 386 384 380
610 26 390 386 384 388
611 27 384 386 390 391
612 45 382 386 384 380
613 30 267 109 155 153
614 30 267 109 155 37
615 26 267 109 112 91
616 30 112 109 155 153
617 30 112 109 155 37
618 26 255 217 424 423
619 27 424 217 255 256
620 17 142 143 146 148
621 17 142 143 146 149
622 32 146 143 142 141
623 32 146 143 142 144
624 26 350 343 342 348
625 27 342 343 350 517
626 10 219 218 425 374
627 11 219 218 425 426
628 10 219 218 216 188
629 11 219 218 216 215
630 25 425 218 219 221
631 25 216 218 219 221
632 25 425 218 219 427
633 25 216 218 219 427
634 26 425 218 216 188
635 27 425 218 216 215
636 27 216 218 425 426
637 26 148 146 149 25
638 27 148 146 149 147
639 27 149 146 148 145
640 27 371 188 216 215
641 45 184 188 371 369
642 44 184 188 216 215
643 29 216 188 371 369
644 26 22 26 32 33
645 27 22 26 32 535
646 27 32 26 22 20
647 10 219 424 217 255
648 25 217 424 219 221
649 25 217 424 219 427
650 26 217 424 423 421
651 27 217 424 423 422
652 11 219 424 217 220
653 27 423 424 217 220
654 25 423 424 219 221
655 25 423 424 219 427
656 11 219 424 423 422
657 10 219 424 423 421
658 27 30 33 32 535
659 44 36 33 32 535
660 29 425 374 371 369
661 26 425 374 371 188
662 27 371 374 425 426
663 45 376 374 371 369
664 10 31 30 23 22
665 25 23 30 31 35
666 25 23 30 31 34
667 26 23 30 33 32
668 27 23 30 33 36
669 11 31 30 23 21
670 27 33 30 23 21
671 25 33 30 31 35
672 25 33 30 31 34
673 11 31 30 33 36
674 10 31 30 33 32
675 33 203 204 71 75
676 33 203 204 71 101
677 33 202 204 71 75
678 33 202 204 71 101
679 33 205 204 71 75
680 33 205 204 71 101
681 1 85 89 111 268
682 1 85 89 111 91
683 23 111 89 85 110
684 23 111 89 85 83
685 23 111 89 85 87
686 16 3 1 4 5
687 22 4 1 3 99
688 22 4 1 3 2
689 29 33 32 26 534
690 45 535 32 26 534
691 26 26 32 33 30
692 27 26 32 33 36
693 17 367 369 371 374
694 32 371 369 367 364
695 32 371 369 367 365
696 17 367 369 371 188
697 26 218 216 188 371
698 27 218 216 188 184
699 26 218 425 374 371
700 27 218 425 374 376
701 44 426 425 374 376
702 26 374 425 218 216
703 26 374 371 188 216
704 27 374 371 188 184
705 27 188 371 374 376
706 10 92 112 91 111
707 10 92 112 109 267
708 25 109 112 92 93
709 25 109 112 92 94
710 25 109 112 92 38
711 28 109 112 91 95
712 28 91 112 109 155
713 25 91 112 92 93
714 25 91 112 92 94
715 25 91 112 92 38
716 12 92 112 91 95
717 12 92 112 109 155
718 10 31 29 24 148
719 11 31 29 24 28
720 10 31 29 25 149
721 11 31 29 25 27
722 25 24 29 31 35
723 25 25 29 31 35
724 25 24 29 31 34
725 25 25 29 31 34
726 26 24 29 25 149
727 27 24 29 25 27
728 27 25 29 24 28
729 24 218 219 424 217
730 24 424 219 218 425
731 24 424 219 218 216
732 24 218 219 424 423
733 26 29 24 148 146
734 27 29 24 148 145
735 44 28 24 148 145
736 26 148 24 29 25
737 26 111 268 267 109
738 26 267 268 111 91
739 21 368 367 369 371
740 37 364 367 368 370
741 36 364 367 368 366
742 37 365 367 368 370
743 36 365 367 368 366
744 33 110 85 89 225
745 33 110 85 89 62
746 33 83 85 89 225
747 33 83 85 89 62
748 33 87 85 89 225
749 33 87 85 89 62
750 10 89 111 268 267
751 11 89 111 268 266
752 10 89 111 91 112
753 12 89 111 91 95
754 25 268 111 89 225
755 25 91 111 89 225
756 25 268 111 89 62
757 25 91 111 89 62
758 26 268 111 91 112
759 28 268 111 91 95
760 27 91 111 268 266
761 24 29 31 30 23
762 24 30 31 29 24
763 24 30 31 29 25
764 24 29 31 30 33
765 16 311 313 312 315
766 22 312 313 311 308
767 22 312 313 311 314
768 37 207 210 211 213
769 36 207 210 211 214
770 37 212 210 211 213
771 36 212 210 211 214
772 17 252 461 462 255
773 17 252 461 462 421
774 32 462 461 252 253
775 32 462 461 252 459
776 26 470 469 331 333
777 27 470 469 331 330
778 27 331 469 470 468
779 29 585 470 469 467
780 45 468 470 469 467
781 26 469 470 585 516
782 27 469 470 585 584
783 44 468 470 585 584
784 26 585 470 469 331
785 29 333 331 469 467
786 45 330 331 469 467
787 26 469 331 333 516
788 27 469 331 333 272
789 26 470 585 516 333
790 27 516 585 470 468
791 27 516 333 331 330
792 44 272 333 331 330
793 10 515 516 585 470
794 25 585 516 515 513
795 25 585 516 515 514
796 26 585 516 333 331
797 27 585 516 333 272
798 11 515 516 585 584
799 27 333 516 585 584
800 25 333 516 515 513
801 25 333 516 515 514
802 11 515 516 333 272
803 10 515 516 333 331
804 24 475 515 516 585
805 24 516 515 475 477
806 24 516 515 475 478
807 24 475 515 516 333
808 10 515 475 477 479
809 11 515 475 477 562
810 10 515 475 478 480
811 11 515 475 478 476
812 25 477 475 515 513
813 25 478 475 515 513
814 25 477 475 515 514
815 25 478 475 515 514
816 26 477 475 478 480
817 27 477 475 478 476
818 27 478 475 477 562
819 1 162 165 347 344
820 1 162 165 347 351
821 23 347 165 162 160
822 23 347 165 162 161
823 23 347 165 162 159
824 10 165 347 344 349
825 11 165 347 344 341
826 10 165 347 351 356
827 25 344 347 165 164
828 25 351 347 165 164
829 25 344 347 165 166
830 25 351 347 165 166
831 26 344 347 351 356
832 27 351 347 344 341
833 12 165 347 351 173
834 28 344 347 351 173
835 33 160 162 165 164
836 33 160 162 165 166
837 33 161 162 165 164
838 33 161 162 165 166
839 33 159 162 165 164
840 33 159 162 165 166
841 27 575 577 578 579
842 45 574 577 575 573
843 44 574 577 578 579
844 29 578 577 575 573
845 37 80 78 79 77
846 36 80 78 79 81
847 37 76 78 79 77
848 36 76 78 79 81
849 26 475 477 479 482
850 27 475 477 479 563
851 44 562 477 479 563
852 26 479 477 475 478
853 17 473 467 469 470
854 17 473 467 469 331
855 32 469 467 473 471
856 32 469 467 473 443
857 29 190 60 58 59
858 45 61 60 58 59
859 26 58 60 190 186
860 27 58 60 190 192
861 44 61 60 190 192
862 26 190 60 58 181
863 26 60 190 186 182
864 27 186 190 60 61
865 9 520 521 519 523
866 8 523 521 520 358
867 6 523 521 520 518
868 6 523 521 520 524
869 6 520 521 523 522
870 6 520 521 523 526
871 42 525 521 523 519
872 43 525 521 520 358
873 47 519 521 520 358
874 7 520 521 523 519
875 16 78 77 79 81
876 22 79 77 78 80
877 22 79 77 78 76
878 9 55 79 77 78
879 8 78 79 55 59
880 6 78 79 55 54
881 6 78 79 55 52
882 6 55 79 78 80
883 6 55 79 78 76
884 42 81 79 78 77
885 43 81 79 55 59
886 47 77 79 55 59
887 7 55 79 78 77
888 26 60 58 181 182
889 27 60 58 181 51
890 27 181 58 60 61
891 17 55 59 58 60
892 17 55 59 58 181
893 32 58 59 55 54
894 32 58 59 55 52
895 26 580 578 577 575
896 27 580 578 577 574
897 21 521 520 358 353
898 36 518 520 521 525
899 36 524 520 521 525
900 37 518 520 521 519
901 37 524 520 521 519
902 21 79 55 59 58
903 36 54 55 79 81
904 36 52 55 79 81
905 37 54 55 79 77
906 37 52 55 79 77
907 26 347 351 356 354
908 30 356 351 173 171
909 30 347 351 173 171
910 37 308 311 312 313
911 36 308 311 312 315
912 37 314 311 312 313
913 36 314 311 312 315
914 10 187 186 190 60
915 25 190 186 187 189
916 25 190 186 187 183
917 26 190 186 182 181
918 27 190 186 182 178
919 11 187 186 190 192
920 27 182 186 190 192
921 25 182 186 187 189
922 25 182 186 187 183
923 11 187 186 182 178
924 10 187 186 182 181
925 26 453 575 577 578
926 27 453 575 577 574
927 27 577 575 453 452
928 26 29 25 149 146
929 27 29 25 149 147
930 26 475 478 480 482
931 27 475 478 480 481
932 16 523 519 521 525
933 22 521 519 523 522
934 22 521 519 523 526
935 37 522 523 521 519
936 36 522 523 521 525
937 37 526 523 521 519
938 36 526 523 521 525
939 22 490 486 492 493
940 22 490 486 492 494
941 16 492 486 490 488
942 29 343 350 353 358
943 45 517 350 353 358
944 26 353 350 343 342
945 27 353 350 343 339
946 44 517 350 343 339
947 26 343 350 353 352
948 27 342 348 352 290
949 44 284 348 352 290
950 9 208 211 213 210
951 8 210 211 208 413
952 6 210 211 208 206
953 6 210 211 208 209
954 6 208 211 210 207
955 6 208 211 210 212
956 42 214 211 210 213
957 43 214 211 208 413
958 47 213 211 208 413
959 7 208 211 210 213
960 29 477 479 482 484
961 26 477 479 482 480
962 27 482 479 477 562
963 45 563 479 482 484
964 17 520 358 353 350
965 17 520 358 353 352
966 32 353 358 520 518
967 32 353 358 520 524
968 26 350 353 352 348
969 27 350 353 352 290
970 27 352 353 350 517
971 27 482 480 478 476
972 45 481 480 482 484
973 44 481 480 478 476
974 29 478 480 482 484
975 17 121 241 238 234
976 17 121 241 238 239
977 32 238 241 121 119
978 32 238 241 121 122
979 26 479 482 480 478
980 27 479 482 480 481
981 27 480 482 479 563
982 17 487 484 482 479
983 32 482 484 487 485
984 32 482 484 487 491
985 17 487 484 482 480
986 27 233 235 239 240
987 44 236 235 239 240
988 10 581 580 456 453
989 11 581 580 456 457
990 10 581 580 578 577
991 11 581 580 578 579
992 25 456 580 581 460
993 25 578 580 581 460
994 25 456 580 581 549
995 25 578 580 581 549
996 26 456 580 578 577
997 27 456 580 578 579
998 27 578 580 456 457
999 29 235 239 238 241
1000 45 240 239 238 241
1001 26 238 239 235 233
1002 27 238 239 235 236
1003 21 211 208 413 414
1004 36 206 208 211 214
1005 36 209 208 211 214
1006 37 206 208 211 213
1007 37 209 208 211 213
1008 21 490 487 484 482
1009 37 485 487 490 486
1010 36 485 487 490 488
1011 37 491 487 490 486
1012 36 491 487 490 488
1013 26 415 418 417 455
1014 27 417 418 415 416
1015 26 415 414 412 455
1016 27 415 414 412 411
1017 27 412 414 415 416
1018 10 581 417 418 415
1019 25 418 417 581 460
1020 25 418 417 581 549
1021 26 418 417 455 412
1022 27 418 417 455 454
1023 11 581 417 418 419
1024 27 455 417 418 419
1025 25 455 417 581 460
1026 25 455 417 581 549
1027 11 581 417 455 454
1028 10 581 417 455 412
1029 29 418 415 414 413
1030 45 416 415 414 413
1031 26 414 415 418 417
1032 27 414 415 418 419
1033 44 416 415 418 419
1034 26 418 415 414 412
1035 17 208 413 414 415
1036 17 208 413 414 412
1037 32 414 413 208 206
1038 32 414 413 208 209
1039 27 417 455 412 411
1040 44 454 455 412 411
1041 29 455 412 414 413
1042 45 411 412 414 413
1043 26 414 412 455 417
1044 27 414 412 455 454
1045 24 580 581 417 418
1046 24 417 581 580 456
1047 24 417 581 580 578
1048 24 580 581 417 455
1049 29 232 234 238 241
1050 45 118 234 238 241
1051 26 238 234 232 233
1052 27 238 234 232 230
1053 44 118 234 232 230
1054 26 232 234 238 239
1055 26 234 238 239 235
1056 27 234 238 239 240
1057 27 239 238 234 118
1058 26 580 456 453 575
1059 27 580 456 453 452
1060 44 457 456 453 452
1061 26 453 456 580 578
1062 29 348 352 353 358
1063 45 290 352 353 358
1064 26 353 352 348 342
1065 27 353 352 348 284
1066 29 456 453 575 573
1067 26 456 453 575 577
1068 27 575 453 456 457
1069 45 452 453 575 573
1070 10 229 233 232 234
1071 25 232 233 229 228
1072 25 232 233 229 226
1073 26 232 233 235 239
1074 27 232 233 235 236
1075 11 229 233 232 230
1076 27 235 233 232 230
1077 25 235 233 229 228
1078 25 235 233 229 226
1079 11 229 233 235 236
1080 10 229 233 235 239
1081 26 234 232 233 235
1082 27 233 232 234 118
1083 8 492 490 487 484
1084 47 486 490 487 484
1085 43 488 490 487 484
1086 7 487 490 492 486
1087 6 487 490 492 493
1088 6 487 490 492 494
1089 9 487 490 486 492
1090 6 492 490 487 485
1091 6 492 490 487 491
1092 42 488 490 492 486
1093 36 493 492 490 488
1094 36 494 492 490 488
1095 37 493 492 490 486
1096 37 494 492 490 486
1097 16 210 213 211 214
1098 22 211 213 210 207
1099 22 211 213 210 212
1100 27 556 560 557 440
1101 45 536 560 556 558
1102 44 536 560 557 440
1103 29 557 560 556 558
1104 26 555 557 560 556
1105 27 555 557 560 536
1106 9 310 312 313 311
1107 8 311 312 310 306
1108 6 311 312 310 309
1109 6 311 312 310 377
1110 6 310 312 311 308
1111 6 310 312 311 314
1112 42 315 312 311 313
1113 43 315 312 310 306
1114 47 313 312 310 306
1115 7 310 312 311 313
1116 17 571 573 575 453
1117 32 575 573 571 566
1118 32 575 573 571 570
1119 17 571 573 575 577
1120 26 438 442 393 439
1121 27 438 442 393 395
1122 27 393 442 438 437
1123 29 182 181 58 59
1124 45 51 181 58 59
1125 26 58 181 182 186
1126 27 58 181 182 178
1127 27 186 182 181 51
1128 44 178 182 181 51
1129 15 244 173 351 356
1130 31 351 173 244 245
1131 31 351 173 244 242
1132 15 244 173 351 347
1133 26 231 201 404 400
1134 27 231 201 404 409
1135 44 237 201 404 409
1136 26 404 201 231 445
1137 18 247 244 173 351
1138 46 173 244 247 243
1139 19 247 244 173 171
1140 38 245 244 173 171
1141 38 242 244 173 171
1142 35 245 244 247 243
1143 34 245 244 247 246
1144 35 242 244 247 243
1145 34 242 244 247 246
1146 26 326 323 321 320
1147 26 321 323 326 325
1148 3 252 247 244 173
1149 39 246 247 244 173
1150 4 244 247 252 461
1151 2 244 247 252 459
1152 2 244 247 252 253
1153 5 244 247 243 175
1154 2 252 247 244 245
1155 2 252 247 244 242
1156 40 246 247 252 461
1157 41 246 247 243 175
1158 5 252 247 243 175
1159 20 247 252 461 462
1160 34 459 252 247 246
1161 34 253 252 247 246
1162 48 461 252 247 243
1163 35 459 252 247 243
1164 35 253 252 247 243
1165 1 510 319 321 323
1166 23 321 319 510 583
1167 23 321 319 510 509
1168 23 321 319 510 511
1169 1 510 319 321 320
1170 33 316 319 510 583
1171 33 316 319 510 509
1172 33 316 319 510 511
1173 33 465 319 510 583
1174 33 465 319 510 509
1175 33 465 319 510 511
1176 29 201 404 400 402
1177 26 201 404 400 397
1178 27 400 404 201 237
1179 45 409 404 400 402
1180 20 86 561 558 556
1181 34 90 561 86 88
1182 34 537 561 86 88
1183 48 558 561 86 559
1184 35 90 561 86 559
1185 35 537 561 86 559
1186 21 405 406 402 400
1187 37 410 406 405 543
1188 36 410 406 405 538
1189 37 408 406 405 543
1190 36 408 406 405 538
1191 8 544 405 406 402
1192 47 543 405 406 402
1193 43 538 405 406 402
1194 7 406 405 544 543
1195 6 406 405 544 548
1196 6 406 405 544 541
1197 9 406 405 543 544
1198 6 544 405 406 410
1199 6 544 405 406 408
1200 42 538 405 544 543
1201 36 548 544 405 538
1202 36 541 544 405 538
1203 37 548 544 405 543
1204 37 541 544 405 543
1205 22 405 543 544 548
1206 22 405 543 544 541
1207 16 544 543 405 538
1208 17 406 402 400 404
1209 32 400 402 406 410
1210 32 400 402 406 408
1211 17 406 402 400 397
1212 3 561 86 84 317
1213 39 88 86 84 317
1214 4 84 86 561 558
1215 2 84 86 561 90
1216 2 84 86 561 537
1217 5 84 86 559 318
1218 2 561 86 84 82
1219 2 561 86 84 552
1220 40 88 86 561 558
1221 41 88 86 559 318
1222 5 561 86 559 318
1223 9 195 197 199 196
1224 8 196 197 195 394
1225 6 196 197 195 163
1226 6 196 197 195 398
1227 6 195 197 196 198
1228 6 195 197 196 194
1229 42 200 197 196 199
1230 43 200 197 195 394
1231 47 199 197 195 394
1232 7 195 197 196 199
1233 16 196 199 197 200
1234 22 197 199 196 198
1235 22 197 199 196 194
1236 10 319 321 323 326
1237 25 323 321 319 316
1238 25 323 321 319 465
1239 26 323 321 320 322
1240 11 319 321 323 324
1241 27 320 321 323 324
1242 25 320 321 319 316
1243 25 320 321 319 465
1244 10 319 321 320 322
1245 12 319 321 320 317
1246 28 323 321 320 317
1247 18 86 84 317 320
1248 46 317 84 86 559
1249 19 86 84 317 464
1250 38 82 84 317 464
1251 38 552 84 317 464
1252 35 82 84 86 559
1253 34 82 84 86 88
1254 35 552 84 86 559
1255 34 552 84 86 88
1256 37 198 196 197 199
1257 36 198 196 197 200
1258 37 194 196 197 199
1259 36 194 196 197 200
1260 26 404 400 397 445
1261 27 404 400 397 396
1262 27 397 400 404 409
1263 15 84 317 320 322
1264 31 320 317 84 82
1265 31 320 317 84 552
1266 15 84 317 320 321
1267 17 561 558 556 554
1268 17 561 558 556 560
1269 32 556 558 561 537
1270 32 556 558 561 90
1271 26 321 320 322 325
1272 30 322 320 317 464
1273 30 321 320 317 464
1274 36 104 105 108 19
1275 36 106 105 108 19
1276 37 104 105 108 107
1277 37 106 105 108 107
1278 26 347 344 349 354
1279 26 349 344 347 351
1280 8 105 108 504 501
1281 47 107 108 504 501
1282 43 19 108 504 501
1283 7 504 108 105 107
1284 6 504 108 105 104
1285 6 504 108 105 106
1286 9 504 108 107 105
1287 6 105 108 504 506
1288 6 105 108 504 582
1289 42 19 108 105 107
1290 21 197 195 394 442
1291 36 163 195 197 200
1292 36 398 195 197 200
1293 37 163 195 197 199
1294 37 398 195 197 199
1295 10 295 299 298 301
1296 25 298 299 295 293
1297 25 298 299 295 458
1298 26 298 299 302 305
1299 27 298 299 302 303
1300 11 295 299 298 296
1301 27 302 299 298 296
1302 25 302 299 295 293
1303 25 302 299 295 458
1304 11 295 299 302 303
1305 10 295 299 302 305
1306 26 555 553 554 556
1307 27 555 553 554 551
1308 44 550 553 554 551
1309 26 554 553 555 557
1310 29 553 554 556 558
1311 26 553 554 556 560
1312 27 556 554 553 550
1313 45 551 554 556 558
1314 21 108 504 501 500
1315 37 506 504 108 107
1316 36 506 504 108 19
1317 37 582 504 108 107
1318 36 582 504 108 19
1319 21 312 310 306 304
1320 36 309 310 312 315
1321 36 377 310 312 315
1322 37 309 310 312 313
1323 37 377 310 312 313
1324 17 310 306 304 301
1325 17 310 306 304 305
1326 32 304 306 310 309
1327 32 304 306 310 377
1328 10 434 555 553 554
1329 11 434 555 553 550
1330 10 434 555 557 560
1331 11 434 555 557 440
1332 25 553 555 434 431
1333 25 557 555 434 431
1334 25 553 555 434 429
1335 25 557 555 434 429
1336 26 553 555 557 560
1337 27 553 555 557 440
1338 27 557 555 553 550
1339 24 555 434 436 435
1340 24 436 434 555 553
1341 24 436 434 555 557
1342 24 555 434 436 439
1343 27 299 302 305 307
1344 44 303 302 305 307
1345 24 231 229 233 232
1346 24 233 229 231 201
1347 24 233 229 231 445
1348 24 231 229 233 235
1349 17 504 501 500 503
1350 32 500 501 504 506
1351 32 500 501 504 582
1352 17 504 501 500 498
1353 26 231 445 397 400
1354 27 231 445 397 396
1355 10 229 231 201 404
1356 11 229 231 201 237
1357 10 229 231 445 397
1358 11 229 231 445 444
1359 25 201 231 229 228
1360 25 445 231 229 228
1361 25 201 231 229 226
1362 25 445 231 229 226
1363 26 201 231 445 397
1364 27 201 231 445 444
1365 27 445 231 201 237
1366 17 195 394 442 438
1367 17 195 394 442 393
1368 32 442 394 195 163
1369 32 442 394 195 398
1370 10 262 267 268 111
1371 25 268 267 262 261
1372 25 268 267 262 260
1373 28 268 267 109 155
1374 26 268 267 109 112
1375 11 262 267 268 266
1376 27 109 267 268 266
1377 25 109 267 262 261
1378 25 109 267 262 260
1379 10 262 267 109 112
1380 12 262 267 109 155
1381 26 499 502 503 500
1382 27 499 502 503 505
1383 44 463 502 503 505
1384 26 503 502 499 497
1385 26 438 435 436 439
1386 27 436 435 438 437
1387 26 499 497 498 500
1388 27 499 497 498 496
1389 26 301 304 305 302
1390 27 301 304 305 307
1391 27 305 304 301 300
1392 1 263 262 267 268
1393 23 267 262 263 264
1394 23 267 262 263 259
1395 23 267 262 263 265
1396 1 263 262 267 109
1397 33 261 262 263 264
1398 33 261 262 263 259
1399 33 261 262 263 265
1400 33 260 262 263 264
1401 33 260 262 263 259
1402 33 260 262 263 265
1403 26 22 23 30 33
1404 27 30 23 22 20
1405 29 435 438 442 394
1406 45 437 438 442 394
1407 26 442 438 435 436
1408 27 442 438 435 433
1409 44 437 438 435 433
1410 26 435 438 442 393
1411 29 23 22 26 534
1412 45 20 22 26 534
1413 26 26 22 23 30
1414 27 26 22 23 21
1415 44 20 22 23 21
1416 26 23 22 26 32
1417 24 499 295 299 298
1418 24 299 295 499 502
1419 24 299 295 499 497
1420 24 499 295 299 302
1421 26 503 500 498 497
1422 27 503 500 498 496
1423 27 498 500 503 505
1424 27 500 498 497 495
1425 45 496 498 500 501
1426 44 496 498 497 495
1427 29 497 498 500 501
1428 26 554 556 560 557
1429 27 554 556 560 536
1430 27 560 556 554 551
1431 10 295 499 502 503
1432 11 295 499 502 463
1433 10 295 499 497 498
1434 11 295 499 497 495
1435 25 502 499 295 293
1436 25 497 499 295 293
1437 25 502 499 295 458
1438 25 497 499 295 458
1439 26 502 499 497 498
1440 27 502 499 497 495
1441 27 497 499 502 463
1442 29 298 301 304 306
1443 45 300 301 304 306
1444 26 304 301 298 299
1445 27 304 301 298 296
1446 44 300 301 298 296
1447 26 298 301 304 305
1448 33 512 383 328 385
1449 33 512 383 328 332
1450 33 381 383 328 385
1451 33 381 383 328 332
1452 33 389 383 328 385
1453 33 389 383 328 332
1454 29 302 305 304 306
1455 45 307 305 304 306
1456 26 304 305 302 299
1457 27 304 305 302 303
1458 27 400 397 445 444
1459 45 396 397 400 402
1460 44 396 397 445 444
1461 29 445 397 400 402
1462 29 502 503 500 501
1463 26 502 503 500 498
1464 27 500 503 502 463
1465 45 505 503 500 501
1466 10 434 436 435 438
1467 25 435 436 434 431
1468 25 435 436 434 429
1469 26 435 436 439 393
1470 27 435 436 439 441
1471 11 434 436 435 433
1472 27 439 436 435 433
1473 25 439 436 434 431
1474 25 439 436 434 429
1475 11 434 436 439 441
1476 10 434 436 439 393
1477 26 301 298 299 302
1478 27 299 298 301 300
1479 27 436 439 393 395
1480 44 441 439 393 395
1481 29 439 393 442 394
1482 45 395 393 442 394
1483 26 442 393 439 436
1484 27 442 393 439 441

Impropers

1 26 280 283 281 285
2 24 447 281 278 283
3 26 276 278 281 116
4 25 276 277 280 275
5 24 282 280 283 277
6 24 274 276 277 278
7 25 49 47 174 45
8 5 43 41 40 285
9 5 43 41 42 285
10 15 40 41 42 285
11 4 43 41 40 42
12 24 345 349 354 344
13 3 345 403 401 407
14 3 345 403 401 399
15 3 345 403 407 399
16 14 401 403 407 399
17 1 113 274 276 117
18 1 113 274 276 273
19 3 113 274 117 273
20 13 276 274 117 273
21 2 403 345 346 349
22 2 403 345 340 349
23 13 349 345 346 340
24 3 403 345 346 340
25 30 278 116 227 114
26 25 177 49 47 50
27 27 176 174 47 169
28 24 56 177 49 124
29 12 15 56 177 132
30 12 15 56 177 57
31 13 15 56 132 57
32 13 177 56 132 57
33 25 176 124 177 127
34 24 56 15 13 17
35 24 328 326 323 325
36 6 43 168 169 172
37 6 43 168 169 167
38 4 43 168 172 167
39 17 172 168 167 169
40 3 274 113 115 158
41 3 274 113 115 157
42 3 274 113 158 157
43 14 115 113 158 157
44 25 174 176 124 120
45 22 528 531 532 527
46 21 528 531 532 533
47 23 528 531 527 533
48 23 532 531 527 533
49 19 41 43 168 39
50 18 41 43 168 170
51 20 41 43 39 170
52 20 168 43 39 170
53 26 356 354 349 357
54 2 287 282 279 280
55 2 287 282 483 280
56 13 280 282 279 483
57 3 287 282 279 483
58 30 354 357 359 355
59 22 269 472 473 466
60 21 269 472 473 474
61 23 269 472 466 474
62 23 473 472 466 474
63 11 472 473 467 471
64 11 472 473 467 443
65 7 472 473 471 443
66 17 471 473 443 467
67 8 472 269 271 466
68 8 472 269 270 466
69 16 271 269 270 466
70 7 472 269 271 270
71 29 41 285 286 283
72 13 281 447 446 450
73 13 281 447 446 448
74 13 281 447 450 448
75 14 446 447 450 448
76 25 128 180 185 179
77 24 361 356 351 354
78 22 430 379 223 193
79 21 430 379 223 378
80 23 430 379 193 378
81 23 223 379 193 378
82 10 379 223 193 222
83 10 379 223 193 224
84 7 379 223 222 224
85 16 222 223 224 193
86 25 14 17 15 18
87 8 531 528 507 527
88 8 531 528 529 527
89 16 507 528 529 527
90 7 531 528 507 529
91 11 531 532 534 508
92 11 531 532 534 530
93 7 531 532 508 530
94 17 508 532 530 534
95 3 282 287 289 288
96 3 282 287 289 489
97 3 282 287 288 489
98 14 289 287 288 489
99 25 130 128 180 126
100 24 187 185 136 180
101 9 379 430 432 380
102 9 379 430 428 380
103 17 432 430 428 380
104 7 379 430 432 428
105 24 337 342 348 343
106 8 123 294 297 291
107 8 123 294 249 291
108 16 297 294 249 291
109 7 123 294 297 249
110 10 251 250 125 103
111 10 251 250 125 102
112 7 251 250 103 102
113 16 103 250 102 125
114 27 388 384 386 380
115 25 384 388 392 387
116 25 388 392 334 335
117 22 131 251 250 125
118 21 131 251 250 248
119 23 131 251 125 248
120 23 250 251 125 248
121 9 251 131 134 129
122 9 251 131 133 129
123 17 134 131 133 129
124 7 251 131 134 133
125 27 128 130 135 129
126 24 337 334 390 392
127 12 342 337 334 338
128 12 342 337 334 336
129 13 342 337 338 336
130 13 334 337 338 336
131 22 294 123 121 291
132 21 294 123 121 292
133 23 294 123 291 292
134 23 121 123 291 292
135 25 12 14 17 16
136 25 136 135 130 137
137 25 185 136 135 191
138 27 14 12 11 9
139 11 4 8 9 6
140 11 4 8 9 7
141 7 4 8 6 7
142 17 6 8 7 9
143 11 123 121 241 119
144 11 123 121 241 122
145 7 123 121 119 122
146 17 119 121 122 241
147 22 367 368 372 370
148 21 367 368 372 366
149 23 367 368 370 366
150 23 372 368 370 366
151 25 15 13 11 53
152 1 383 328 326 385
153 1 383 328 326 332
154 3 383 328 385 332
155 13 326 328 385 332
156 25 334 390 386 391
157 22 3 4 8 1
158 21 3 4 8 5
159 23 3 4 1 5
160 23 8 4 1 5
161 10 368 372 370 375
162 10 368 372 370 373
163 7 368 372 375 373
164 16 375 372 373 370
165 24 152 322 325 320
166 25 462 255 217 256
167 3 63 545 576 572
168 3 63 545 576 546
169 3 63 545 572 546
170 14 576 545 572 546
171 25 423 421 462 420
172 6 140 142 143 144
173 6 140 142 143 141
174 4 140 142 144 141
175 17 144 142 141 143
176 19 257 140 142 139
177 18 257 140 142 138
178 20 257 140 139 138
179 20 142 140 139 138
180 13 322 152 154 151
181 13 322 152 154 150
182 13 322 152 151 150
183 14 154 152 151 150
184 30 325 327 156 329
185 26 326 325 322 327
186 26 67 65 64 542
187 30 65 542 547 540
188 24 63 64 65 66
189 24 69 67 70 65
190 13 67 69 46 44
191 13 67 69 46 48
192 13 67 69 44 48
193 14 46 69 44 48
194 26 67 70 68 72
195 2 545 63 98 64
196 2 545 63 539 64
197 13 64 63 98 539
198 3 545 63 98 539
199 25 68 66 64 100
200 29 257 72 74 70
201 24 71 68 66 70
202 5 140 257 254 72
203 5 140 257 258 72
204 15 254 257 258 72
205 4 140 257 254 258
206 25 424 423 421 422
207 10 568 569 564 451
208 10 568 569 564 567
209 7 568 569 451 567
210 16 451 569 567 564
211 27 255 462 421 461
212 22 571 568 569 564
213 21 571 568 569 565
214 23 571 568 564 565
215 23 569 568 564 565
216 13 356 361 363 360
217 13 356 361 363 362
218 13 356 361 360 362
219 14 363 361 360 362
220 1 204 71 68 75
221 1 204 71 68 101
222 3 204 71 75 101
223 13 68 71 75 101
224 9 568 571 566 573
225 9 568 571 570 573
226 17 566 571 570 573
227 7 568 571 566 570
228 12 186 187 185 189
229 12 186 187 185 183
230 13 186 187 189 183
231 13 185 187 189 183
232 25 13 11 12 10
233 8 4 3 99 1
234 8 4 3 2 1
235 16 99 3 2 1
236 7 4 3 99 2
237 26 111 91 112 95
238 25 24 148 146 145
239 25 146 149 25 147
240 25 390 386 384 382
241 26 112 109 267 155
242 30 91 95 97 96
243 25 255 217 424 220
244 25 350 343 342 339
245 24 219 218 425 216
246 27 149 146 148 143
247 25 371 188 216 184
248 27 22 26 32 534
249 24 219 424 423 217
250 25 30 33 32 36
251 25 425 374 371 376
252 24 31 30 33 23
253 3 71 204 203 202
254 3 71 204 203 205
255 3 71 204 202 205
256 14 203 204 202 205
257 1 85 89 111 225
258 1 85 89 111 62
259 3 85 89 225 62
260 13 111 89 225 62
261 25 33 32 26 535
262 25 188 216 218 215
263 25 218 425 374 426
264 27 188 371 374 369
265 24 92 112 91 109
266 24 31 29 24 25
267 12 424 219 218 221
268 12 424 219 218 427
269 13 424 219 221 427
270 13 218 219 221 427
271 13 112 92 93 94
272 13 112 92 93 38
273 13 112 92 94 38
274 14 93 92 94 38
275 25 29 24 148 28
276 25 111 268 267 266
277 9 368 367 364 369
278 9 368 367 365 369
279 17 364 367 365 369
280 7 368 367 364 365
281 3 89 85 110 83
282 3 89 85 110 87
283 3 89 85 83 87
284 14 110 85 83 87
285 24 89 111 268 91
286 12 30 31 29 35
287 12 30 31 29 34
288 13 30 31 35 34
289 13 29 31 35 34
290 8 211 210 207 213
291 8 211 210 212 213
292 16 207 210 212 213
293 7 211 210 207 212
294 27 470 469 331 467
295 25 469 470 585 468
296 25 333 331 469 330
297 25 470 585 516 584
298 25 516 333 331 272
299 24 515 516 333 585
300 12 516 515 475 513
301 12 516 515 475 514
302 13 516 515 513 514
303 13 475 515 513 514
304 24 515 475 477 478
305 1 162 165 347 164
306 1 162 165 347 166
307 3 162 165 164 166
308 13 347 165 164 166
309 24 165 347 344 351
310 3 165 162 160 161
311 3 165 162 160 159
312 3 165 162 161 159
313 14 160 162 161 159
314 25 575 577 578 574
315 8 79 78 80 77
316 8 79 78 76 77
317 16 80 78 76 77
318 7 79 78 80 76
319 25 475 477 479 562
320 25 58 60 190 61
321 25 60 190 186 192
322 22 523 521 520 519
323 21 523 521 520 525
324 23 523 521 519 525
325 23 520 521 519 525
326 22 78 79 55 77
327 21 78 79 55 81
328 23 78 79 77 81
329 23 55 79 77 81
330 27 60 58 181 59
331 25 577 578 580 579
332 11 521 520 358 518
333 11 521 520 358 524
334 7 521 520 518 524
335 17 518 520 524 358
336 11 79 55 59 54
337 11 79 55 59 52
338 7 79 55 54 52
339 17 54 55 52 59
340 26 347 351 356 173
341 8 312 311 308 313
342 8 312 311 314 313
343 16 308 311 314 313
344 7 312 311 308 314
345 24 187 186 182 190
346 27 577 575 453 573
347 25 149 25 29 27
348 25 480 478 475 476
349 8 521 523 522 519
350 8 521 523 526 519
351 16 522 523 526 519
352 7 521 523 522 526
353 25 353 350 343 517
354 25 342 348 352 284
355 22 210 211 208 213
356 21 210 211 208 214
357 23 210 211 213 214
358 23 208 211 213 214
359 25 477 479 482 563
360 27 350 353 352 358
361 25 482 480 478 481
362 27 480 482 479 484
363 25 233 235 239 236
364 24 581 580 456 578
365 25 235 239 238 240
366 11 211 208 413 206
367 11 211 208 413 209
368 7 211 208 206 209
369 17 206 208 209 413
370 9 490 487 485 484
371 9 490 487 491 484
372 17 485 487 491 484
373 7 490 487 485 491
374 25 415 418 417 419
375 27 415 414 412 413
376 24 581 417 455 418
377 25 414 415 418 416
378 25 417 455 412 454
379 25 455 412 414 411
380 12 417 581 580 460
381 12 417 581 580 549
382 13 417 581 460 549
383 13 580 581 460 549
384 25 238 234 232 118
385 27 234 238 239 241
386 25 580 456 453 457
387 25 348 352 353 290
388 25 456 453 575 452
389 24 229 233 235 232
390 25 234 232 233 230
391 22 487 490 492 486
392 21 487 490 492 488
393 23 487 490 486 488
394 23 492 490 486 488
395 10 490 492 486 493
396 10 490 492 486 494
397 7 490 492 493 494
398 16 493 492 494 486
399 25 556 560 557 536
400 25 560 557 555 440
401 22 311 312 310 313
402 21 311 312 310 315
403 23 311 312 313 315
404 23 310 312 313 315
405 27 438 442 393 394
406 25 182 181 58 51
407 30 109 155 153 37
408 25 186 182 181 178
409 29 244 173 171 351
410 25 231 201 404 237
411 5 247 244 245 173
412 5 247 244 242 173
413 15 245 244 242 173
414 4 247 244 245 242
415 25 326 323 321 324
416 19 244 247 252 243
417 18 244 247 252 246
418 20 244 247 243 246
419 20 252 247 243 246
420 6 247 252 461 459
421 6 247 252 461 253
422 4 247 252 459 253
423 17 459 252 253 461
424 2 510 319 316 321
425 2 510 319 465 321
426 13 321 319 316 465
427 3 510 319 316 465
428 25 201 404 400 409
429 6 86 561 558 90
430 6 86 561 558 537
431 4 86 561 90 537
432 17 90 561 537 558
433 9 405 406 410 402
434 9 405 406 408 402
435 17 410 406 408 402
436 7 405 406 410 408
437 22 406 405 544 543
438 21 406 405 544 538
439 23 406 405 543 538
440 23 544 405 543 538
441 10 405 544 543 548
442 10 405 544 543 541
443 7 405 544 548 541
444 16 548 544 541 543
445 3 319 510 583 509
446 3 319 510 583 511
447 3 319 510 509 511
448 14 583 510 509 511
449 19 84 86 561 559
450 18 84 86 561 88
451 20 84 86 559 88
452 20 561 86 559 88
453 22 196 197 195 199
454 21 196 197 195 200
455 23 196 197 199 200
456 23 195 197 199 200
457 24 319 321 320 323
458 5 86 84 82 317
459 5 86 84 552 317
460 15 82 84 552 317
461 4 86 84 82 552
462 8 197 196 198 199
463 8 197 196 194 199
464 16 198 196 194 199
465 7 197 196 198 194
466 27 397 400 404 402
467 29 84 317 464 320
468 26 321 320 322 317
469 10 108 105 107 104
470 10 108 105 107 106
471 7 108 105 104 106
472 16 104 105 106 107
473 25 347 344 349 341
474 22 504 108 105 107
475 21 504 108 105 19
476 23 504 108 107 19
477 23 105 108 107 19
478 11 197 195 394 163
479 11 197 195 394 398
480 7 197 195 163 398
481 17 163 195 398 394
482 24 295 299 302 298
483 25 555 553 554 550
484 25 553 554 556 551
485 9 108 504 506 501
486 9 108 504 582 501
487 17 506 504 582 501
488 7 108 504 506 582
489 11 312 310 306 309
490 11 312 310 306 377
491 7 312 310 309 377
492 17 309 310 377 306
493 24 434 555 553 557
494 12 436 434 555 431
495 12 436 434 555 429
496 13 436 434 431 429
497 13 555 434 431 429
498 25 299 302 305 303
499 12 233 229 231 228
500 12 233 229 231 226
501 13 233 229 228 226
502 13 231 229 228 226
503 25 397 445 231 444
504 24 229 231 201 445
505 24 262 267 109 268
506 25 499 502 503 463
507 3 262 263 264 259
508 3 262 263 264 265
509 3 262 263 259 265
510 14 264 263 259 265
511 25 438 435 436 433
512 25 498 497 499 495
513 27 301 304 305 306
514 2 263 262 261 267
515 2 263 262 260 267
516 13 267 262 261 260
517 3 263 262 261 260
518 25 22 23 30 21
519 25 442 438 435 437
520 25 26 22 23 20
521 12 299 295 499 293
522 12 299 295 499 458
523 13 299 295 293 458
524 13 499 295 293 458
525 27 498 500 503 501
526 25 500 498 497 496
527 27 560 556 554 558
528 24 295 499 502 497
529 25 304 301 298 300
530 3 328 383 512 381
531 3 328 383 512 389
532 3 328 383 381 389
533 14 512 383 381 389
534 25 302 305 304 307
535 25 400 397 445 396
536 25 502 503 500 505
537 24 434 436 439 435
538 25 301 298 299 296
539 25 436 439 393 441
540 25 439 393 442 395
