LAMMPS data file via write_data, version 4 Jul 2026, timestep = 1059500, units = real

585 atoms
11 atom types
615 bonds
18 bond types
1090 angles
35 angle types
1490 dihedrals
48 dihedral types
540 impropers
30 improper types

1.313673901490617 19.840105108508833 xlo xhi
1.313673901490617 19.840105108508833 ylo yhi
1.313673901490617 19.840105108508833 zlo zhi

Masses

1 12.01115
2 12.01115
3 12.01115
4 12.01115
5 1.00797
6 1.00797
7 1.00797
8 14.0067
9 15.9994
10 15.9994
11 15.9994

Pair Coeffs # lj/class2/coul/long

1 0.054 4.01
2 0.054 4.01
3 0.054 4.01
4 0.064 4.01
5 0.02 2.995
6 0.013 1.098
7 0.013 1.098
8 0.065 4.07
9 0.24 3.535
10 0.24 3.535
11 0.24 3.535

Bond Coeffs # class2

1 1.53 299.67 -501.77 679.81
2 1.53 299.67 -501.77 679.81
3 1.53 299.67 -501.77 679.81
4 1.501 321.902 -521.821 572.163
5 1.101 345 -691.89 844.6
6 1.457 365.805 -699.637 998.484
7 1.42 400.395 -835.195 1313.01
8 1.42 400.395 -835.195 1313.01
9 1.101 345 -691.89 844.6
10 1.42 400.395 -835.195 1313.01
11 1.101 345 -691.89 844.6
12 1.42 400.395 -835.195 1313.01
13 1.417 470.836 -627.618 1327.63
14 1.0982 372.825 -803.453 894.317
15 1.412 257.775 0 0
16 1.3768 428.88 -738.235 1114.97
17 1.006 466.74 -1073.6 1251.11
18 0.965 532.506 -1282.9 2004.77

Angle Coeffs # class2

1 108.4 43.9594 -8.3924 -9.3379
2 110.77 41.453 -10.604 5.129
3 112.67 39.516 -7.443 -9.5583
4 110.77 41.453 -10.604 5.129
5 111.27 54.5381 -8.3642 -13.0838
6 112.67 39.516 -7.443 -9.5583
7 110.77 41.453 -10.604 5.129
8 111.27 54.5381 -8.3642 -13.0838
9 120.05 44.7148 -22.7352 0
10 112.444 47.2337 -10.6612 -10.2062
11 109 80 0 0
12 110.954 50.8652 -4.4522 -10.0298
13 104.5 35.7454 -10.0067 -6.2729
14 102.969 38.9739 -6.2595 -8.171
15 110.77 41.453 -10.604 5.129
16 111.91 60.7147 -13.3366 -13.0785
17 111.27 54.5381 -8.3642 -13.0838
18 105.8 52.7061 -12.109 -9.8681
19 110.77 41.453 -10.604 5.129
20 111.27 54.5381 -8.3642 -13.0838
21 111.27 54.5381 -8.3642 -13.0838
22 111 44.3234 -9.4454 0
23 111 44.3234 -9.4454 0
24 118.9 61.0226 -34.9931 0
25 117.94 35.1558 -12.4682 0
26 120 102 0 0
27 123.42 73.6781 -21.6787 0
28 110 41.6 0 0
29 107.66 39.641 -12.921 -2.4318
30 110.62 51.3137 -6.7198 -2.6003
31 108.728 58.5446 -10.8088 -12.4006
32 108.728 58.5446 -10.8088 -12.4006
33 108.728 58.5446 -10.8088 -12.4006
34 108.728 58.5446 -10.8088 -12.4006
35 107.067 45.252 -7.5558 -9.512

BondBond Coeffs

1 0 1.53 1.501
2 3.3872 1.53 1.101
3 0 1.53 1.53
4 3.3872 1.53 1.101
5 11.4318 1.53 1.42
6 0 1.53 1.53
7 3.3872 1.53 1.101
8 11.4318 1.53 1.42
9 12.0676 1.501 1.417
10 -2.1113 1.457 1.457
11 0 1.457 1.412
12 -6.4168 1.457 1.006
13 -7.1131 1.42 1.42
14 0 1.42 1.3768
15 3.3872 1.53 1.101
16 4.6217 1.53 1.457
17 11.4318 1.53 1.42
18 -9.6879 1.42 0.965
19 3.3872 1.53 1.101
20 11.4318 1.53 1.42
21 11.4318 1.53 1.42
22 0 1.501 1.501
23 2.9168 1.501 1.101
24 68.2856 1.417 1.417
25 1.0795 1.417 1.0982
26 0 1.417 1.412
27 48.4754 1.417 1.3768
28 0 1.412 1.006
29 5.3316 1.101 1.101
30 12.426 1.101 1.457
31 23.1979 1.101 1.42
32 23.1979 1.101 1.42
33 23.1979 1.101 1.42
34 23.1979 1.101 1.42
35 -1.8749 1.006 1.006

BondAngle Coeffs

1 0 0 1.53 1.501
2 20.754 11.421 1.53 1.101
3 8.016 8.016 1.53 1.53
4 20.754 11.421 1.53 1.101
5 2.6868 20.4033 1.53 1.42
6 8.016 8.016 1.53 1.53
7 20.754 11.421 1.53 1.101
8 2.6868 20.4033 1.53 1.42
9 47.0579 31.0771 1.501 1.417
10 -7.2229 -7.2229 1.457 1.457
11 0 0 1.457 1.412
12 31.8096 20.5799 1.457 1.006
13 -2.8112 -2.8112 1.42 1.42
14 0 0 1.42 1.3768
15 20.754 11.421 1.53 1.101
16 6.0876 16.5702 1.53 1.457
17 2.6868 20.4033 1.53 1.42
18 28.58 18.9277 1.42 0.965
19 20.754 11.421 1.53 1.101
20 2.6868 20.4033 1.53 1.42
21 2.6868 20.4033 1.53 1.42
22 0 0 1.501 1.501
23 26.4608 11.7717 1.501 1.101
24 28.8708 28.8708 1.417 1.417
25 20.0033 24.2183 1.417 1.0982
26 0 0 1.417 1.412
27 58.479 107.681 1.417 1.3768
28 0 0 1.412 1.006
29 18.103 18.103 1.101 1.101
30 13.4582 42.4332 1.101 1.457
31 4.6189 55.327 1.101 1.42
32 4.6189 55.327 1.101 1.42
33 4.6189 55.327 1.101 1.42
34 4.6189 55.327 1.101 1.42
35 28.0322 28.0322 1.006 1.006

Dihedral Coeffs # class2

1 -0.2802 0 -0.0678 0 -0.0122 0
2 0 0 0.0316 0 -0.1681 0
3 0.1764 0 0.1766 0 -0.5206 0
4 0.7137 0 0.266 0 -0.2545 0
5 -0.6732 0 -0.4778 0 -0.167 0
6 0 0 0.0316 0 -0.1681 0
7 0.7137 0 0.266 0 -0.2545 0
8 0.7137 0 0.266 0 -0.2545 0
9 -0.5203 0 -0.3028 0 -0.345 0
10 0 0 4.4072 0 0 0
11 0 0 1.559 0 0 0
12 0 0 3 0 0 0
13 -0.1406 0 0.4168 0 0.015 0
14 0.1904 0 -0.1342 0 -0.246 0
15 0 0 2.25 0 0 0
16 0.5302 0 0 0 -0.3966 0
17 0 0 1.5 0 0 0
18 0 0 0 0 0.05 180
19 -1.1506 0 -0.6344 0 -0.1845 0
20 0 0 0 0 0.13 180
21 0 0 0 0 0.13 180
22 0.5302 0 0 0 -0.3966 0
23 -0.0228 0 0.028 0 -0.1863 0
24 -0.2802 0 -0.0678 0 -0.0122 0
25 -0.2801 0 -0.0678 0 -0.0122 0
26 8.3667 0 1.1932 0 0 0
27 0 0 3.9661 0 0 0
28 0 0 3 0 0 0
29 0 0 4.8498 0 0 0
30 0 0 2.25 0 0 0
31 0 0 0 0 0.05 180
32 0.9513 0 0.1155 0 0.072 0
33 -0.1432 0 0.0617 0 -0.1083 0
34 -0.1432 0 0.0617 0 -0.1083 0
35 -0.1435 0 0.253 0 -0.0905 0
36 -0.1432 0 0.0617 0 -0.1083 0
37 -0.1435 0 0.253 0 -0.0905 0
38 -0.5187 0 -0.4837 0 -0.1692 0
39 -0.2428 0 0.4065 0 -0.3079 0
40 -0.1435 0 0.253 0 -0.0905 0
41 0.1863 0 -0.4338 0 -0.2121 0
42 -0.1435 0 0.253 0 -0.0905 0
43 -0.1435 0 0.253 0 -0.0905 0
44 0 0 1.8769 0 0 0
45 0 0 1.7234 0 0 0
46 0 0 0 0 0.158 180
47 -0.182 0 -0.1084 0 -0.7047 0
48 -0.182 0 -0.1084 0 -0.7047 0

AngleAngleTorsion Coeffs

1 0 108.4 120.05
2 -16.164 112.67 110.77
3 -27.3953 112.67 111.91
4 -29.042 112.67 111.27
5 -12.1038 111.27 105.8
6 -16.164 112.67 110.77
7 -29.042 112.67 111.27
8 -29.042 112.67 111.27
9 -19.0059 111.27 104.5
10 -14.4097 120.05 118.9
11 4.4444 120.05 117.94
12 0 120.05 120
13 -24.3818 112.444 111.91
14 -12.5567 112.444 110.62
15 0 109 120
16 -16.4438 104.5 108.728
17 0 102.969 123.42
18 0 111.91 109
19 -7.5499 111.91 110.954
20 0 111.27 102.969
21 0 111.27 102.969
22 -16.4438 104.5 108.728
23 0 108.4 110.77
24 0 111 120.05
25 -5.8888 120.05 111
26 0 118.9 118.9
27 -4.8141 118.9 117.94
28 0 118.9 120
29 -21.0247 118.9 123.42
30 0 120 110
31 0 109 110.62
32 0 102.969 108.728
33 -12.564 110.77 110.77
34 -12.564 110.77 110.77
35 -20.2006 110.77 111.27
36 -12.564 110.77 110.77
37 -20.2006 110.77 111.27
38 -10.4258 110.62 110.954
39 -15.7572 110.77 111.91
40 -20.2006 110.77 111.27
41 -10.5093 108.728 105.8
42 -20.2006 110.77 111.27
43 -20.2006 110.77 111.27
44 0.3598 117.94 117.94
45 4.2296 117.94 123.42
46 0 111.91 111.27
47 -14.0484 111.27 111.27
48 -14.0484 111.27 111.27

EndBondTorsion Coeffs

1 0 0 0 0 0 0 1.53 1.417
2 0.2486 0.2422 -0.0925 0.0814 0.0591 0.2219 1.53 1.101
3 0.1032 0.5896 -0.4836 0.0579 -0.0043 -0.1906 1.53 1.457
4 -0.319 0.4411 -0.7174 1.1538 0.8409 -0.9138 1.53 1.42
5 -0.58 0.9004 0 0 0.5343 0.9025 1.53 0.965
6 0.2486 0.2422 -0.0925 0.0814 0.0591 0.2219 1.53 1.101
7 -0.319 0.4411 -0.7174 1.1538 0.8409 -0.9138 1.53 1.42
8 -0.319 0.4411 -0.7174 1.1538 0.8409 -0.9138 1.53 1.42
9 -0.2456 1.0517 -0.7795 0.4741 1.2635 0.5576 1.53 1.42
10 0 0.2421 0 0 -0.6918 0 1.501 1.417
11 0 -1.797 0 0 -0.4879 0 1.501 1.0982
12 0 0 0 0 0 0 1.501 1.412
13 -0.0128 -0.0495 -0.1079 0.0997 -0.0046 -0.2657 1.457 1.53
14 0.0628 0.0873 -0.0882 -0.5892 0.714 0.3505 1.457 1.101
15 0 0 0 0 0 0 1.457 1.417
16 -0.162 0.1564 -1.1408 -0.6054 1.3339 0.9648 1.42 1.101
17 0 0 0 0 0 0 1.42 1.417
18 0 0 0 0 0 0 1.53 1.412
19 -0.9466 0.9356 -0.5542 0.057 0.0625 0.4112 1.53 1.006
20 0 0 0 0 0 0 1.53 1.3768
21 0 0 0 0 0 0 1.53 1.3768
22 -0.162 0.1564 -1.1408 -0.6054 1.3339 0.9648 1.42 1.101
23 0 0 0 0 0 0 1.501 1.101
24 0 0 0 0 0 0 1.501 1.417
25 -0.5835 1.122 0.3978 1.3997 0.7756 0 1.417 1.101
26 -0.1185 6.3204 0 -0.1185 6.3204 0 1.417 1.417
27 0 -6.8958 0 0 -0.4669 0 1.417 1.0982
28 0 0 0 0 0 0 1.417 1.412
29 0 0.2655 0 0 4.8905 0 1.417 1.3768
30 0 0 0 0 0 0 1.417 1.006
31 0 0 0 0 0 0 1.412 1.101
32 0 0 0 0 0 0 1.3768 1.101
33 0.213 0.312 0.0777 0.213 0.312 0.0777 1.101 1.101
34 0.213 0.312 0.0777 0.213 0.312 0.0777 1.101 1.101
35 0.9681 0.9551 0.0436 0.5903 0.6669 0.8584 1.101 1.42
36 0.213 0.312 0.0777 0.213 0.312 0.0777 1.101 1.101
37 0.9681 0.9551 0.0436 0.5903 0.6669 0.8584 1.101 1.42
38 -1.1685 0.9266 -0.0993 0.085 0.3061 0.2104 1.101 1.006
39 0.196 0.7056 0.112 0.1022 0.209 0.6433 1.101 1.457
40 0.9681 0.9551 0.0436 0.5903 0.6669 0.8584 1.101 1.42
41 -1.7554 1.3145 0.2263 0.2493 0.6803 0 1.101 0.965
42 0.9681 0.9551 0.0436 0.5903 0.6669 0.8584 1.101 1.42
43 0.9681 0.9551 0.0436 0.5903 0.6669 0.8584 1.101 1.42
44 0 -0.689 0 0 -0.689 0 1.0982 1.0982
45 0 -1.5867 0 0 4.2641 0 1.0982 1.3768
46 0 0 0 0 0 0 1.457 1.42
47 1.0165 0.7553 -0.4609 1.0165 0.7553 -0.4609 1.42 1.42
48 1.0165 0.7553 -0.4609 1.0165 0.7553 -0.4609 1.42 1.42

MiddleBondTorsion Coeffs

1 0 0 0 1.501
2 -14.879 -3.6581 -0.3138 1.53
3 -15.4174 -7.3055 -1.0749 1.53
4 -21.8842 -7.6764 -0.6868 1.53
5 1.2472 0 0.7485 1.42
6 -14.879 -3.6581 -0.3138 1.53
7 -21.8842 -7.6764 -0.6868 1.53
8 -21.8842 -7.6764 -0.6868 1.53
9 -5.9288 -2.7007 -0.3175 1.42
10 0 9.1792 0 1.417
11 0 3.9421 0 1.417
12 0 0 0 1.417
13 -8.0036 -7.7321 -3.064 1.457
14 -6.4529 -6.8122 -1.1632 1.457
15 0 0 0 1.412
16 -6.8007 -4.6546 -1.4101 1.42
17 0 0 0 1.3768
18 0 0 0 1.457
19 -2.2208 0.5479 -0.3527 1.457
20 0 0 0 1.42
21 0 0 0 1.42
22 -6.8007 -4.6546 -1.4101 1.42
23 0 0 0 1.53
24 0 0 0 1.501
25 -5.5679 1.4083 0.301 1.501
26 27.5989 -2.312 0 1.417
27 0 -1.1521 0 1.417
28 0 0 0 1.417
29 0 4.8255 0 1.417
30 0 0 0 1.412
31 0 0 0 1.457
32 0 0 0 1.42
33 -14.261 -0.5322 -0.4864 1.53
34 -14.261 -0.5322 -0.4864 1.53
35 -16.7975 -1.2296 -0.275 1.53
36 -14.261 -0.5322 -0.4864 1.53
37 -16.7975 -1.2296 -0.275 1.53
38 -3.4611 1.6996 -0.6007 1.457
39 -10.4959 -0.7647 -0.0545 1.53
40 -16.7975 -1.2296 -0.275 1.53
41 0 0.9241 -0.5889 1.42
42 -16.7975 -1.2296 -0.275 1.53
43 -16.7975 -1.2296 -0.275 1.53
44 0 4.8228 0 1.417
45 0 5.5432 0 1.417
46 0 0 0 1.53
47 -17.2585 -3.6157 -0.8364 1.53
48 -17.2585 -3.6157 -0.8364 1.53

BondBond13 Coeffs

1 0 1.53 1.417
2 0 1.53 1.101
3 0 1.53 1.457
4 0 1.53 1.42
5 0 1.53 0.965
6 0 1.53 1.101
7 0 1.53 1.42
8 0 1.53 1.42
9 0 1.53 1.42
10 2.5085 1.501 1.417
11 0.8743 1.501 1.0982
12 0 1.501 1.412
13 0 1.457 1.53
14 0 1.457 1.101
15 0 1.457 1.417
16 0 1.42 1.101
17 0 1.42 1.417
18 0 1.53 1.412
19 0 1.53 1.006
20 0 1.53 1.3768
21 0 1.53 1.3768
22 0 1.42 1.101
23 0 1.501 1.101
24 0 1.501 1.417
25 -3.4826 1.417 1.101
26 53 1.417 1.417
27 -6.2741 1.417 1.0982
28 0 1.417 1.412
29 -2.2436 1.417 1.3768
30 0 1.417 1.006
31 0 1.412 1.101
32 0 1.3768 1.101
33 0 1.101 1.101
34 0 1.101 1.101
35 0 1.101 1.42
36 0 1.101 1.101
37 0 1.101 1.42
38 0 1.101 1.006
39 0 1.101 1.457
40 0 1.101 1.42
41 0 1.101 0.965
42 0 1.101 1.42
43 0 1.101 1.42
44 -1.7077 1.0982 1.0982
45 2.0517 1.0982 1.3768
46 0 1.457 1.42
47 0 1.42 1.42
48 0 1.42 1.42

AngleTorsion Coeffs

1 0 0 0 0 0 0 108.4 120.05
2 -0.2454 0 -0.1136 0.3113 0.4516 -0.1988 112.67 110.77
3 -1.9225 -1.345 0.221 2.0125 0.944 -2.7612 112.67 111.91
4 0.5623 -0.3041 -0.4015 0.9672 -0.7566 -1.2331 112.67 111.27
5 -3.5903 2.5225 0.4888 0.8726 -0.3577 0.3888 111.27 105.8
6 -0.2454 0 -0.1136 0.3113 0.4516 -0.1988 112.67 110.77
7 0.5623 -0.3041 -0.4015 0.9672 -0.7566 -1.2331 112.67 111.27
8 0.5623 -0.3041 -0.4015 0.9672 -0.7566 -1.2331 112.67 111.27
9 -2.7466 1.4877 -0.8955 0.5676 0.945 0.0703 111.27 104.5
10 0 -4.4683 0 0 3.8987 0 120.05 118.9
11 0 -0.1242 0 0 3.4601 0 120.05 117.94
12 0 0 0 0 0 0 120.05 120
13 1.2031 1.3645 -0.7071 -2.7883 1.5193 1.4796 112.444 111.91
14 -1.3582 0.1465 -0.5729 -2.6321 0.9353 -0.8398 112.444 110.62
15 0 0 0 0 0 0 109 120
16 -0.7777 0.434 -0.6653 -1.8234 1.6393 0.5144 104.5 108.728
17 0 0 0 0 0 0 102.969 123.42
18 0 0 0 0 0 0 111.91 109
19 -3.343 4.4558 -0.0346 0.2873 -0.8072 -0.096 111.91 110.954
20 0 0 0 0 0 0 111.27 102.969
21 0 0 0 0 0 0 111.27 102.969
22 -0.7777 0.434 -0.6653 -1.8234 1.6393 0.5144 104.5 108.728
23 0 0 0 0 0 0 108.4 110.77
24 0 0 0 0 0 0 111 120.05
25 0.2251 0.6548 0.1237 4.6266 0.1632 0.0461 120.05 111
26 1.9767 1.0239 0 1.9767 1.0239 0 118.9 118.9
27 0 2.5014 0 0 2.7147 0 118.9 117.94
28 0 0 0 0 0 0 118.9 120
29 0 10.0155 0 0 1.7404 0 118.9 123.42
30 0 0 0 0 0 0 120 110
31 0 0 0 0 0 0 109 110.62
32 0 0 0 0 0 0 102.969 108.728
33 -0.8085 0.5569 -0.2466 -0.8085 0.5569 -0.2466 110.77 110.77
34 -0.8085 0.5569 -0.2466 -0.8085 0.5569 -0.2466 110.77 110.77
35 2.3668 2.492 -1.0122 -0.1892 0.4918 0.7273 110.77 111.27
36 -0.8085 0.5569 -0.2466 -0.8085 0.5569 -0.2466 110.77 110.77
37 2.3668 2.492 -1.0122 -0.1892 0.4918 0.7273 110.77 111.27
38 -3.9582 2.0063 0.3213 -0.4294 -0.4442 -0.6141 110.62 110.954
39 0.5111 1.6328 -1.0155 -1.1075 0.282 0.8318 110.77 111.91
40 2.3668 2.492 -1.0122 -0.1892 0.4918 0.7273 110.77 111.27
41 -3.406 1.6396 0.0737 0 -0.281 -0.5944 108.728 105.8
42 2.3668 2.492 -1.0122 -0.1892 0.4918 0.7273 110.77 111.27
43 2.3668 2.492 -1.0122 -0.1892 0.4918 0.7273 110.77 111.27
44 0 2.4501 0 0 2.4501 0 117.94 117.94
45 0 1.8729 0 0 2.5706 0 117.94 123.42
46 0 0 0 0 0 0 111.91 111.27
47 0.5511 0.9737 -0.6673 0.5511 0.9737 -0.6673 111.27 111.27
48 0.5511 0.9737 -0.6673 0.5511 0.9737 -0.6673 111.27 111.27

Improper Coeffs # class2

1 0 0
2 0 0
3 0 0
4 0 0
5 0 0
6 0 0
7 0 0
8 0 0
9 0 0
10 0 0
11 0 0
12 0 0
13 0 0
14 0 0
15 0 0
16 0 0
17 0 0
18 0 0
19 0 0
20 0 0
21 0 0
22 0 0
23 0 0
24 7.8153 0
25 4.8912 0
26 0 0
27 13.0421 0
28 0 0
29 0 0
30 0 0

AngleAngle Coeffs

1 2.0403 -1.8202 1.0827 108.4 110.77 111
2 1.0827 -1.8202 2.0403 110.77 108.4 111
3 0.2738 -0.4825 0.2738 110.77 110.77 107.66
4 0.2738 -0.4825 0.2738 110.77 110.77 107.66
5 2.4286 0.5381 -2.5301 110.77 111.91 110.62
6 0.1689 2.5926 3.9177 111.27 110.77 108.728
7 0.2738 -0.4825 0.2738 110.77 110.77 107.66
8 3.9177 2.5926 0.1689 110.77 111.27 108.728
9 3.9177 2.5926 0.1689 110.77 111.27 108.728
10 0.1689 2.5926 3.9177 111.27 110.77 108.728
11 0.1689 2.5926 3.9177 111.27 110.77 108.728
12 0 0 0 111 111 111
13 2.3794 3.0118 2.3794 111 111 107.66
14 -0.3157 -0.3157 -0.3157 107.66 107.66 107.66
15 2.4321 2.4321 -3.5496 107.66 110.62 110.62
16 2.4259 2.4259 2.1283 107.66 108.728 108.728
17 2.4259 2.4259 2.1283 107.66 108.728 108.728
18 -1.3199 -1.3199 0.1184 112.67 110.77 110.77
19 -0.833 -0.833 -3.5744 112.67 111.27 111.27
20 0.1689 2.5926 3.9177 111.27 110.77 108.728
21 -1.3199 -1.3199 0.1184 112.67 110.77 110.77
22 -0.833 -0.833 -3.5744 112.67 111.27 111.27
23 0.1689 2.5926 3.9177 111.27 110.77 108.728
24 0 0 0 120.05 120.05 118.9
25 0 0 0 118.9 117.94 117.94
26 0 0 0 118.9 120 120
27 0 0 0 118.9 123.42 123.42
28 0 0 0 112.444 109 109
29 0 0 0 110.954 109 110
30 0 0 0 110 110 107.067

Atoms # full

283 1 4 0 4.896135814431523 9.638935634536143 4.771278357599513 0 0 0
278 1 4 0 6.263179775578298 8.406046113283825 6.330395826957871 0 0 0
277 1 4 -0.1268 3.876041731160337 8.54432597378431 6.628833719690145 0 0 0
280 1 4 0 3.6908768727159074 9.374392665828795 5.496357556972227 0 0 0
276 1 4 0 5.106061357343 8.149901677552451 7.095398993681731 0 0 0
275 1 5 0.1268 2.9655963908724283 8.462763753713105 7.279658360360559 0 0 0
45 1 5 0.1268 5.931757104218346 6.0940610541994795 3.770425656318347 0 0 0
47 1 4 -0.1268 6.50476617074008 5.885970504036936 2.854704408308744 0 0 0
40 1 5 0.053 3.75212389535119 8.853157882278847 2.805376849297817 0 0 0
274 1 1 -0.106 5.031943734768646 7.323254296006989 8.35689487936894 0 0 0
50 1 5 0.1268 7.305738434119333 4.077038196941352 3.779165293149481 0 0 0
116 1 8 -0.4974 7.482016812636064 7.84286930733176 6.753079892502725 0 0 0
114 1 6 0.2487 7.390507554854118 7.193892837328452 7.515426558184725 0 0 0
49 1 4 -0.1268 7.170246655925666 4.6380714419651845 2.7519263431016157 0 0 0
177 1 4 0 7.813828552993606 4.238035252845538 1.6128607900325016 0 0 0
117 1 5 0.053 6.028186501776522 6.994951421880985 8.645989649186404 0 0 0
273 1 5 0.053 4.3857647480294 6.386548287633713 8.350483592287915 0 0 0
15 1 4 0 9.695778123722903 2.471304101070088 2.4880341362342 0 0 0
281 1 4 0 6.206600748063117 9.19455064422834 5.2021689700494615 0 0 0
227 1 6 0.2487 7.956243035155184 7.331460151570619 6.052995404988154 0 0 0
18 1 5 0.1268 8.395571215719286 1.8092462293006317 4.087145719910677 0 0 0
361 7 1 -0.159 7.487152618213483 2.8892202825382736 8.58974242231081 0 1 0
362 7 5 0.053 8.412011241315573 2.3755795961840898 8.8213993680726 0 1 0
17 1 4 -0.1268 9.4351244851022 1.8929960915214665 3.746998406243659 0 0 0
360 7 5 0.053 6.848252712226295 2.1371769483744383 8.118622055445082 0 1 0
572 3 5 0.053 5.806064803926558 2.5191623273235573 3.781508057896391 0 1 0
173 7 8 -0.3314 4.808202993657272 2.369393648928285 9.490633564559843 0 1 0
57 1 5 0.053 7.853009354897903 2.0265642596840205 1.82218694630389 0 0 0
356 7 4 0 6.871453029801711 3.674213133199168 9.72943363026668 0 1 0
359 7 6 0.2487 9.448506804022443 4.190645544937686 9.396908388214161 0 1 0
351 7 4 0 5.5309157949058045 3.3903108172500023 10.095999534680717 0 1 0
576 3 5 0.053 4.970347077020746 1.8745539105871594 5.244567307547575 0 1 0
270 10 5 0.053 2.7999067862378384 5.028876984107006 4.1281111173133125 1 1 1
269 10 1 0.027 2.2858489192309186 5.637533629826954 3.4184233041093286 1 1 1
466 10 9 -0.266 1.4456725887517676 4.935946833449242 2.4766407937322037 1 1 1
169 1 10 -0.1595 5.710450259279833 7.907738833153629 1.9050368423390687 0 0 0
174 1 4 0.0265 6.44066537262747 6.754352356294974 1.7780173786569409 0 0 0
472 10 3 0.08 2.505223461227928 5.793378438129714 1.9767687375457594 1 1 1
157 1 5 0.053 3.8725919162902644 9.050106210938942 9.089264222500034 0 0 0
113 1 1 -0.159 4.628426801988185 8.29602577377116 9.406923861141482 0 0 0
115 1 5 0.053 5.462756146567597 8.958560293599678 9.78357817747669 0 0 0
56 1 1 -0.106 8.52316925673794 2.860634645543618 1.562081970322767 0 0 0
357 7 8 -0.4974 8.943710564044913 4.999867484967673 9.70886190011887 0 1 0
566 9 5 0.053 9.723598724046639 8.943010197589519 8.432601256036975 0 0 0
354 7 4 0 7.592843761772181 4.7120898128089745 10.258836259994176 0 1 0
546 3 5 0.053 6.676085707157244 2.0191176927408563 5.30231126168384 0 1 0
545 3 1 -0.159 5.919068973026792 1.8072136513329817 4.590321046314452 0 1 0
183 4 5 0.053 9.612874585286576 10.032759294761055 1.8694062127207713 0 0 0
41 1 1 -0.0233 3.8836825949089686 9.92599875726884 2.609438698802827 0 0 0
446 1 5 0.053 7.889946568076023 8.878698262763681 3.6691730984791797 0 0 0
282 1 1 -0.106 2.313146220572141 9.950087883568786 5.201821996513514 0 0 0
363 7 5 0.053 7.722937359607 3.448396618726528 7.640030287508312 0 1 0
87 1 5 0.053 12.034263035313533 17.50021219388825 1.505773015580988 0 0 0
179 4 5 0.1268 9.576775554885044 7.4673613098143345 1.9555668836788307 0 0 0
222 8 5 0.053 9.958560304170149 5.99474459030101 5.108592777979178 -1 0 0
471 10 5 0.053 3.9458057379890277 4.231651801325791 1.7060176767725561 1 1 1
507 3 5 0.053 2.2394225355938913 4.258931547821158 8.301563706689413 1 0 1
571 9 1 0.027 10.39965076333093 9.797221646221859 8.409186077429297 0 0 0
529 3 5 0.053 1.4875229049270686 5.816436662355847 8.594283187805912 1 0 1
271 10 5 0.053 1.781920121790336 6.558550460187897 3.7411880788837975 1 1 1
474 10 5 0.053 2.1678955615897664 6.78812182176055 1.6031191862820935 1 1 1
19 2 5 0.053 1.6760772565613453 19.40140462005714 4.5489346948223135 1 -1 1
245 7 5 0.053 3.5901049054163443 19.19637192647954 10.106921548578676 0 0 0
483 1 5 0.053 1.914746431308265 9.522368820982761 4.278806468901111 0 0 0
447 1 1 -0.159 7.5072306442753485 9.635680786515758 4.413662361275126 0 0 0
450 1 5 0.053 8.390614921513905 9.837505171421782 5.0345234853047724 0 0 0
171 7 6 0.2487 5.377866838086694 2.002892239489705 8.758451958441013 0 1 0
285 1 8 -0.3314 4.836081680562911 10.40284102540875 3.5702556182970158 0 0 0
452 9 5 0.1268 11.160957842745885 7.6488844715191835 9.46881371929383 0 0 0
193 8 9 -0.266 10.614565259634336 6.554406912528814 7.060091958238349 -1 0 0
448 1 5 0.053 7.407263781470138 10.593494359570368 3.8976486992463175 0 0 0
286 1 6 0.2487 5.739310308753485 10.320593789108303 3.2120435691886904 0 0 0
180 4 4 -0.1268 10.648765944368177 7.458658065745177 1.8153185587983598 0 0 0
528 3 1 0.027 19.81321538445572 4.778078198592521 8.407796205528363 0 0 1
570 9 5 0.053 11.289146291953431 9.30970523789817 7.942390716140115 0 0 0
185 4 4 0 11.197645964216333 8.680852770883634 1.3407808978033464 0 0 0
223 8 1 0.027 10.804142380614616 5.848719276426603 5.8677807547184235 -1 0 0
224 8 5 0.053 11.152198648970458 4.805585128625349 5.731008688797013 -1 0 0
530 3 5 0.053 18.97433025666955 1.9904856684463386 8.921382324421808 0 0 1
378 8 5 0.053 11.496999949172835 7.8904080813674895 5.602285767823781 -1 0 0
13 1 4 -0.1268 10.989791310785353 2.5240543254357544 1.9630419617993096 0 0 0
289 1 5 0.053 19.11011717599012 8.972006445444453 6.384694869685223 -1 0 0
287 1 1 -0.159 19.744986724059007 9.86505711404701 6.26572361773429 -1 0 0
527 3 9 -0.266 18.807670983147318 4.463026236052656 7.398045739946202 0 0 1
119 6 5 0.053 14.540496839357795 3.8073109072952107 9.162716065535651 -1 0 0
10 1 5 0.1268 13.027365682141486 1.8484650311516688 2.1732061026281375 0 0 0
379 8 3 0.08 11.705613113146743 6.9733333144602 6.208233552164981 -1 0 0
531 3 3 0.08 18.51514378383181 4.168145912388913 8.763730089185113 0 0 1
336 8 5 0.053 19.06590607959434 8.598490435279484 8.922680737265285 -1 0 0
390 8 4 -0.1268 15.904015589896188 9.054443123513181 9.986807841169595 -1 0 0
532 3 1 0.027 18.26779017857351 2.7571636032362146 9.301436981830527 0 0 1
11 1 4 -0.1268 11.978456477348537 1.886877669675324 2.6004384112797143 0 0 0
294 6 1 0.027 12.192213035673976 2.1618854929042146 8.819798729801402 -1 0 0
123 6 3 0.08 12.416359623105379 3.6273379488712436 9.007656401160062 -1 0 0
430 8 1 0.027 13.132965713335143 6.709355677873892 6.740169232580114 -1 0 0
128 4 4 -0.1268 11.386667444978126 6.347788958462076 2.245241777890914 0 0 0
248 4 5 0.053 16.62853874047515 4.415512949617222 3.7851545087875516 0 0 0
250 4 1 0.027 14.72612279378363 3.4659136029046134 4.301637921783953 0 0 0
380 8 10 -0.1595 13.2571148814419 7.354402274472144 8.074633397326483 -1 0 0
384 8 4 0.0265 14.539582815144882 7.618889225110649 8.552886167805926 -1 0 0
387 8 5 0.1268 15.710494337967267 6.3836769393757935 7.113389919321714 -1 0 0
388 8 4 -0.1268 15.70194942631984 7.0508256223730985 7.992990843820082 -1 0 0
335 8 5 0.1268 17.777994503225163 6.9190309104059615 7.997632385883986 -1 0 0
392 8 4 -0.1268 16.95939623015971 7.53539854417435 8.451708833382291 -1 0 0
133 4 5 0.053 15.170702723755076 6.683026150906945 3.2577750550158044 0 0 0
129 4 10 -0.1595 13.503025808848204 5.512306032346487 2.816191607788543 0 0 0
251 4 3 0.08 15.55183451654171 4.608658092981054 3.9139681957609196 0 0 0
103 4 5 0.053 13.703609455645246 3.361695448568115 4.04673200938082 0 0 0
102 4 5 0.053 15.164658098153254 2.489574084051483 4.651431011458952 0 0 0
125 4 9 -0.266 15.068999005746324 4.5464572495551 5.220528772890254 0 0 0
131 4 1 0.027 14.942308413941374 5.663862101377783 3.0013094676596017 0 0 0
291 6 9 -0.266 12.73248687528437 2.9913886754533947 7.791812874289295 -1 0 0
130 4 4 0.0265 12.777139242356371 6.499637156206778 2.1932110882061604 0 0 0
334 8 4 0 17.024838125979592 8.485962558369206 9.443697820565944 -1 0 0
135 4 4 -0.1268 13.335711860808058 7.670233131026976 1.6341310835448777 0 0 0
12 1 4 0.0265 11.835008626369802 1.3317685393320744 3.8998327682879292 0 0 0
428 8 5 0.053 13.821514663108644 7.244684671582795 6.1071586637750075 -1 0 0
386 8 4 -0.1268 14.64939704073186 8.645799097172654 9.508393170409219 -1 0 0
432 8 5 0.053 13.459763865832356 5.654914339304214 6.808250496114058 -1 0 0
337 8 1 -0.106 18.423734302252637 9.05711076012706 9.732861058996232 -1 0 0
382 8 5 0.1268 13.78298564061718 9.140182541128206 9.997111673558152 -1 0 0
126 4 5 0.1268 10.964501282579535 5.427090616119723 2.723556802051695 0 0 0
366 7 5 0.053 16.429438786465134 9.693338986942424 6.415071271632303 0 0 0
368 7 3 0.08 15.979662868679712 10.152274071318887 5.533558723527387 0 0 0
373 7 5 0.053 17.817780514703202 9.569151796328473 4.329553434308361 0 0 0
372 7 1 0.027 16.854561292369944 10.0735337735873 4.300100446781825 0 0 0
121 6 1 0.027 13.620286365948033 4.237349360256125 9.618847533146498 -1 0 0
292 6 5 0.053 11.529196073783272 4.249294393051752 8.860451510178178 -1 0 0
106 2 5 0.053 18.59971254882701 2.5119962708798687 5.478797032750863 0 0 1
240 6 5 0.1268 16.00376527737419 5.529132920786465 10.428164704367585 -1 0 0
533 3 5 0.053 17.83531445671453 4.824116306204086 9.22063183068707 0 0 1
122 6 5 0.053 13.64763018894935 5.353060323309449 9.438699380019418 -1 0 0
105 2 1 0.027 18.376000544621686 2.0075786480381073 4.487027409415441 0 0 1
370 7 9 -0.266 15.67874285453633 9.214873053105288 4.516037492660786 0 0 0
534 3 10 -0.1595 16.929711475752242 2.3363254651839513 9.188878717024071 0 0 1
508 3 5 0.053 18.45157087263693 2.725042800631085 10.390882036483568 0 0 1
104 2 5 0.053 17.82170753625577 2.6576843794249165 3.8178732285966475 0 0 1
338 8 5 0.053 18.247381197887197 10.12778590468067 9.566355645244737 -1 0 0
501 2 10 -0.1595 18.687912066074094 1.5425460295113518 1.6260507834721143 0 0 1
489 1 5 0.053 19.018472611608665 10.702237927675114 6.020975808315217 -1 0 0
375 7 5 0.053 16.728524991236615 10.825974549495992 3.565355453852129 0 0 0
573 9 10 -0.1595 10.771674067228284 10.320180783295402 9.683288587651427 0 0 0
297 6 5 0.053 11.221947638390532 1.7613354321909724 8.59709864269718 -1 0 0
134 4 5 0.053 15.39117478135087 5.63123517604989 1.9767290458527835 0 0 0
4 1 2 0.08 14.03872701650395 18.31294311819356 6.42634225725945 0 -1 0
461 7 10 -0.1595 6.79871810207389 16.71458994738925 10.112285861662945 0 0 0
217 7 4 -0.1268 9.99743564976279 14.925439464718687 10.321772761908571 0 0 0
326 5 4 0 7.297317231689803 15.743648577379263 1.8222261767599257 0 -1 1
42 1 5 0.053 2.936234145413235 10.41444497272939 2.591844735805327 0 0 0
332 5 5 0.053 8.930848068494786 17.16203946355263 1.9327758769100254 0 -1 1
14 1 4 -0.1268 10.534605391409096 1.3751828771457044 4.495553238363915 0 0 0
16 1 5 0.1268 10.23302664854843 19.36618292864644 5.443570396004512 0 -1 0
279 1 5 0.053 2.3869612507787936 11.083800847753743 5.051620967241325 0 0 0
320 5 4 0 4.540694436152403 15.421780790207823 1.8908971253756297 0 -1 1
568 9 3 0.08 9.89280469921733 10.77415105612307 7.405826598993535 0 0 0
252 7 1 0.027 6.20129828943798 17.945145610648204 9.56183545074892 0 0 0
138 3 5 0.053 4.605950094847236 11.354354134999888 7.739226723490233 1 -1 1
464 5 6 0.2487 3.0308689637448643 14.723937088197658 2.8294960098621638 0 -1 1
564 9 9 -0.266 8.716727861266612 11.509842426032433 7.8428052227185505 0 0 0
144 3 5 0.053 3.68206225463824 13.579036665561684 9.833521634593666 1 -1 1
142 3 1 0.027 3.61981082718244 12.58696033320154 9.33753790548779 1 -1 1
73 3 7 0.4241 6.648798963406977 12.1887391594915 8.686822062861765 0 0 0
539 3 5 0.053 6.776818840724221 18.666136826378477 3.4058003610057943 0 0 0
98 3 5 0.053 5.075176659364337 18.828670608757157 3.2758664898135783 0 0 0
421 7 4 -0.1268 9.123258518498238 17.455323761553373 9.51457654299232 0 0 0
140 3 2 0.08 4.799541210363077 12.300432295494007 8.369315708906289 1 -1 1
254 3 5 0.053 5.970623774561754 13.281297721501643 6.786184383452965 1 -1 1
258 3 5 0.053 4.246075425879113 13.18520177197532 6.544950414441133 1 -1 1
540 3 6 0.2487 7.852625107775775 17.571726284396675 4.043672537215509 0 0 0
547 3 6 0.2487 8.378760701598154 16.16354212714926 4.762948401186512 0 0 0
154 5 5 0.053 3.8946779118560166 13.143916271231763 3.3279051381873566 0 -1 1
151 5 5 0.053 4.270111212684692 14.36404902722106 4.4383403006932065 0 -1 1
152 5 1 -0.159 4.709266965306066 13.73072716037031 3.7081609191454095 0 -1 1
156 5 6 0.2487 7.362566886316827 13.464302719919278 4.143596214864919 0 -1 1
65 3 4 0 6.786919098347721 17.019188393183203 5.532082381729878 0 0 0
542 3 8 -0.4974 7.971116739665631 17.113520815789983 4.898644297246615 0 0 0
46 3 5 0.053 8.738407494821079 15.850105420459364 6.922558093507667 0 0 0
64 3 4 0 5.69110476614316 17.74846982874981 5.027275843320227 0 0 0
48 3 5 0.053 7.896655952010504 14.3532930571388 6.20647224671784 0 0 0
67 3 4 0 6.549535182555492 16.06669173698998 6.44855490918586 0 0 0
69 3 1 -0.159 7.815447822730392 15.27143790733258 6.844960647673327 0 0 0
44 3 5 0.053 7.647322509936305 14.823538954176282 7.889345193565842 0 0 0
70 3 4 0 5.274303114049382 15.801661930927233 6.872700817303873 0 0 0
63 3 1 -0.106 5.912343097532415 18.878352340331777 4.0403359262769865 0 0 0
66 3 4 -0.1268 4.45856074197382 17.579046001547866 5.524932521239162 0 0 0
72 3 8 -0.3314 5.028858367868569 14.800992860195194 7.869828773484854 0 0 0
68 3 4 0 4.191085278313587 16.622966365785924 6.47625546693308 0 0 0
74 3 6 0.2487 4.156267446512726 14.981432899474294 8.370057231867943 0 0 0
257 3 1 -0.0233 5.006468702394574 13.453072416318676 7.322157496874469 1 -1 1
100 3 5 0.1268 3.5037038873406114 18.103609988779194 5.11481108802149 0 0 0
150 5 5 0.053 5.514623339086227 13.064752904504736 4.146296435773614 0 -1 1
71 3 1 -0.106 2.788838316210029 16.48572489457274 7.021823710714606 0 0 0
204 3 1 -0.159 2.32522532121138 17.62077356096684 8.003618238497975 0 0 0
203 3 5 0.053 19.76477198838986 17.721181129880147 8.03854441027826 -1 0 0
327 5 8 -0.4974 7.616702883440523 13.69456380830181 3.182046328191611 0 -1 1
329 5 6 0.2487 8.56193603499268 14.119951552230756 3.1537034326065108 0 -1 1
322 5 4 0 5.374560287363541 14.583010834396923 2.6337485861032253 0 -1 1
325 5 4 0 6.702837874384145 14.67103198971848 2.522818309091285 0 -1 1
139 3 11 -0.5571 5.86031075603145 12.119436333305524 9.304848320277209 1 -1 1
569 9 1 0.027 9.886128732684272 12.22579256576433 7.511081037119203 0 0 0
101 3 5 0.053 2.533245147040401 15.472697252782483 7.47322826716182 0 0 0
143 3 10 -0.1595 2.330339227617538 12.344225109907171 8.774247235562198 1 -1 1
75 3 5 0.053 2.1077475983948393 16.546156047173795 6.143647835629855 0 0 0
205 3 5 0.053 2.5990575809442564 17.40245727492339 9.037989674640066 0 0 0
459 7 5 0.053 5.379941046973851 17.584531951422704 8.843681448139886 0 0 0
202 3 5 0.053 2.707633308402669 18.636749829364454 7.706998130105501 0 0 0
141 3 5 0.053 3.7493091264501692 11.836801765571568 10.101200987864454 1 -1 1
317 5 8 -0.3314 3.191900307798049 15.43985471265949 2.158851242292222 0 -1 1
253 7 5 0.053 6.864344968863508 18.44993697938366 8.964915962322197 0 0 0
506 2 5 0.053 2.0458570067399604 19.67288227531805 2.237307314274778 1 -1 1
567 9 5 0.053 9.910968270273905 12.78505703990449 6.538009581898583 0 0 0
420 7 5 0.1268 8.929044221698296 18.470555708381898 9.130952519817079 0 0 0
462 7 4 0.0265 8.190710731288391 16.53622017546194 9.954813823978865 0 0 0
451 9 5 0.053 10.460583992553818 12.720532416996166 8.281155142718706 0 0 0
423 7 4 -0.1268 10.468760947575866 17.177569646704598 9.613440228908354 0 0 0
385 5 5 0.053 9.389278279565024 15.50277902268571 2.6020721816918035 0 -1 1
288 1 5 0.053 1.5425273821379992 10.148120481751224 7.249521338001826 0 0 0
328 5 1 -0.106 8.814455641810452 16.073507115014145 1.8142367802554196 0 -1 1
255 7 4 -0.1268 8.692243578078582 15.275810963313404 10.315497009282094 0 0 0
32 3 4 -0.1268 17.22703170184746 18.556451879597493 8.425949847011903 0 -1 1
108 2 3 0.08 19.289384638973008 19.509015806592327 3.9373893200778936 0 -1 1
29 3 4 0 17.441860562818945 14.520278060916372 9.67548917285395 0 -1 1
249 6 5 0.053 12.90946869962096 1.4329697477728986 9.205917089642817 -1 0 0
184 7 5 0.1268 13.844195958602409 11.211591690344438 9.450454070570071 0 0 0
213 9 9 -0.266 17.55324399210322 7.700420344488936 1.4289259543867878 0 0 1
24 3 4 -0.1268 17.62523384108465 13.958060236046475 8.422399099568345 0 -1 1
62 1 5 0.053 12.7453265982764 16.60750088834954 3.666520785226517 0 0 0
83 1 5 0.053 13.74832849407044 17.869300400040274 1.7277004475507425 0 0 0
565 9 5 0.053 9.81840432196859 10.254333054051425 6.443889266158606 0 0 0
89 1 1 -0.106 13.036793624194987 16.041487823202587 2.7922342231387 0 0 0
96 1 6 0.2487 16.256261520718052 17.512728763512996 4.426790976864265 0 0 0
267 1 4 0 15.83219103583639 13.765606343554001 1.8054148404979804 0 0 0
158 1 5 0.053 4.222938214070907 7.77859274382447 10.323474060577423 0 0 0
97 1 7 0.4241 14.64268543639593 17.92778141824634 8.29768821580819 0 0 0
146 3 4 0.0265 19.780707701951357 13.09132882060266 9.090283398996865 0 -1 1
369 7 10 -0.1595 14.18202610024728 11.067376660191316 6.910746483261674 0 0 0
85 1 1 -0.159 13.032564021110026 17.04988431206645 1.6034065750527287 0 0 0
23 3 4 -0.1268 15.75133946434266 17.70564552496929 10.461669857893554 0 -1 1
153 1 6 0.2487 18.273135785431407 12.990009430887474 1.898986208162902 0 0 0
216 7 4 -0.1268 13.243504112058533 13.251396273319143 9.673266931625147 0 0 0
9 1 10 -0.1595 12.89054607197401 19.198655366703626 4.480046817411232 0 -1 0
504 2 1 0.027 19.564736008250023 19.315754578681023 2.4302089258823694 0 -1 1
268 1 4 -0.1268 14.610919143582217 14.406256811204434 2.012116879626503 0 0 0
371 7 4 0.0265 13.719646510651486 12.231860570216984 7.5954876798449655 0 0 0
22 3 4 -0.1268 15.811646568408486 19.067361930850637 10.265374155857945 0 -1 1
6 1 5 0.053 12.209591948941533 19.445766406243195 6.475556568921622 0 -1 0
3 1 1 -0.0233 14.84645419807719 17.05993311906549 5.85671020351167 0 -1 0
425 7 4 -0.1268 12.872642737057408 14.519319420155862 7.704295382221621 0 0 0
35 3 5 0.053 15.496257223979137 14.787893232898822 9.293664846409476 0 -1 1
149 3 4 -0.1268 19.53236852749355 13.539429452096382 10.388685396505528 0 -1 1
148 3 4 -0.1268 18.807034130410226 13.22390303199363 8.14731646565471 0 -1 1
145 3 5 0.1268 18.987778512708402 12.672493293462527 7.1785749434409665 0 -1 1
155 1 8 -0.4974 18.022592257901913 13.404078752252282 2.7333751033490836 0 0 0
1 1 11 -0.5571 13.775041742196548 18.03594026626943 7.790865683044973 0 -1 0
109 1 4 0 16.882077583803195 14.24163843291164 2.6485519803001294 0 0 0
221 7 5 0.053 12.9270462904071 16.533584331460133 9.591451257932395 0 0 0
112 1 4 0 16.675735037840212 15.277886786758051 3.5881211388424723 0 0 0
426 7 5 0.1268 12.396754322502662 15.327193539459714 7.132471184805185 0 0 0
26 3 4 0.0265 16.64783581649857 19.510409070904924 9.280137852501198 0 -1 1
111 1 4 0 14.466254662726879 15.523312737007616 2.805200497122513 0 0 0
582 2 5 0.053 19.496862929381432 18.30670011948706 2.1112792362140604 0 -1 1
107 2 9 -0.266 18.001619162296805 19.14234696198495 4.488790445530826 0 -1 1
367 7 1 0.027 14.98686559186465 11.28147901258056 5.7912633209482545 0 0 0
365 7 5 0.053 15.61454042936855 12.215188372859997 6.030245152043951 0 0 0
422 7 5 0.1268 11.207217910372876 17.93652998584214 9.415591606898756 0 0 0
505 2 5 0.1268 16.94178161885297 18.02274058029369 1.7835061044297542 0 -1 1
2 1 5 0.053 15.67054538497225 16.72981992561897 6.5947090099426635 0 -1 0
38 1 5 0.053 18.641323194485228 15.888018903598395 3.7488643911860224 0 0 0
99 1 5 0.053 14.17518044442154 16.14573957721933 6.002373495822294 0 -1 0
535 3 5 0.1268 17.84205159319201 18.821412837225594 7.576268044311823 0 -1 1
91 1 4 0 15.465213275710251 15.968183282679416 3.666799541563383 0 0 0
36 3 5 0.1268 17.451312470126933 16.518969404000842 7.897832130234476 0 -1 1
7 1 5 0.053 12.087287362688139 17.69289248179065 5.749989678399567 0 -1 0
30 3 4 0 16.400617681934413 16.735017358136467 9.671754374366156 0 -1 1
94 1 5 0.053 17.608823951070402 16.49751874881988 5.203972429818304 0 0 0
218 7 4 0 12.7576695354327 14.430594703765674 9.073869327637942 0 0 0
188 7 4 -0.1268 13.67666847571512 12.203312051539106 8.982888153885337 0 0 0
37 1 6 0.2487 18.864197754328387 13.820600415772326 3.1103466625467773 0 0 0
31 3 1 -0.106 16.25136760097105 15.313535224900765 9.961879795678147 0 -1 1
33 3 4 -0.1268 17.13163762301631 17.209892718806174 8.647307298630427 0 -1 1
376 7 5 0.1268 13.357663001355869 13.463181727931504 5.868816290382931 0 0 0
225 1 5 0.053 12.337541606609374 15.20487113529437 2.6387976494786494 0 0 0
219 7 1 -0.106 12.402658535802013 15.621037296721639 9.98733623424715 0 0 0
424 7 4 0 10.918347607690174 15.887581674513436 10.0058695514367 0 0 0
8 1 1 0.027 12.688373812165423 18.659790220987997 5.790169006897386 0 -1 0
92 1 1 -0.159 17.850502185831466 15.680721346806692 4.4983250777299375 0 0 0
364 7 5 0.053 14.387673746536604 11.452534025803056 4.876251080258091 0 0 0
93 1 5 0.053 18.206305972293336 14.915975159059549 5.207395199647097 0 0 0
28 3 5 0.1268 16.898087291269412 14.220014284022751 7.643423863986443 0 -1 1
95 1 8 -0.3314 15.290635517702656 17.16123816834949 4.421735127804529 0 0 0
5 1 5 0.053 14.677414838345278 19.223802932058756 6.369494473564519 0 -1 0
374 7 4 -0.1268 13.432050287843099 13.436056974417758 6.978785378731305 0 0 0
212 9 5 0.053 19.360532100272287 8.924599205475872 1.6641249311290516 0 0 1
137 4 5 0.1268 14.402770364322308 7.815538360295165 1.6521331793545362 0 0 0
453 9 4 -0.1268 11.24192920415034 8.10637807396969 10.520770096656063 0 0 0
244 7 1 -0.0233 4.4759501772997226 19.764601266507242 10.437279655130313 0 0 0
355 7 6 0.2487 9.484021206316163 5.621975111026386 10.276966182910433 0 1 0
584 10 5 0.1268 5.6784938858922756 4.5521513137165055 14.738681976322336 1 1 0
470 10 4 -0.1268 4.4024126387757985 4.618148844625221 16.459665109652327 1 1 0
585 10 4 -0.1268 5.310851779167944 4.031701480885207 15.651988060993057 1 1 0
516 10 4 0 5.897839264783147 2.8695933909549725 15.984485828833517 1 1 0
468 10 5 0.1268 4.042923546723253 5.560807842302808 16.05359202285713 1 1 0
562 10 5 0.1268 8.876382873821452 4.132898512568815 15.144986798248514 1 1 0
166 7 5 0.053 3.638327981480717 3.925255774091493 12.623952816950558 0 1 0
469 10 4 0.0265 3.9485727955574483 3.974001134207515 17.633121073548192 1 1 0
331 10 4 -0.1268 4.5501993713640125 2.7237195101426055 17.93001391943304 1 1 0
341 7 5 0.1268 5.3088899140198755 5.835862081227192 12.453675799276416 0 1 0
344 7 4 -0.1268 5.777800516276946 5.238137572752143 11.665034233825684 0 1 0
401 7 5 0.053 8.846199118992022 5.78905390427821 13.215461928710381 0 1 0
346 7 5 0.053 6.8246623035523735 7.619366934010407 11.653445171924854 0 1 0
519 8 9 -0.266 5.125664134976206 8.339381673798552 15.990019267176594 0 0 0
345 7 1 -0.106 7.606302754740825 6.864619976718406 11.74833511421966 0 1 0
403 7 1 -0.159 8.298984455504364 6.715234038277415 13.137739738943093 0 1 0
399 7 5 0.053 7.537338762970024 6.6514056720782335 13.944547472454875 0 1 0
521 8 3 0.08 4.334930139694854 9.375806427841857 15.331527876710632 0 0 0
523 8 1 0.027 4.858201207431948 8.239028532804126 14.666429950057164 0 0 0
520 8 1 0.027 2.837199402368702 9.546903887050266 15.596398524220442 0 0 0
526 8 5 0.053 5.70155437097736 8.241395417304934 13.937247109058543 0 0 0
52 4 5 0.053 8.760800249082598 9.831488518756382 13.30589972337069 0 0 -1
120 1 5 0.1268 6.845311965457368 6.974202167028861 18.242513998488143 0 0 -1
407 7 5 0.053 9.004818013181502 7.587477434302636 13.341033511223428 0 1 0
127 1 5 0.1268 8.446719522718062 4.913734015677006 18.24786637274635 0 0 -1
522 8 5 0.053 4.195320786296657 7.440698139148436 14.3787805750488 0 0 0
333 10 4 -0.1268 5.535082084711742 2.236817782657427 17.10481962463249 1 1 0
190 4 4 -0.1268 9.363499717983988 9.039616243145936 17.48638104153917 0 0 -1
477 10 4 -0.1268 9.248507740854752 3.276716818301158 15.775981449724124 1 1 0
176 1 4 -0.1268 7.006145288328619 6.282108114631976 19.120211450161293 0 0 -1
124 1 4 -0.1268 7.731395914288676 5.1024750116529045 19.06519686150994 0 0 -1
60 4 4 -0.1268 8.812715892100062 9.30224838996837 16.29797327204482 0 0 -1
475 10 4 0 8.335750510567891 2.21719647665062 15.734338677693332 1 1 0
513 10 5 0.053 7.076247464631596 2.8229260436527226 14.142181642176347 1 1 0
515 10 1 -0.106 7.003754641310076 2.2469803930938443 15.093036135331742 1 1 0
237 6 5 0.1268 2.154251643795245 3.098603164185008 15.368122744869465 0 0 0
186 4 4 0 9.753668984703173 10.065629396410015 18.2406204948243 0 0 -1
165 7 1 -0.106 3.5149232745153296 4.177803823356546 11.560616894561443 0 1 0
272 10 5 0.1268 6.001961810631227 1.3192445721501533 17.34472794149559 1 1 0
347 7 4 0 4.978964296239926 4.323690115233742 11.014799902499787 0 1 0
358 8 10 -0.1595 1.8476255587555335 8.662182247036682 15.101452111417794 0 0 0
311 2 1 0.027 10.17851158504186 2.9145183734787365 12.451940467242036 0 0 0
170 1 5 0.053 3.6596202236461086 9.438818777585118 19.1587946140859 0 0 -1
61 4 5 0.1268 8.604086618426265 8.492472498969285 15.584300340153252 0 0 -1
350 8 4 -0.1268 1.8665035839066788 9.687475972636177 12.89274963624424 0 0 0
192 4 5 0.1268 9.56620515037228 8.052713375845732 17.862056478617685 0 0 -1
524 8 5 0.053 2.749599247871334 9.77766952889965 16.702954084811655 0 0 0
349 7 4 0 7.0387948396438835 5.546077762885706 11.21096596860901 0 1 0
340 7 5 0.053 8.353385648090311 7.193274650407811 11.048429041689195 0 1 0
201 6 4 -0.1268 1.8233746981591388 2.3595320455946913 14.609396038267551 0 0 0
132 1 5 0.053 8.748518176011418 2.690373596495741 19.069369987357433 0 0 -1
525 8 5 0.053 4.927751211334732 10.30983293098206 15.118055909499194 0 0 0
313 2 9 -0.266 10.289043055724992 2.103826653347542 11.273635859337116 0 0 0
55 4 1 0.027 8.343879813667632 10.81928894222497 13.593922547295886 0 0 -1
43 1 2 0.08 4.54906758434754 9.867012393703979 19.668151274924533 0 0 -1
160 7 5 0.053 2.909986025846502 6.159917379273599 12.484577296209382 0 1 0
172 1 5 0.053 5.906304945873668 8.603202929225517 18.435169589934198 0 0 -1
404 6 4 -0.1268 2.566525887790711 19.708697424208744 14.370193385386674 0 -1 0
467 10 10 -0.1595 2.953738423748901 4.557425796546312 18.40235341155963 1 1 0
330 10 5 0.1268 4.411720870769749 2.0301809149296837 18.873021145912652 1 1 0
159 7 5 0.053 1.5893602372179805 5.262348224797602 11.696758121860567 0 1 0
162 7 1 -0.159 2.668332879711696 5.490623821266746 11.65187254683764 0 1 0
343 8 4 -0.1268 1.4193487886980163 9.730336095551852 11.60812784010569 0 0 0
353 8 4 0.0265 1.3538408959089416 8.745440863951465 13.814355330931143 0 0 0
260 1 5 0.053 17.12938797439294 12.580077061334578 19.037168233686117 0 0 -1
314 2 5 0.053 9.187841915168027 3.393235192474049 12.607697982011063 0 0 0
175 7 7 0.4241 7.2080382719150045 1.4847010331433594 10.944700518709139 0 1 0
77 4 9 -0.266 6.245204623059323 10.863662721546834 11.93605199425058 0 0 -1
164 7 5 0.053 2.758475136495654 3.4817372120088055 10.993481386466675 0 1 0
168 1 1 0.027 5.818594730851965 8.984298617742605 19.489988007538813 0 0 -1
479 10 4 -0.1268 10.580592961029605 3.107368930554307 16.211225415731477 1 1 0
242 7 5 0.053 4.1115570406097515 1.6367029795514711 11.409686201440227 0 1 0
517 8 5 0.1268 2.663268556176638 10.404455346551494 13.177870207714871 0 0 0
58 4 4 0.0265 8.413562717174212 10.59166019276798 15.876873884381848 0 0 -1
59 4 10 -0.1595 7.5818181756402625 10.7441038170132 14.760937204099697 0 0 -1
443 10 5 0.053 4.311944602891332 5.788031325149888 19.447972209030507 1 1 0
136 4 4 -0.1268 12.58679282075915 8.696568289161199 19.792429660030542 0 0 -1
187 4 1 -0.106 10.3934017484643 9.88660056175029 19.593740417440106 0 0 -1
473 10 1 0.027 3.5202837474629174 5.091891162575813 19.696141431291085 1 1 0
339 8 5 0.1268 1.7665485437541766 10.539859848607538 10.941839472859314 0 0 0
161 7 5 0.053 2.8140882675999466 6.111127223777427 10.688521809849176 0 1 0
460 9 5 0.053 11.201470420838286 6.9092789347406285 14.66972154251742 0 0 0
308 2 5 0.053 10.963425475519415 3.6620166584946916 12.611806564720908 0 0 0
482 10 4 0.0265 10.964412314535684 1.9130736877378778 16.847598115144166 1 1 0
563 10 5 0.1268 11.255338786871931 3.9758486015133334 16.218540743867514 1 1 0
53 1 5 0.1268 11.043093679716156 2.961693293372713 19.485948382818314 0 0 -1
214 9 5 0.053 18.992032321339764 6.369755652541722 19.088398563730166 0 0 0
457 9 5 0.1268 11.817075274873789 6.224751440165828 11.38917545191537 0 0 0
577 9 4 -0.1268 11.489912660517607 10.050975818885446 11.98259631802266 0 0 0
290 8 5 0.1268 18.272188657748295 7.166300682901089 14.004481924637606 -1 0 0
579 9 5 0.1268 12.054531283695114 9.839873436366886 13.978927306227307 0 0 0
578 9 4 -0.1268 11.893503968759962 9.315921840680147 13.06888638953167 0 0 0
226 6 5 0.053 19.217096822236627 4.7519130898111595 13.807778004879767 -1 0 0
493 10 5 0.053 15.318261412102718 4.047966113192578 18.04438942033938 1 1 0
492 10 1 0.027 15.562130869485777 2.9969003082424335 18.050645866388354 1 1 0
236 6 5 0.1268 17.875182306723552 5.4962992181901384 11.802280919122545 -1 0 0
235 6 4 -0.1268 17.17195186397843 4.753462611141692 12.081207746253922 -1 0 0
580 9 4 0 11.978338319020725 7.8700302235263475 12.860811554031942 0 0 0
239 6 4 -0.1268 16.02036292142443 4.822203070003784 11.29704435815498 -1 0 0
208 9 1 0.027 17.583551563566182 7.0712367359146135 17.55223453326512 0 0 0
487 10 1 0.027 13.285330426692088 2.5178243888819654 17.019417252162224 1 1 0
419 9 5 0.1268 14.630514443087607 5.818094699984483 13.884572800266954 0 0 0
418 9 4 -0.1268 14.516176318874818 6.562782444657616 14.679741134804745 0 0 0
414 9 4 0.0265 15.667617269709782 7.832219627598216 16.486550963256683 0 0 0
417 9 4 0 13.322688441339569 7.14966621211933 14.934540045603507 0 0 0
416 9 5 0.1268 16.52320211071961 6.0322401444477585 15.395730493208486 0 0 0
415 9 4 -0.1268 15.647555483117554 6.758750414590162 15.531225609659938 0 0 0
413 9 10 -0.1595 16.78639413600022 8.169903128274571 17.140174709188187 0 0 0
455 9 4 -0.1268 13.28760447436524 8.10866882517415 15.95800884029726 0 0 0
412 9 4 -0.1268 14.442884194394875 8.467826342874623 16.66376813309484 0 0 0
581 9 1 -0.106 12.14926301777077 6.919878897557256 14.081308270961072 0 0 0
549 9 5 0.053 12.16184604276601 5.845711890967132 13.838006635552865 0 0 0
234 6 4 -0.1268 14.90408208417709 3.469570850516142 12.922042312861894 -1 0 0
238 6 4 0.0265 14.891680480049724 4.073040205703684 11.672944542845329 -1 0 0
454 9 5 0.1268 12.360346102395491 8.60488216939775 16.234085478087742 0 0 0
411 9 5 0.1268 14.31137874839729 9.240448951141529 17.389924643932012 0 0 0
456 9 4 -0.1268 11.716507954674173 7.328308647344669 11.57868060402374 0 0 0
206 9 5 0.053 16.924839507800925 6.2298134958311 17.784900159742193 0 0 0
118 6 5 0.1268 14.031873583342275 3.0547138828910656 13.398788646699815 -1 0 0
352 8 4 -0.1268 18.758521092412504 7.996259971108057 13.3945710681073 -1 0 0
233 6 4 0 17.229700170646776 4.022322593933757 13.230346361875808 -1 0 0
232 6 4 -0.1268 16.093655020866215 3.4003156282964246 13.65724350819282 -1 0 0
490 10 3 0.08 14.608399174243619 1.987666202244084 17.606633885935683 1 1 0
485 10 5 0.053 13.42617715488989 2.702145303044233 15.918322251060983 1 1 0
494 10 5 0.053 16.587040678333693 2.8732528370135917 17.95407906425619 1 1 0
229 6 1 -0.106 18.47213181447402 3.9632228630665143 14.09597485614449 -1 0 0
230 6 5 0.1268 16.185429232870085 2.760885251834029 14.573244900867603 -1 0 0
228 6 5 0.053 18.024778233602174 4.194002699266144 15.046025353487464 -1 0 0
211 9 3 0.08 18.378113393069892 7.271346521570779 18.899166295418365 0 0 0
241 6 10 -0.1595 13.688428379934068 4.015669806414024 10.982732516291469 -1 0 0
209 9 5 0.053 18.22405627291802 6.898270474810271 16.734306159159367 0 0 0
491 10 5 0.053 13.032183721043289 3.477684507425598 17.55776641734439 1 1 0
348 8 4 -0.1268 18.230353374274927 8.18638780679457 12.055853769059151 -1 0 0
486 10 9 -0.266 14.933822948705396 2.111043923579069 19.010760046739517 1 1 0
231 6 4 0 19.12968148616933 2.6001542492721654 14.009281640757713 -1 0 0
484 10 10 -0.1595 12.209530352429173 1.5956014756952355 17.310640827311502 1 1 0
284 8 5 0.1268 17.368093892203124 7.651704881821207 11.793477288025413 -1 0 0
342 8 4 0 18.9106811923694 8.938301093264485 11.172879293447359 -1 0 0
444 6 5 0.1268 17.773932396160607 1.7375115551901366 12.547700572710221 -1 0 0
445 6 4 -0.1268 18.70573824236615 1.6316148780599289 13.08202618373995 -1 0 0
550 5 5 0.1268 16.568678661693877 10.037916000551382 14.935698533564606 -1 0 0
207 9 5 0.053 18.158794010870874 9.44257250623633 18.82566663890131 0 0 0
210 9 1 0.027 18.56354897786601 8.604715942620743 19.479790125588185 0 0 0
556 5 4 0.0265 18.87772577080575 12.41582192792502 15.949741551546154 -1 0 0
575 9 4 0.0265 11.153707540006513 9.487712382118414 10.710769967144529 0 0 0
397 6 4 -0.1268 19.441764744123702 19.023017314776265 12.790870860474811 -1 -1 0
191 4 5 0.1268 13.106491359037598 9.65927530453793 19.478095614221335 0 0 -1
391 8 5 0.1268 15.957784241107223 9.932691714738446 10.62655386659565 -1 0 0
309 2 5 0.053 12.686259372487767 1.6617071000456098 12.468624426710953 0 0 0
551 5 5 0.1268 18.5658629281421 10.364421340264837 16.425557838526654 -1 0 0
266 1 5 0.1268 13.869140003823746 14.142622831465784 19.788348734530114 0 0 -1
81 4 5 0.053 8.071582884798307 11.65431580853961 11.489594944507404 0 0 -1
54 4 5 0.053 9.16704979381337 11.537802543969674 13.812116314615587 0 0 -1
449 1 7 0.4241 4.68438009436481 11.899628207031407 19.679139161683327 0 0 -1
79 4 3 0.08 7.466973545391801 11.486841755336835 12.368518931268193 0 0 -1
409 6 5 0.1268 3.4822216686439798 19.633921860009846 14.942235220060452 0 -1 0
433 5 5 0.1268 14.76120499814258 14.089783601303115 12.418321206735525 -1 0 0
496 2 5 0.1268 19.47087798873458 1.6860529990632083 17.45621467411076 0 0 0
514 10 5 0.053 6.678079608622291 19.806600007486313 14.660222092576378 1 0 0
178 4 5 0.1268 9.725991155164394 12.207454672660583 18.52841476374748 0 0 -1
518 8 5 0.053 2.6129275685459756 10.524764215695575 15.163154888455779 0 0 0
478 10 4 -0.1268 8.758156318486872 19.54787926436217 16.378063865691217 1 0 0
480 10 4 -0.1268 9.98905113753018 19.457628696767546 16.988356867483724 1 0 0
147 3 5 0.1268 1.8450360092884783 13.306395461578035 11.184592136397692 1 -1 1
256 7 5 0.1268 7.868883158970868 14.576423767487308 10.808794823556026 0 0 0
39 1 11 -0.5571 4.597682553054431 11.1901841141781 18.995620983337105 0 0 -1
318 5 7 0.4241 2.420650887756504 11.85806956253893 18.9749214993736 0 -1 0
243 7 11 -0.5571 6.730846210735149 19.3231255496211 11.499867059460163 0 0 0
321 5 4 0 5.126560324349024 16.343068734057084 19.61459173759835 0 -1 0
476 10 5 0.1268 8.045217306384714 18.728662156246216 16.37877574696843 1 0 0
84 5 1 -0.0233 2.273768378622543 15.050954325152404 19.538839848149603 0 0 0
182 4 4 -0.1268 9.36716336794353 11.367127923222018 17.869694676926258 0 0 -1
315 2 5 0.053 9.834088896812913 19.18826756343057 12.808806727377029 0 -1 0
324 5 5 0.1268 6.896188931829114 17.348133455296928 18.91380414396971 0 -1 0
381 5 5 0.053 9.134055446510306 16.466671487441175 18.05554042674818 0 -1 0
541 6 5 0.053 5.276731709688299 14.833311941434307 14.13799223391124 0 -1 0
181 4 4 -0.1268 8.692658736079615 11.651606402884358 16.696507593112038 0 0 -1
51 4 5 0.1268 8.399897124697713 12.627529750854666 16.379554276777654 0 0 -1
78 4 1 0.027 6.223123971716947 12.213299746286975 12.410755719856258 0 0 -1
80 4 5 0.053 5.9708906430514945 12.93531560716795 11.625243501214536 0 0 -1
76 4 5 0.053 5.719681917539545 12.35987689075704 13.382589153401184 0 0 -1
198 5 5 0.053 7.788375357071585 17.359571503634033 13.40091303358711 -1 0 0
583 5 5 0.053 4.37942580306462 16.18603346996519 16.970638550531348 0 -1 0
548 6 5 0.053 4.351267002462067 16.20497591565239 14.636305857026759 0 -1 0
316 5 5 0.053 3.272841787496911 17.489191416288342 19.153701786709163 0 -1 0
319 5 1 -0.106 4.31638092610264 17.40479845629906 18.782486548241703 0 -1 0
406 6 1 0.027 2.5256897686696815 16.557020510579253 12.382681482701837 0 -1 0
405 6 3 0.08 3.4988882045848637 15.35872709708025 12.714938485436361 0 -1 0
544 6 1 0.027 4.3307862152130525 15.339617381780283 13.985540225097616 0 -1 0
543 6 9 -0.266 3.0871181678562154 14.667949096960415 13.935478917803506 0 -1 0
402 6 10 -0.1595 2.921956385880372 17.69117495271107 13.141124859450313 0 -1 0
510 5 1 -0.159 4.487903910983863 17.193033011793247 17.245522511509677 0 -1 0
86 5 2 0.08 2.421261974084843 13.754576956522984 18.704327165276535 0 0 0
197 5 3 0.08 9.355470586864733 16.17236218623855 14.332237143324217 -1 0 0
199 5 9 -0.266 8.16826942247806 16.18506613900818 15.161779267752445 -1 0 0
82 5 5 0.053 2.3770059266592822 15.81880002476292 18.693533182364266 0 0 0
511 5 5 0.053 3.585461404706493 17.62537841039156 16.664232377073073 0 -1 0
88 5 5 0.053 3.4726794734909414 13.733167332619914 18.351573608109284 0 0 0
196 5 1 0.027 8.024681219942 16.359403087591105 13.756834921220797 -1 0 0
194 5 5 0.053 7.5223324552302335 15.521095110746922 13.207868293226701 -1 0 0
408 6 5 0.053 2.437273791610849 16.729877448623498 11.317721355551981 0 -1 0
400 6 4 0.0265 2.1335471500179066 18.79246998147494 13.418222340101368 0 -1 0
509 5 5 0.053 5.426701063137715 17.650715475868992 16.9184326811627 0 -1 0
195 5 1 0.027 10.095350338541465 14.846672414672213 14.131381149143065 -1 0 0
163 5 5 0.053 9.28578723834353 14.083085468931923 14.167734157181938 -1 0 0
246 7 5 0.053 5.258248984245913 18.15405093073136 11.548829603451942 0 0 0
383 5 1 -0.159 9.530563404659299 15.789219349706014 18.91779758658124 0 -1 0
389 5 5 0.053 9.204849740970904 14.769087819265017 18.559847065914802 0 -1 0
465 5 5 0.053 4.746083767861446 18.377346134157442 19.017799162550237 0 -1 0
323 5 4 -0.1268 6.471078301814134 16.585750217777864 19.639143281679562 0 -1 0
538 6 5 0.053 3.6639631285848577 14.631104891239687 11.926233152424285 0 -1 0
410 6 5 0.053 1.5540327190498833 16.2033411057919 12.819549712247182 0 -1 0
247 7 2 0.08 5.638849652745009 18.809573930539447 10.734107276561234 0 0 0
558 5 10 -0.1595 1.490754378398446 12.550204381371325 16.775759379467427 0 0 0
559 5 11 -0.5571 2.0953733835329507 12.596892630481655 19.56779968144167 0 0 0
398 5 5 0.053 10.362093284591811 14.85901497322032 13.06299139282557 -1 0 0
261 1 5 0.053 15.798601899434093 11.667648718264903 19.760396941503203 0 0 -1
200 5 5 0.053 9.956204828450694 17.128949318267182 14.401850935707333 -1 0 0
481 10 5 0.1268 10.233508064872005 18.421037931446705 17.406194690086544 1 0 0
512 5 5 0.053 10.648969201304423 15.852750320685702 18.840135850264826 0 -1 0
220 7 5 0.1268 10.351129807976891 13.987831228321674 10.63947307256492 0 0 0
312 2 3 0.08 10.51115380845847 1.4674297645805419 12.503946920329065 0 0 0
20 3 5 0.1268 15.281321873243485 19.80805485045709 10.821836666349489 0 -1 1
34 3 5 0.053 15.808904634690295 15.123550095235728 10.931440130733362 0 -1 1
537 5 5 0.053 1.8183356048341772 14.630300044564665 16.82338033374895 0 0 0
561 5 1 0.027 1.4475577804880126 13.836332352516989 17.47326166080178 0 0 0
215 7 5 0.1268 13.16829780380342 13.042672725967835 10.788348346560218 0 0 0
262 1 1 -0.106 16.04924224201833 12.655377075287337 19.333436799133793 0 0 -1
497 2 4 -0.1268 18.380573289914803 18.42910387948038 16.809038302773914 0 -1 0
429 5 5 0.053 15.37552560527214 10.639176125241722 13.08418629345027 -1 0 0
495 2 5 0.1268 18.796744770116476 18.45130790144808 15.789673252202988 0 -1 0
500 2 4 0.0265 18.218573381101677 19.30073069526912 19.096133014842895 0 -1 0
435 5 4 -0.1268 14.059689169159391 13.731400107331437 13.170711927652086 -1 0 0
296 2 5 0.1268 14.0894133489071 16.066637791778874 16.754166028233893 0 -1 0
305 2 4 -0.1268 14.397956034746974 18.600267559328543 13.851107777124753 0 -1 0
488 10 5 0.053 15.067294760585707 19.648617207145776 17.07342578523432 1 0 0
431 5 5 0.053 15.752821461924686 12.003053899203175 12.100944303647223 -1 0 0
441 5 5 0.1268 13.715976884177243 10.919337144736826 15.138971848865351 -1 0 0
306 2 10 -0.1595 12.004801095137603 18.960258633486156 14.031396985322191 0 -1 0
265 1 5 0.053 14.267770097537356 13.26653518017914 18.01203753373197 0 0 -1
440 5 5 0.1268 17.100640431505532 14.090902916011913 13.51290331438167 -1 0 0
442 5 4 0.0265 12.14542313535674 13.960121865753921 14.569011300920494 -1 0 0
307 2 5 0.1268 14.51247137780291 19.39694530969909 13.137353921115103 0 -1 0
310 2 1 0.027 11.936027047233868 19.395814809831528 12.651510196274039 0 -1 0
560 5 4 -0.1268 18.401282929988454 13.42573635057281 15.061334222607742 -1 0 0
302 2 4 -0.1268 15.54268881527062 18.018518362449214 14.28386722765613 0 -1 0
438 5 4 -0.1268 12.982904845731397 14.482971508602555 13.583833887189877 -1 0 0
554 5 4 -0.1268 18.179885596618227 11.20519970177313 15.82918884023465 -1 0 0
298 2 4 -0.1268 14.246866018631778 16.83749222581148 15.990157493889702 0 -1 0
377 2 5 0.053 12.087411252029048 18.56291911425545 11.945977866584318 0 -1 0
434 5 1 -0.106 15.518984106044536 11.735174487910829 13.177257882787567 -1 0 0
393 5 4 -0.1268 12.385189479002277 12.650555628193386 15.04592531720263 -1 0 0
499 2 4 0 17.39612441092073 17.52481218202181 17.033580645593105 0 -1 0
259 1 5 0.053 15.389050685209554 12.000768003104728 17.342910621400826 0 0 -1
395 5 5 0.1268 11.619683716917113 12.27635229454347 15.836895557055515 -1 0 0
553 5 4 -0.1268 17.114550788995345 10.990757567614521 14.94903876565634 -1 0 0
498 2 4 -0.1268 18.80622051294608 19.357177043777703 17.799537076554326 0 -1 0
263 1 1 -0.159 15.357678486171602 12.87711370694331 17.993272460866983 0 0 -1
299 2 4 0 15.46275120015884 17.16040139079091 15.410291868690448 0 -1 0
90 5 5 0.053 18.98806480500955 13.993943399403175 17.883301339249524 -1 0 0
396 6 5 0.1268 19.080966990381512 18.33137425294989 11.967084516097879 -1 -1 0
21 3 5 0.1268 14.937611244701532 17.313270576845483 11.11303349367423 0 -1 1
110 1 5 0.053 13.303413766128733 16.634668398150673 19.161042012639975 0 0 -1
293 2 5 0.053 16.733342230637902 15.66123893626769 16.508477173322387 0 -1 0
394 5 10 -0.1595 11.040911994143773 14.538915107491704 15.163059991991288 -1 0 0
463 2 5 0.1268 16.069081124316618 16.776304297479435 18.647358455823262 0 -1 0
27 3 5 0.1268 18.331874728523402 14.738299978264974 11.607157362875773 0 -1 1
427 7 5 0.053 12.763583199360694 15.386102678169763 10.962415598480945 0 0 0
458 2 5 0.053 17.460986750410754 16.452751391665686 15.064493646757708 0 -1 0
303 2 5 0.1268 16.569225737893753 18.277416901152044 13.898576755937464 0 -1 0
439 5 4 -0.1268 13.5248226232186 11.921327308500938 14.646196018854997 -1 0 0
574 9 5 0.1268 11.385145821585454 11.114615361272369 12.24046396055703 0 0 0
557 5 4 -0.1268 17.336199468889657 13.244807666560204 14.210029941951506 -1 0 0
503 2 4 -0.1268 17.329517279594786 18.326575999577514 19.321818712691478 0 -1 0
264 1 5 0.053 15.90563744314511 13.681463679370971 17.425738139176797 0 0 -1
304 2 4 0.0265 13.208382118420406 18.3321841207377 14.473914121155197 0 -1 0
300 2 5 0.1268 12.11694773131786 17.161966479119826 16.016557654233047 0 -1 0
555 5 4 0 16.652724943012057 12.021057980860354 14.126525665156242 -1 0 0
502 2 4 -0.1268 16.875498029514052 17.46916245718995 18.308926772564945 0 -1 0
436 5 4 0 14.26190227551232 12.415933914835604 13.61009272771049 -1 0 0
536 5 5 0.1268 18.817175954910052 14.47016169697133 14.97487353930563 -1 0 0
437 5 5 0.1268 12.884002995340827 15.50697632496675 13.306531951096954 -1 0 0
301 2 4 -0.1268 13.083230195711554 17.40198380215795 15.49523130136488 0 -1 0
295 2 1 -0.106 16.800018062080618 16.582197945548607 15.957963808623692 0 -1 0
189 4 5 0.053 11.130607724881418 10.756557457525423 19.748937059219685 0 0 -1
25 3 4 -0.1268 18.453283404433442 14.338037040147153 10.62357656261006 0 -1 1
552 5 5 0.053 19.7324395417663 14.987273910396906 19.82151573914407 -1 0 0
167 1 5 0.053 6.7406728375699165 9.521247775786245 19.69625792979359 0 0 -1

Velocities

283 -0.007648486449230254 -0.0043013242278195545 0.0006922854665315034
278 -0.007335267724720894 0.0014071540945909185 -0.010584219010922054
277 -0.006765247536928095 -8.64145869630662e-05 -0.003012917721968937
280 0.007569202390993733 0.007322574411139986 -0.003855864760194299
276 -0.004568246679818096 0.0024409419131508924 0.004114346831286678
275 0.022397908408489816 -0.02187522981275693 -0.0065678478574298215
45 0.009619921786288831 -0.007341048312859034 0.012521000399539475
47 0.003043298524804498 0.001956343319769116 0.0054457530522375175
40 -0.013981420727254352 -0.014190770609486135 -0.017635316397497262
274 0.005496862791650597 -0.00670721521487603 0.0016860564787267755
50 -0.010119685811689812 0.028636628551096353 0.004548691198324004
116 0.006129940916098564 0.007236586993614866 -0.00564936656249737
114 -0.009846642178983487 -0.00875755115388667 -0.034262640198503495
49 0.00383905317343013 0.00614098225284389 0.001472494760599188
177 0.0018974624665922 0.003560018000931129 -0.0033029075541940595
117 0.019861243591888917 0.012688326834050745 -0.0248490718630718
273 0.0016556172034317964 0.02095695270298588 0.014514482100543088
15 -0.0017400526088693711 -0.002517067192985932 0.004033564942991382
281 -0.0020035097870329337 0.007350644845958805 0.002660581445946393
227 -0.0012794516212904926 0.001971084724595688 0.019313670306065164
18 0.0016151310787112971 0.006513551550119051 -0.004413157437349882
361 -0.0017887521578525912 -0.00395371810038395 -0.003798584852401541
362 -0.024670316454684437 -0.014320939646308414 0.03608297846513757
17 -0.0020965595341475027 -0.004742916620850151 -0.006028522819603314
360 0.00635067023427823 -0.0031890595006954193 0.020681960244381785
572 0.012072111079749257 -0.019466688662684802 -0.0005563412970528646
173 -5.551797873368873e-05 -0.0028032133561807907 -0.0031572611671325844
57 0.019828203124773954 -0.013198239759386343 -0.01442294837349832
356 0.010760765915504558 -0.00247925423922408 0.0037897917957905483
359 0.009744769574962652 -0.005545035465897238 0.010090674690444964
351 0.0004399554286913581 0.008900873797901143 0.004635371222695641
576 -0.0196542171130288 0.00045283293403967125 0.004275784709433417
270 0.010790715724954682 -0.008624272913053236 0.02258891774120132
269 -0.009506789099006152 0.006847687424862952 0.006176542520181849
466 0.0016065079014755221 0.005909029505642051 0.0031504179357655887
169 0.0020546276067050506 0.0001050271339909597 0.0020258936116213165
174 0.0030335849958228285 0.002130010360084068 -0.006817119879780069
472 0.0018529906179362064 -0.010846007600930924 0.007460507342174791
157 -0.01975274503979707 -0.008151224303357952 0.004905952182062783
113 0.006952115101854814 -0.004709255246324337 -0.00814095681276674
115 -0.009707652686433883 -0.0032361472576930192 0.017352222684998565
56 0.003577468681860213 0.000854621693035097 0.005282159960309675
357 0.0019090254627102457 0.003990232419167347 -0.004421568691314657
566 0.038461431759829225 -0.008027781802145044 0.013110057506223984
354 0.0032328827454411787 0.0009561076949825507 0.0027367927534402187
546 0.01733622427773113 -0.020365194560310756 0.015477769894835434
545 0.0008074394954294453 -0.009952760799818506 0.006138708242743301
183 0.010157536709239613 0.0017994649780050758 -0.0071731338304528176
41 0.0033196176169990477 -0.0005504175032433177 -0.0031120569164846046
446 -0.02353852472113608 0.013440088035559081 0.028024955638556392
282 -0.002480017342157199 0.006597867373925077 -0.005822173981089787
363 -0.0077498767658932865 -0.00928914343348137 -0.027250284790944927
87 0.018871988553196904 0.013838068891120103 -0.018342275455372373
179 -0.021246190074652206 0.028237907960691547 0.010734104431707598
222 -0.0025295543361509585 0.007210092281291253 0.001170335125931272
471 -0.015060034984011986 0.031000455040136942 -0.02077060275412816
507 -0.011334469148128664 -0.0002460115569403619 -0.005284401547870674
571 -0.0024578305221168066 0.003938952139356404 -0.00014622803178149157
529 -0.008608518143541336 -0.01816182849622262 -0.00244391306394694
271 -0.0130345855585213 -0.0009724339867238284 0.016989010653604284
474 0.008406532858423556 0.00452480914374576 0.02684745251383367
19 0.008125991077317379 -0.0019714685784413158 0.025658965083724762
245 0.012565355671619143 0.004015207166961084 -0.01360355865416549
483 0.0023993232458916526 -0.020113591681600103 0.015202302077327602
447 0.0035133322697597424 -0.0096177212531357 0.00045724388041069603
450 0.002412392541892188 -0.04044617882012011 -0.007507996274877016
171 -0.0022317278838606177 -0.02490712745857869 0.013040262817759581
285 0.0038693551900129217 -0.0031151645502523464 0.0006893252424168786
452 0.022179839242465037 -0.014085467312719292 0.03607309257741063
193 -0.004198457528351966 -0.0032027953317609365 0.004292074247616542
448 0.00735241279688814 0.0005641647682220603 -0.008700686730503922
286 0.008204992944068028 -0.0016969888867847517 -0.004131472732970737
180 -0.0014476102024300458 0.0040166637572228055 -2.867807037977352e-05
528 -0.007331067539182242 -0.0028859573526690122 0.006479701195983346
570 0.0068075950569560124 0.009125925468559082 -0.006801941651287012
185 0.00850544905776123 -0.005856470715890393 -0.001161257149384818
223 -0.0002903232315090574 0.0004087565029063915 -0.001907038056260032
224 0.019796670836698935 0.02083064746556306 -0.008984290525581579
530 0.0033102134796127837 0.0031725738508142165 -0.017004325524630045
378 0.003187691679935916 -0.002628040388675595 -0.00719775004351892
13 -0.0013604249535757009 -0.00042935942631840444 0.004657839579806536
289 0.008762018374840105 0.0015874175879698764 -0.007224519275003109
287 0.0007611237019615863 -0.003297301304199529 0.00027764393972385553
527 0.00894067804763653 -0.0002542578378103927 -0.00019828782105671178
119 0.007423673695825807 0.02924647822617516 -0.011107483000347343
10 0.003898602845286079 -0.013844218960122502 0.020903031860651417
379 -0.0019467615991172272 -0.0011114156694136813 -0.0029748001137245117
531 0.007983716688600205 0.008328216906784371 -0.00578013893625961
336 -0.0019442208328653455 0.008010511215656551 -0.01553937617057574
390 0.008152050399280398 -0.006610708151597866 0.002458955349967112
532 0.0016771780717932962 0.008456702620401156 -0.00383694694134929
11 0.005309331518607842 0.003699390201576657 0.00997138397597963
294 0.006258183844564457 0.0006021517292010006 -9.674479079891331e-05
123 0.00016137039754616107 0.004933019484814964 0.009421972228612102
430 0.004727082058000678 0.0034843215438686527 -0.001713425182664472
128 2.7910411466816134e-05 0.0025138086779213733 -0.004290597499331952
248 -0.020924304051149825 -0.014683000832277035 0.0028110606367994268
250 0.0031026246059560406 0.00026020112221912013 0.0035948772087310466
380 -0.0013015342022619815 0.00036193068117480634 -0.00045168673589949176
384 -0.002599799180864066 -0.0014599615584552188 -0.004830323062744673
387 0.008680278810768329 -0.0007783071445764904 0.01357238042170572
388 -0.004916343674583256 0.007024755467248094 0.004378805990626874
335 0.0070938790612484525 0.010199009750932906 -0.01895016477483745
392 -0.0037009533650379125 0.0007661937528151072 0.010669201085733103
133 -0.03084713497938901 0.011444214049842303 0.006352606054059864
129 0.00488855275661725 -0.0058701751265967305 0.007268502814404265
251 0.0016837709213042029 0.003603044249855581 0.0015395070367712478
103 0.02955900997836672 -0.0041821854205049665 -0.007810945444530171
102 0.007090981364848951 0.012961231798417645 0.017167847931450337
125 -0.0011289780866553091 -0.0045470948197407525 0.005913265728404309
131 0.0011868275534711657 -0.0005349911656135278 -0.00089938866143694
291 -0.002872919057027358 0.002253494775040883 -0.009700552758656326
130 -0.002395652523868866 0.0033223337579508065 0.007486044949757973
334 -0.002790046250109145 -0.001051966768218881 0.0006649073112267653
135 -0.0017698668026145485 -0.007230495886853808 0.0036949779097283034
12 -0.00509200291616426 0.0016094405616845298 -0.0009018662605427253
428 0.027383022310271857 -0.01555568715864776 -0.0013357652343582644
386 -0.005841578338328735 0.0032552604624235264 -0.011153457827861113
432 0.01455309011366525 0.0007194541622242277 0.012693002037236759
337 0.00021564403821885996 0.00044337551014616373 0.0024419433507660753
382 -0.004283451551283578 -0.01735166671754059 0.02015625483618945
126 -0.012374151510248172 -0.024187428111713576 -0.028816312110523542
366 -0.021593303670982483 0.001402069904334257 -0.00579165836641028
368 -0.006326030811949731 0.0051306401802811066 -0.0030034734141402967
373 -0.0034397957497870565 -0.029542440999153725 -0.009265811896279745
372 -0.002608378680764735 0.004793245352193218 0.0018886719347727145
121 0.006822541530231923 0.0002955299518368238 0.0034600137759663654
292 -0.02955964696155507 0.00047182270505699315 0.0022380650387835953
106 -0.0072300010552061615 -0.031927628896823226 0.013806480852156777
240 0.003018914839086698 -0.008676538324156 -0.013175005556505304
533 -0.00257081883641863 0.005662254451136387 0.006679950325627626
122 -0.0219692142383145 -0.015726626003572292 -0.010959457350311197
105 0.005525328906637619 0.0031044587508775607 -0.0008933526673741335
370 -0.003015323086618621 0.002934258006442342 0.002722532641510654
534 -0.0016698999149869745 -0.00040581474640156913 -0.0017008289562533327
508 0.012659948487825505 -0.011139686201807239 -0.00044738732367232846
104 -0.001225475861051582 0.01966526549372321 -0.03722012754810241
338 0.02446576642640854 -0.01625343566956014 0.018512668296799054
501 -0.0018713342804254683 -0.0020305686762670774 0.006900397467234654
489 0.019278592521228807 0.03722557325882897 0.027234714157477843
375 -0.012005871647906162 -0.015086787093907539 -0.007861457852997501
573 -0.004543555703906621 0.004651415991541112 -0.005780095766223526
297 -0.01619889403018185 0.0011811010418296668 0.01241556244632863
134 -0.018122739119562203 -0.008082622825618432 0.0031756705420693987
4 0.007431345255670543 0.0037875721062214547 0.0030420910932296317
461 -0.0036236769309198557 -0.00467493605264757 0.003956942736595041
217 -0.00949369741667717 -0.0067798732039023235 -0.004192646942468074
326 -0.01137627756937857 -0.006881822907785191 0.004376817272925823
42 -0.028351923091557936 0.01595671254465137 0.00929364723127668
332 -0.0028369083547026344 -0.016714065640398415 -0.03733875665184234
14 0.0074699082656023005 -0.0014245515644780574 0.012074035543068289
16 0.016946339167568106 0.0016203386799731353 0.004360709216412406
279 -0.009885181281980161 -0.006404011373262155 -0.007910208627316782
320 -0.004595135863246912 -0.0029286364836516496 0.0011055995900536297
568 -0.00364034798963023 -0.0019075368567401886 0.00063310173590244
252 -0.0004926170113988213 0.0008047932589530803 -0.006566090647484931
138 -0.014498100147233987 0.02350911826654759 0.013386504227267764
464 0.009684515204847933 -0.00912237165712691 0.024695740044232566
564 0.0014182357547144232 0.004466827647799863 0.0016026347830896733
144 0.01858776652502365 0.007294489415556579 0.024511473710359524
142 0.0036698207305022666 0.0037336721102578883 0.0006675602973595507
73 -0.0019605506384836238 0.010343701022905489 0.0025845570640208354
539 0.03315790040567536 -0.006815347331356731 -0.001974963814196613
98 -0.01617613792104393 0.0092098946355132 0.003618520174508124
421 -0.0037793654807892047 -0.004328601596304505 0.0017730646303594413
140 -0.006234802664488572 -0.004536583485544455 -0.002491416842493049
254 0.0057244766185143865 -0.03328505023129615 0.0037898871679390325
258 -0.0004140333277118355 0.011133257003130783 0.01227979814624714
540 0.008783742069613383 0.012150667644192011 -0.011895150096878674
547 -0.0005930098041122949 0.012139869752921204 -0.015092257558938811
154 0.02612071491379781 0.000552429480819438 -0.011737626293549446
151 0.004832952755096004 0.020062358237870313 -0.03230137887607891
152 0.010768330036357682 -0.005803998170883189 0.004977081483656486
156 0.005106774053696021 0.0015980073207885147 0.0024985689784810033
65 -0.002118386812988899 -0.0028690386487139658 0.006476948493056256
542 0.0015270093445066424 -0.004951255442009098 0.0013192084373706793
46 -0.008854634994669376 -0.018190876276163358 -0.014371221775699747
64 -0.0005820184019666855 0.012129080762174912 -0.005547079172404362
48 -0.009885579399899256 -0.0012975535566884626 -0.019525022632774343
67 0.0052618287027083165 -0.008940601005621492 -0.005113447922933989
69 0.007739698439840193 0.002801616629560436 -0.0027484481587994893
44 0.0007179722203898989 0.0024585947939216057 0.006765631659289567
70 -0.0020065610555332087 -0.0012086440657408401 0.0042228785764560845
63 -0.005557592008966579 -0.004624498312697136 0.003402862453834402
66 0.0008902373832793668 -0.0020360389114076134 0.0029519240163115162
72 -0.005662952905054021 -0.006374280154732012 0.0037890039306038184
68 0.00107799852592863 -0.002870782017492632 -0.0012794728482600417
74 -0.00785117321914424 -0.013488661349159327 -0.02501247135396524
257 -0.00030302072352415485 0.0032097518908651484 0.006823474733284198
100 -0.0008416180715274277 0.014311684061882579 0.004287505601197912
150 0.01922047555029844 -0.007635694579109503 -0.003984964646046105
71 -0.007249994712122293 -0.008334924921961933 0.0083640900760536
204 0.0007055556169646281 -0.004762286900572421 -0.0036418543886080077
203 -0.005186732035242863 0.016973369009899084 -0.003996346019511033
327 0.0015271975494206642 -0.005160820756263977 -0.0028262514853380724
329 0.007396357920471562 -0.023594663022220623 -0.004952031115401591
322 -0.002169728436734493 -0.002641352522120394 -0.005776000509533326
325 0.0046067397685297575 0.0037356399717367395 0.004775135714699429
139 0.003078483138723937 0.005654680396127279 0.0026888328591576746
569 -0.006818221204931504 0.0029217923089147006 -0.004215485257157831
101 -0.010478799202581076 0.0025201988570024334 -0.013255863612366995
143 0.002939404960903719 0.0006610145350385922 0.004554566447682027
75 0.017361250638942897 -0.015461249201845561 0.012536602042194155
205 -0.005477628089391576 -0.00030997680906614367 -0.013032055336132348
459 0.011503192593285888 -0.0047265811079137835 -1.5420298504130615e-05
202 0.021892439652848355 -0.028501628805816897 4.380912098365374e-05
141 -0.016340631677462872 -0.03922216384578681 0.01941030488752195
317 -0.003375064284029431 0.001428344284107495 -0.0005688706828341343
253 -0.010683951448514629 0.014719745133649497 0.011954581406593036
506 0.013049453659035686 0.01629817724177066 0.0038262458480459714
567 -0.0012975806641095185 -0.01742996520293519 -0.0032878428646249303
420 -0.02187979190925678 0.011404810172848345 -0.015070640916596559
462 -0.004803216500779228 -0.002856851232942717 -0.0020414889614104475
451 0.014387426093640222 0.005367446017615813 -0.017055733294706436
423 0.0004582463769753163 0.00249476132129263 0.006100667188363339
385 -0.021300697548251524 -0.009052126575553598 0.01361349187967436
288 -0.017018770976236205 -0.019252701401142658 -0.019707432101806317
328 0.0006529571597277089 -0.00788899146146009 -0.001440541509936129
255 -0.0005743223493760918 0.00595600472253753 -0.003532194080052259
32 -0.0044590166362844155 0.0033645330119729325 -0.003080668194001971
108 -0.0025397917062554205 0.0027414288485612596 -0.0026983098340884228
29 0.0035765346074857047 -0.004057391785722286 0.010286581030284635
249 -0.017777908304729088 -0.01603923090256272 -0.005860730587237939
184 -0.003737930840336418 -0.004471519247794919 0.028238940205562377
213 -0.0015053576206060962 0.0029280546396564205 0.005037357319223534
24 -0.0005918036721283598 0.0003592069160880494 -0.0020395467398252338
62 0.01491665733329279 -0.020964974592430897 0.032254367290934755
83 -0.005401244675002215 -0.009340902231282793 0.0029308221660770363
565 -0.00044295812411306555 -0.008027031685079204 -0.0027629130479077686
89 -0.000607329981660502 0.006969305385081515 0.003775857638693749
96 -0.0036533162528631564 -0.03604034183167096 -0.020011038596943902
267 -0.0008686671303461143 0.005549263650145267 -0.00046201438817301225
158 0.008482834381096836 -0.04014182269006048 0.026266929991174363
97 -0.003423113930978639 -0.011529781353815835 -0.009295157670755708
146 0.003937556378532997 0.0017561915850825133 0.00012990329796724038
369 0.008106592558897004 0.0014649936688101682 -0.00934702268102602
85 -0.005971875260626816 -0.00030800221747230317 0.001445964395558123
23 0.00047498683194254897 -0.0022558668497403562 0.004121169289796384
153 -0.017186839163562853 0.027371149133701377 -0.012473688818408345
216 0.001626347230612552 0.0034223791089731588 0.00044623090397218355
9 0.002605372880300003 -0.006381805867304559 -0.0034623536598514513
504 -0.0010357183538386213 -0.0016075604041493703 0.0011249843585086788
268 -0.0005513391512319242 0.007571129970098576 0.008619468450045695
371 -0.003989118665858762 -0.005161168608865422 -0.005273750394446806
22 -0.005567358184135464 0.005558546360275356 -0.001653720591014126
6 -0.001968818411856788 -0.013293581644338323 0.002940722601268127
3 -0.006078986374208854 0.005107214589302374 0.0033153466733793664
425 0.0076018364888960745 0.004596238428784651 0.006108965280967611
35 0.00427275568942136 0.010810203536052455 0.006617590063233558
149 0.00932155182836882 -0.006327813734603489 0.0014558185836065715
148 0.00690782784529468 0.004382329524606903 0.005642329561741614
145 -0.03293592653748725 0.019313708747790818 0.020975855444578962
155 -0.004771309928154969 0.004468950238547449 -0.007001110066508947
1 -0.0019694194016690193 0.0030942849353561516 -0.005242368022381924
109 -0.001289656850500963 -0.001525385793663333 -0.0025470476158168413
221 -0.005900919741233444 0.023956787112258498 0.002281251381517539
112 0.0007420551721276096 0.000257214912378198 0.0004898151033977566
426 0.0029730241099346416 -0.0201265719233504 -0.005301091398978295
26 -0.003518551221763064 -0.0026741794451738896 -0.00026838341666562244
111 0.003903686749866363 0.001419131601153204 -0.00517428429983226
582 -0.0002471415634939025 0.03319168176089933 0.021748559087247852
107 -0.0023223967603309176 -0.0005702198377075465 -0.010058095238040498
367 0.0024597116806012085 0.0031032736676368444 0.00545189340943978
365 0.009110252585918643 -0.013583032804136686 0.036732252521642444
422 0.011095496115264124 -0.005045716349261221 -0.003254109092858528
505 -0.002535763601230014 -0.014974631333192542 -0.007470724526767296
2 -0.007917452995292897 0.0012478611032507667 0.0345349092262531
38 0.00035630208401417053 0.0003270636183511905 -0.0012467606468230838
99 -0.009748942563846218 -0.00037460854263245125 -0.011456144967857181
535 -0.0032982280718400806 0.009918582907084379 -0.022294721552055093
91 -0.00803919229266745 -0.0009463719628296928 -0.004063156079640113
36 0.013587877839217532 0.01219469190129436 -0.014663914224671453
7 0.01166248225016922 -0.012996130479513278 0.004903280562778525
30 -0.0002084456378468455 0.000506839176414205 -0.0012360789259790847
94 0.019530642005966003 -0.02410197559851254 0.004105238864216879
218 -0.0011292458011971304 -0.004020993003192079 0.006703036482439147
188 -0.0026939278839202287 0.001396671272290383 7.306179933334983e-05
37 -0.014205506314412628 0.030598335326039935 -0.013798243017627495
31 0.0034236281616092977 -0.006467768007714763 -0.006047291884232122
33 -0.00871664831464028 -0.0018352006601492477 0.0008281479300057068
376 0.0008643749197048619 0.004769535438707939 -0.0035262917454607916
225 -2.2025060965653715e-05 -0.013520996872105149 0.025232584503209112
219 -0.005998645110014639 0.0002868150491494145 -0.004134366211003084
424 0.00031397627638459397 0.007867120466441977 0.0026532068312409597
8 -0.0034916168800922806 0.0031786561208110176 0.00045786581739274725
92 -0.006051645005079054 0.00011266066746552637 0.00043080164857231914
364 0.03405504273944737 0.011877096289947636 -0.013555600280707424
93 0.018741832263145474 -0.014427521952090051 -0.018623415488048484
28 -0.001509340172704857 0.019399454136938075 0.011755012411187394
95 0.0028233180117074367 -0.002030745602861739 -0.004039922727627311
5 0.026591516741190438 0.016428763059337045 0.020323605770078638
374 0.0004878059059315555 -0.0010147367596565111 -0.0002534492318236749
212 0.01675354751607402 -0.020881172245311566 -0.006016608466449028
137 0.0006796209873136682 0.020300637148475242 -0.011241351548816822
453 0.009021344141856149 0.0006265160890250193 -0.004462620288731024
244 -0.0038203552492205102 -0.0020600660603269164 -0.01133195557758252
355 -0.010338658423772651 -0.01781919172097302 -0.015899386685400946
584 0.01687072366715547 0.037162076302967514 -0.0004838734825362349
470 -0.004735313528675423 0.0010887002633175706 0.0056809893003670515
585 -0.003387174419787047 0.011261000177383192 -0.0013821643004321722
516 -0.0006946555980310101 -0.002755554418316125 0.003743295259562725
468 0.013883643719960061 0.006292093521850571 0.009582354250420566
562 0.014079021689268818 0.013224045810399238 -0.01923848927829131
166 -0.0055541638801102095 -0.03726037966153223 0.016464552936348208
469 0.003738155322721945 0.0029533249238475074 -0.003921390895071004
331 -0.006850753936174219 0.0047035411528745415 0.0019038851892809116
341 -0.015099401214395547 -0.008077178239401931 0.004145491646664531
344 -0.003383038213481278 -0.005007600005902385 -0.006693491720306239
401 -0.0007311169417920081 0.0046814715191531705 -0.0074653066263303675
346 0.015542231621776214 -0.0020266103109262135 0.0023764089748045873
519 0.005377957140446348 0.007882472508375813 0.0007154678103140558
345 0.001999145261193326 0.0014450511350786945 -0.001702368731260869
403 0.0041247489028005705 -0.003929833998662989 0.0027580015409793073
399 -0.015325190734891697 -0.012008695906970776 -0.005178981114858269
521 -0.0020088562510409643 0.001538008437277817 -0.000272693672362506
523 -0.008356992397590404 0.002922452072403884 -0.0020223009619024955
520 0.00849234267758679 -0.004175339729847674 -0.00093550000528283
526 0.01100964080552556 0.006166743992645647 0.02721238346990665
52 0.0023816599039499734 -0.00940629276601459 0.0070268789311199575
120 -0.0021369908677460327 0.017161839016003592 -0.013650755809793549
407 -0.02006185098102139 0.011734386216093344 0.005311237720833699
127 -0.008712109821067335 -0.01310528462147359 0.005949281579621522
522 -0.01186253500791822 0.016950594884539188 -0.01374835171188399
333 -0.00046795887892534107 -0.002933371312240399 -0.0001672452487097153
190 -0.0038698044232723786 -0.002489790283539703 0.0018285675383595756
477 0.0027991085927914195 0.0048986634276602485 -0.0005724698894296853
176 -0.0037436363733738894 -0.006522081798306928 0.000122709655517281
124 0.0032191263047016694 -0.0011284066446970913 0.003756604633619906
60 -0.0016581420468385994 0.006099668934361542 0.001624378217222804
475 -0.0032354001912269833 -0.0019803760195768534 -0.0009139687215759382
513 0.030944960975839653 -0.013955884162664533 -0.00019320919998675436
515 0.008080915801512224 -0.0041893264194492715 -0.005123206624871635
237 -0.028665364968050732 0.0011642978436083922 -0.010940236323125766
186 -2.9593404547733443e-05 0.00335404440799338 -0.006093998067634556
165 -0.002846785490057941 -0.001289833955095247 0.007140714456332768
272 -0.013212894993841711 -0.010290422411894382 0.012771777363366163
347 0.0019308243846898158 0.001417800819476901 -0.00024518060159403013
358 -0.007251729799886002 -0.005697193341808323 0.002425101729125741
311 0.0024514400210042574 0.0012790902648575858 -0.0034149171385244067
170 0.02125265910046692 -0.029571027455702725 -0.0009095669137090132
61 -0.03311764440069933 4.32221725346881e-05 0.011986537718061038
350 -0.00010881055041775874 5.191314187563054e-05 -0.0012758125188259749
192 -0.015866859744615984 0.014130474164543437 0.024260127471932524
524 0.0009812811518650731 0.004279459539598605 0.0029035551230309252
349 -0.01002568584237497 -0.002584253592261452 -0.004280862877232648
340 -0.0011408516789597112 -0.00015157980706989566 0.015617814342987193
201 0.005237483203491828 0.002788389325470505 -0.0034970952623591847
132 0.01890623508493974 -0.014173149566458838 -0.013467468040148249
525 -0.005886382274642557 0.0038874746939982704 0.001584139412537554
313 0.0015603039150283607 0.0017360290670286693 0.0027093481643678296
55 0.0010704191433302593 0.009014631032824856 0.00531708854398435
43 -0.0008726008936014209 0.0008702368005096533 -0.0053592381801469075
160 -0.0071226500336001065 -0.011989346509621685 0.005936697786102977
172 -0.007154914491346322 -0.013319055459302195 -0.021960505898490433
404 -0.003176495115703001 0.004120847887007085 -0.0027312996308129917
467 -0.0026119805649590724 -0.004820612470779306 -0.003175415025508335
330 -0.012770409480983297 0.003212204588591767 -0.00443223758686992
159 0.002266570284694409 0.021992870720580628 0.006730810908929334
162 0.0023508760685572914 -0.001849491408246488 -0.01093944911184973
343 0.008750770876489728 -0.0014978412157011464 0.00533071083123987
353 -0.0012462914016801562 -0.0035927217804880463 0.003931349543189827
260 0.012335987763889802 -0.011310606574693512 0.007205877633794127
314 -0.0014871904674630505 0.006573974522724148 0.008966889646263847
175 -0.04162471052101256 0.00609897729302656 -0.009929773547789069
77 -9.462005237041719e-05 0.004323764021826152 -0.001082390107467097
164 0.003244339384176955 0.014916432750194667 0.01357319490476196
168 -0.0017024326487342352 -0.0005268273646780935 0.0027717003953900508
479 -0.0018399792587571644 -0.0019853301593786327 0.0004996944660503444
242 0.019070300250818368 -0.0039007967978902554 -0.004079203559375469
517 -0.002375748163964466 -0.011772256964711719 0.02939995606718835
58 -0.0061309283213960885 -0.0008281114657939015 0.0023862339034618645
59 -0.00647091496552367 0.0052353486351485665 0.0011683537710861164
443 -0.0019976890500893445 0.015417067502130939 0.03198106431158494
136 0.0034590403226346747 -0.002129726410415289 0.0015488697623649696
187 0.004579779555003829 0.0058673286484339305 -0.0019079691027391204
473 -0.007045146250936848 0.0018861457510906893 -0.0024598060477648695
339 -0.028143489323890394 -0.0072860606508884825 0.0011684031531663467
161 0.012665632173792754 0.0035647438167447955 0.020007632202196014
460 -0.014958697264432717 -0.03786875203456122 -0.006506193232330467
308 -0.0027487356151873156 0.0009185547097630234 0.011958092215204748
482 -0.0010477431266691284 -0.0019287849823319545 -0.008514263419294307
563 -0.02088173138088817 -0.011560576341073093 0.0118534766766627
53 0.014584475908626897 -0.005603291451232641 -0.010620520761260854
214 -0.005568205635589074 0.0041481442603985355 -0.019353585299743865
457 -0.002010487043128912 -0.014243883437523763 -0.018469360150719885
577 0.0002593694303900029 -0.0013103517892187433 0.0005050024474194761
290 0.01116725624943608 -0.007130121821689653 -0.0013943232720755687
579 -0.025434983315783307 -0.020271340225518675 0.014991780919396782
578 -0.004996608862006137 -0.0021719317663574963 0.0032794214218082895
226 -0.012259639921864055 -0.01003882723530598 -0.001575077075494918
493 0.012522638365865688 0.005742647331297818 0.019466096303971572
492 0.00427897740151615 -0.006167946461541708 -0.0035186165423424327
236 0.025450047295999537 -0.002526601159040285 0.004952451008736902
235 0.00293817474629797 0.005322975514547287 0.003399264543885006
580 -0.005623049716560028 -0.004545346020678607 0.0024629189726466352
239 0.004568721791523005 0.00649660753500474 0.0007596284015773378
208 -0.0023621734638418056 0.0035848188134247664 -0.004093165785784804
487 -0.004927618582442902 0.0048995470206629884 -0.002036693858516655
419 0.00661561876406527 -0.007625952617494197 0.018235640075508465
418 0.00012245289219730144 2.1445442943884823e-05 0.007370815896440898
414 0.0065091866499862325 0.002435129271978369 0.0009633503763739839
417 -0.0013606065710104532 -0.012483538298092359 0.0022581930347735342
416 0.0017612240173702815 -0.03418286558665759 0.008970597911888341
415 0.0043272682755344715 0.00037007315972966987 0.010134678821868297
413 -0.004721108153173955 0.000519233227951776 4.3185887791783835e-05
455 0.002417996093083324 0.005335096928893983 0.006859732189941011
412 0.0013065900067676067 -0.00222177574317137 -0.0004914778090071268
581 -0.0031202484324730413 -0.0023309694734270597 -0.002436751295373212
549 0.009261050445311588 -0.007759154326023221 -0.010369939108813798
234 -0.005260125619204717 0.0017334851244627052 -0.008389343137058755
238 0.002295144685148321 -6.0881838836155704e-05 -0.006716051496460616
454 0.018425937040885444 -0.004593472464977107 0.011580154321465619
411 0.006373904943332545 -0.002385049964657884 -0.012823985929313393
456 -0.003049079485546249 -0.00029524569427710285 -0.005550510441823813
206 -0.028869582955373823 0.012916352066562518 0.006776388256842015
118 0.00501156317716057 0.0010660868512329354 0.0003686759013810053
352 0.006646017803841645 -0.0020082096955179353 -0.007023906951938265
233 0.001763841390068165 0.0025603081778299884 -0.010025793486886416
232 0.002761296634833397 -0.010885614818032898 -0.0031319770797873774
490 0.001347864580050769 -0.006097655419486564 -0.004881286064205808
485 0.0072891305507256175 -0.019200408716513306 -0.00039461455638416996
494 0.006410066133717493 0.006167514091432109 0.023591899979661744
229 0.0009942436760948868 -0.002214762178440803 8.546003695273186e-05
230 0.028954057999175976 0.016515644648754775 0.003671727272073303
228 -0.00610541226297668 -0.008344499546523618 -0.0260178071008348
211 -0.0002773407832748422 0.002973801934514164 0.003320668848817657
241 -3.886848673498726e-05 0.003970436962592481 -0.005296960865765094
209 -0.0042799211631085595 -0.0045152648226815875 0.012299426124817084
491 0.0073838123608553335 -0.01990011138943215 0.0048446105868777505
348 0.00018231098044215786 -0.005070216872805575 -0.00041021760745779397
486 0.0006759567809702548 0.007532526392120694 -0.0036767542102029236
231 0.00815162845813752 -0.00148472044043093 -0.0025398221075732196
484 0.004812918379677731 0.004503562780287401 -0.0025592454121841426
284 0.0331857358484839 0.0134080965790218 0.011812633244633637
342 0.0033351683152681904 -0.0002455281791143088 -0.0003594053428174019
444 0.01606374218048074 -0.011796312861855842 0.01785627911016362
445 0.002119812041261629 0.0014984664999673286 0.00671685907845523
550 -0.013157750993793934 -0.004546691019714199 0.022889825944068482
207 -0.009923130962904576 -0.0012402363774601786 0.013303161556810088
210 -0.004734644099463058 0.0030250203219636096 0.006490448481010114
556 -0.0002786187259791227 -0.003707498316797306 -0.000996793399384134
575 -0.0006572012094981878 -0.0006431063508431844 -0.009022412586431838
397 0.00022558300887220173 0.0017376271340538497 0.003387951819287007
191 -0.016444011612766936 -0.011568495743101483 0.044636265006129223
391 0.0005131181784897952 0.005466377767101447 -0.003097940464224244
309 0.008769351633212711 0.016940816285490018 0.01423182588855254
551 0.020851083356167484 0.016539691038664858 0.011206602655345137
266 0.002232692173646409 0.021119645405208606 -0.012557280730632132
81 -0.00017458954614421384 0.02366928313103247 -0.00757351705198541
54 0.049426129179247574 -0.007256102473268109 -0.026380001334618274
449 0.007683532783398664 0.008773364817330214 -0.00039800442188440293
79 -0.0019874108155321425 0.010975641115390086 -0.00494240019944296
409 0.008665659695937102 -0.009327044446537595 -0.03113519557301539
433 0.021300123691563092 0.0002671321230231645 0.004938827032895877
496 -0.005491524527976254 0.00629132970870669 -0.0034455603123774757
514 0.01740209901200458 0.013721209452509708 -0.005181939012779465
178 0.003346804099676795 0.020416257721153772 0.012384107552284562
518 -0.01027428666668956 -0.0029684260466517113 -0.017254531165085
478 0.0035111214888213192 -0.00300422432722327 -0.002057418838600942
480 0.007365048973586705 -0.00022507295346225974 -0.00394363888566588
147 -0.033074219223551686 -0.0033645704474445583 -0.002598152123310824
256 -0.006973882813663483 -0.006364087628139283 -0.019420556262438583
39 0.0036440281550093293 -0.0004533828193442134 0.007398332996435492
318 -0.023760144450935966 0.01278655795926337 -0.0032933254238040124
243 -0.0028349342328417458 0.006603748587728518 0.006807286480913666
321 -3.936510708868504e-05 -0.002721324792555457 0.0001302396619970737
476 -0.012490881210079647 -0.008496854646114367 -0.009080559706525607
84 0.003983669195063047 0.001522371060187886 -0.0012991429804366293
182 -0.0020337620501374005 -0.000662676844462967 -0.0010980053628788717
315 -0.02948508992226041 0.005742527020043783 0.002223950568398192
324 -0.01764026377535248 -0.0031932627032199698 0.003847118570981146
381 -0.029390744048389022 0.004810583700021763 -0.0026486441361795606
541 0.023508555571778358 -0.002240971458144961 -0.012568565358994534
181 0.004702082204541039 2.738113091386779e-05 0.005675410911873052
51 0.01399706618554449 -0.008705897966320488 -0.03456302913293174
78 -0.006950332874756371 0.0012252846274474957 -0.010018850363467006
80 -0.01842346161697228 0.009244286682494699 -0.014974365788740824
76 0.005646117081761458 -0.003256001097402311 0.03620271635919093
198 -0.012867076832727888 -0.0042090090648597344 0.014051707281608457
583 0.005265262420946478 -0.00662489260819773 -0.010399053525463813
548 0.015423908452286554 -0.002091556503195293 0.02046877545252152
316 0.013453871911957916 -0.01632595742847684 0.009354806658360621
319 -0.0031815591891622918 -0.0009467878011791217 0.007281364013492183
406 0.003041790899471796 -0.002909236517536563 -0.002515006861365073
405 -0.004753707329848804 -0.003938416162437034 0.000577517772897103
544 0.004561034149763732 -0.007440013006012231 -0.0006331657239224844
543 -0.007135980393822864 -0.009321456743574227 -0.0010285592476140112
402 -0.0041262092125456526 0.001749622861741921 0.002664915589945343
510 -1.8614108812862612e-05 -0.00017150060101475722 -0.0028076351247642733
86 0.003148564702746228 -0.00433748388785021 -0.001283641925447599
197 0.0022470957057225626 -0.000947876510656087 0.003330118507627109
199 -0.006138956136653414 -0.003505483751089364 -0.0007309432581767625
82 0.004847366970181912 -0.013600299538199445 0.01535335958322133
511 0.02800117522644662 -0.0025219855744825076 0.0015260955616182566
88 0.00727260402944601 -0.011608269153644584 0.008633521242079637
196 -0.0022371704232028973 0.00023961382577781834 0.00022564795950851996
194 -0.008912260324752666 0.014314562818561194 0.006636574547061101
408 0.01839874080880701 0.006470020570597313 0.00732196682554139
400 -0.00251693374233604 0.007744379125362717 0.0024900911118874818
509 -0.009725717402003566 -0.0291379118957218 -0.022036344432310936
195 -0.008064609325374056 -0.007588089391263265 -0.003976637519095252
163 -0.018307873511515006 0.004215744810257661 0.0018987064199674911
246 0.051177209513075514 -0.022040186944690655 0.006150844293930841
383 -0.0023048080199109555 -0.0014017763848749212 -0.005741773854279493
389 -0.0064589399296410095 -0.0018735769894468355 -0.044001554017003355
465 -0.01655200295986512 -0.02986756954870611 -0.0009572339432764362
323 0.0054998534317553605 0.0015310867668944651 -0.00264109378700897
538 0.0015454178686368776 -0.010121213366603625 -0.010590258247413203
410 0.013968070923878462 -0.005381250401462178 -0.007165799634024085
247 0.001286767948857751 0.012090664879881047 0.00445569487220836
558 0.0024978857382180653 -0.001902958306141472 -0.0023932061500966297
559 -0.010708954353575849 -0.006758212732570918 0.0025180978520450716
398 0.0009661447140807836 -0.002031067006366896 -0.02165070354983096
261 0.0058010566642769535 -0.021450064283571196 0.002053562950869131
200 0.005675182702336914 -0.010621739875425567 0.010549354768987794
481 0.007247159458407442 0.009049478124520676 -0.028076023777574306
512 -0.005648643555870562 -0.017402588924215145 0.00044680333703042517
220 0.016758485375752256 0.014641147159868452 0.00019035490028058654
312 0.0061617510951750476 0.005004502528094799 -0.0024749149395277806
20 -0.006729584864534113 -0.018531520059256467 -0.0211142046220217
34 0.01635118718470661 -0.00748504132393456 -0.003746303912636171
537 0.030652064981301314 0.0034827997315245575 0.00376267239082197
561 -0.00744178251099361 -0.00290294481774816 -0.002312648126343598
215 -0.0009933170189169252 -0.0038592014923645554 -0.017670155446713385
262 -0.003628239055275908 0.005764498596061143 -0.0028702245399464463
497 -0.003348482727114423 -0.003699568621731647 -0.006777532535005117
429 -0.008793386347439817 -0.009695920126448107 0.010629950006329556
495 0.007700965802288782 -0.01778634633618976 -0.024785832593214572
500 -0.0010619531100970732 -0.0004054438263548373 0.00019370840515561965
435 -0.006641680435072415 -0.0041155726395347555 -0.0015674347532469966
296 -0.007647338315768682 -0.023245674201680833 0.0033545067693605407
305 -0.009261888263450575 -0.004068746415320237 -0.0004432279683592228
488 -0.003437860109967127 0.006257028687779692 -0.019618753848314265
431 -0.010806485667661398 -0.015293596033348685 0.006457878754871531
441 -0.0002756286431344493 0.015342409885988572 0.006578272984698287
306 -0.002005292072437147 -0.0009543549891721266 0.006060531321997283
265 -0.003792493486526326 -0.0215595155902998 -0.007500653823662856
440 -0.013884702839746185 0.004702753257729967 -0.020681488697622822
442 0.010180746781734541 -0.002381230582621711 0.002164825104016315
307 -0.010462068401445554 -0.002251629116818924 0.024433283424581443
310 -0.00015188607304754845 -0.0018128877164967573 -0.005141131279446039
560 -0.003702993254895511 -0.001813276386661933 0.0020185439423203214
302 -0.010520081778057308 0.0042758018446731345 -0.006310636791346869
438 0.0001523997164217208 -0.0010948036751364928 0.0005923249615522124
554 0.004104601628662077 0.007257201086209001 0.004749614791274519
298 0.0029782198281641677 0.002869497976454615 0.004023579482727926
377 -0.0013586970147643049 -0.0017167732803961204 0.00480263303949035
434 0.0061680283962214375 0.0029030052841645705 -0.00014706848496436474
393 0.0036785271875728258 0.005112685687800833 -0.009321891998742197
499 -6.031894320889198e-05 0.003168161571249284 -0.0015098147406245755
259 0.005454301746576019 0.008204484574411187 0.02069718221592657
395 -0.031977438072378905 -0.012376028312684199 -0.0015944596077280349
553 0.00425328837566431 -0.007354043420152881 -0.001260794976625637
498 -0.006243072277029512 0.0011087918586902136 -0.002046605764155731
263 0.0033843979325869273 0.0011138287094363403 0.0030436580508160487
299 0.005620162717611644 -0.0006873861367104249 -0.002137482175497801
90 0.01448362389217157 -0.011423496385833773 -0.009915057351535484
396 0.02071987655052219 0.02613879674240475 -0.005900071989411289
21 -0.0004533761811135872 0.016088833583475216 0.01859368415779766
110 -0.009984684167782582 -0.005673814717572072 -0.007937069908697384
293 0.023483771263142078 0.005019519463578289 -0.013365719585264533
394 0.010776499433932054 -0.005020968394976591 -0.006689308022407866
463 0.04512599782992667 -0.009928298364149353 -0.031129905739532063
27 -0.01895822158870096 -0.018084250524065985 0.010013783323757157
427 0.0038650836283509564 0.005767844893717465 0.030502055980545815
458 -0.013224997163638848 0.003461203217118971 -0.014423916243711532
303 -0.008947827644806068 0.0037559530161072473 0.007901454454040788
439 -0.0027343118120288397 0.005631215024537424 -0.0031448021596729384
574 -0.02432242505676503 -0.007038150786336696 -0.0009255271668421592
557 0.003190303413570485 0.006651275144473344 -0.002863214838406283
503 0.010042323962780134 -0.0003189211495274125 0.002437871794481876
264 0.0011822335783091046 -0.00820740915095757 0.009012326466687683
304 0.008746107899192095 0.0047306728547562415 0.0004005840266636613
300 -0.001645890249521498 -0.02311362970180193 -9.353332444162531e-05
555 -0.003121983989759785 -0.0008717646177842163 0.007186225432070467
502 -0.0036238782945108073 -0.0013028392329107175 0.004213526910009446
436 0.00623283762511652 0.0042069846051710795 0.0006584347322867173
536 -0.0020524643585028255 -0.02223660368870165 -0.01750790235513792
437 -0.004545331932698857 -0.011276242892716686 0.024458735038517785
301 -0.001935232479833702 0.0041616961296724675 0.008047648379791682
295 0.0031756591110341575 0.007499145608127288 0.0007410197423201465
189 0.005839443748542977 0.02379191804771788 -0.006702347860061923
25 0.002818389346305882 -0.006479545260783344 -0.0021017069926713683
552 -0.009121127247878816 0.002330545470227019 -0.010317769104628248
167 0.004878418938042615 -0.030429876487866533 0.013568152765286171

Bonds

1 13 283 281
2 15 283 285
3 15 278 116
4 13 277 280
5 14 277 275
6 13 280 283
7 13 276 277
8 13 276 278
9 13 47 174
10 14 47 45
11 4 274 276
12 5 274 117
13 5 274 273
14 17 114 116
15 13 49 47
16 14 49 50
17 13 177 49
18 13 177 124
19 13 15 13
20 13 281 278
21 17 227 116
22 4 361 356
23 5 361 363
24 5 361 360
25 5 361 362
26 13 17 15
27 14 17 18
28 13 356 351
29 17 359 357
30 15 351 173
31 7 269 466
32 3 269 472
33 5 269 271
34 5 269 270
35 16 174 169
36 13 174 176
37 12 472 466
38 11 472 474
39 1 113 274
40 5 113 115
41 5 113 158
42 5 113 157
43 4 56 15
44 4 56 177
45 5 56 132
46 5 56 57
47 15 354 357
48 13 354 356
49 5 545 576
50 5 545 572
51 5 545 546
52 6 41 285
53 2 41 43
54 5 41 40
55 5 41 42
56 4 282 280
57 1 282 287
58 5 282 279
59 5 282 483
60 8 571 573
61 3 571 568
62 5 571 566
63 5 571 570
64 4 447 281
65 5 447 446
66 5 447 450
67 5 447 448
68 17 171 173
69 17 286 285
70 14 180 179
71 7 528 527
72 3 528 531
73 5 528 507
74 5 528 529
75 13 185 136
76 13 185 180
77 3 223 379
78 7 223 193
79 5 223 222
80 5 223 224
81 13 13 11
82 14 13 53
83 5 287 289
84 5 287 288
85 5 287 489
86 12 379 193
87 11 379 378
88 12 531 527
89 11 531 533
90 13 390 386
91 14 390 391
92 3 532 531
93 8 532 534
94 5 532 508
95 5 532 530
96 14 11 10
97 7 294 291
98 3 294 123
99 5 294 297
100 5 294 249
101 12 123 291
102 11 123 292
103 8 430 380
104 3 430 379
105 5 430 432
106 5 430 428
107 13 128 180
108 14 128 126
109 3 250 251
110 7 250 125
111 5 250 103
112 5 250 102
113 16 384 380
114 13 384 388
115 13 388 392
116 14 388 387
117 14 392 335
118 12 251 125
119 11 251 248
120 8 131 129
121 3 131 251
122 5 131 134
123 5 131 133
124 16 130 129
125 13 130 128
126 13 334 390
127 13 334 392
128 13 135 130
129 14 135 137
130 16 12 9
131 13 12 14
132 13 12 11
133 13 386 384
134 14 386 382
135 4 337 342
136 4 337 334
137 5 337 338
138 5 337 336
139 12 368 370
140 11 368 366
141 3 372 368
142 7 372 370
143 5 372 375
144 5 372 373
145 3 121 123
146 8 121 241
147 5 121 119
148 5 121 122
149 3 105 108
150 7 105 107
151 5 105 104
152 5 105 106
153 10 4 1
154 9 4 5
155 13 217 424
156 14 217 220
157 13 326 323
158 13 326 325
159 13 14 17
160 14 14 16
161 13 320 322
162 15 320 317
163 12 568 564
164 11 568 565
165 8 252 461
166 2 252 247
167 5 252 459
168 5 252 253
169 17 464 317
170 8 142 143
171 2 142 140
172 5 142 144
173 5 142 141
174 18 73 139
175 14 421 420
176 10 140 139
177 9 140 138
178 17 540 542
179 17 547 542
180 4 152 322
181 5 152 154
182 5 152 151
183 5 152 150
184 17 156 327
185 15 65 542
186 13 65 67
187 13 64 65
188 13 67 70
189 4 69 67
190 5 69 46
191 5 69 44
192 5 69 48
193 15 70 72
194 4 63 64
195 1 63 545
196 5 63 98
197 5 63 539
198 13 66 64
199 14 66 100
200 13 68 66
201 13 68 70
202 17 74 72
203 6 257 72
204 2 257 140
205 5 257 254
206 5 257 258
207 4 71 68
208 5 71 75
209 5 71 101
210 1 204 71
211 5 204 203
212 5 204 202
213 5 204 205
214 17 329 327
215 13 322 325
216 15 325 327
217 3 569 568
218 7 569 564
219 5 569 451
220 5 569 567
221 16 462 461
222 13 462 255
223 13 462 421
224 13 423 421
225 14 423 422
226 4 328 326
227 5 328 385
228 5 328 332
229 13 255 217
230 14 255 256
231 14 32 535
232 12 108 107
233 11 108 19
234 13 29 24
235 13 29 25
236 13 24 148
237 14 24 28
238 4 89 111
239 5 89 225
240 5 89 62
241 17 96 95
242 13 267 109
243 18 97 1
244 16 146 143
245 13 146 149
246 1 85 89
247 5 85 110
248 5 85 83
249 5 85 87
250 13 23 30
251 14 23 21
252 17 153 155
253 14 216 215
254 8 504 501
255 3 504 108
256 5 504 506
257 5 504 582
258 13 268 267
259 14 268 266
260 16 371 369
261 13 371 188
262 13 22 23
263 14 22 20
264 6 3 95
265 2 3 4
266 5 3 2
267 5 3 99
268 13 425 374
269 14 425 426
270 13 149 25
271 14 149 147
272 13 148 146
273 14 148 145
274 15 109 155
275 13 109 112
276 13 112 91
277 16 26 534
278 13 26 22
279 13 26 32
280 13 111 268
281 13 111 91
282 8 367 369
283 3 367 368
284 5 367 364
285 5 367 365
286 15 91 95
287 13 30 33
288 13 218 425
289 13 218 216
290 13 188 216
291 14 188 184
292 17 37 155
293 4 31 30
294 4 31 29
295 5 31 35
296 5 31 34
297 13 33 32
298 14 33 36
299 4 219 424
300 4 219 218
301 5 219 221
302 5 219 427
303 13 424 423
304 8 8 9
305 2 8 4
306 5 8 7
307 5 8 6
308 4 92 112
309 5 92 93
310 5 92 94
311 5 92 38
312 13 374 371
313 14 374 376
314 13 453 575
315 14 453 452
316 6 244 173
317 2 244 247
318 5 244 245
319 5 244 242
320 17 355 357
321 13 470 585
322 14 470 468
323 13 585 516
324 14 585 584
325 13 516 333
326 16 469 467
327 13 469 470
328 13 469 331
329 14 331 330
330 13 344 349
331 14 344 341
332 4 345 349
333 1 345 403
334 5 345 346
335 5 345 340
336 5 403 401
337 5 403 407
338 5 403 399
339 12 521 519
340 11 521 525
341 7 523 519
342 3 523 521
343 5 523 522
344 5 523 526
345 3 520 521
346 8 520 358
347 5 520 518
348 5 520 524
349 13 333 331
350 14 333 272
351 13 190 186
352 14 190 192
353 13 477 479
354 14 477 562
355 13 176 124
356 14 176 120
357 14 124 127
358 13 60 190
359 14 60 61
360 13 475 477
361 13 475 478
362 4 515 516
363 4 515 475
364 5 515 513
365 5 515 514
366 13 186 182
367 4 165 347
368 5 165 164
369 5 165 166
370 13 347 344
371 13 347 351
372 7 311 313
373 3 311 312
374 5 311 308
375 5 311 314
376 13 350 343
377 14 350 517
378 13 349 354
379 13 201 404
380 14 201 237
381 3 55 79
382 8 55 59
383 5 55 54
384 5 55 52
385 10 43 39
386 9 43 170
387 13 404 400
388 14 404 409
389 1 162 165
390 5 162 160
391 5 162 161
392 5 162 159
393 13 343 342
394 14 343 339
395 16 353 358
396 13 353 350
397 13 353 352
398 18 175 243
399 8 168 169
400 2 168 43
401 5 168 172
402 5 168 167
403 13 479 482
404 14 479 563
405 16 58 59
406 13 58 60
407 13 58 181
408 13 136 135
409 14 136 191
410 4 187 186
411 4 187 185
412 5 187 189
413 5 187 183
414 3 473 472
415 8 473 467
416 5 473 471
417 5 473 443
418 16 482 484
419 13 482 480
420 13 577 578
421 14 577 574
422 14 578 579
423 3 492 490
424 7 492 486
425 5 492 493
426 5 492 494
427 13 235 239
428 14 235 236
429 13 580 456
430 13 580 578
431 14 239 240
432 3 208 211
433 8 208 413
434 5 208 206
435 5 208 209
436 8 487 484
437 3 487 490
438 5 487 485
439 5 487 491
440 13 418 417
441 14 418 419
442 16 414 413
443 13 414 415
444 13 414 412
445 13 417 455
446 13 415 418
447 14 415 416
448 13 455 412
449 14 455 454
450 14 412 411
451 4 581 417
452 4 581 580
453 5 581 460
454 5 581 549
455 13 234 232
456 14 234 118
457 16 238 241
458 13 238 234
459 13 238 239
460 13 456 453
461 14 456 457
462 14 352 290
463 13 233 235
464 13 232 233
465 14 232 230
466 12 490 486
467 11 490 488
468 4 229 233
469 4 229 231
470 5 229 228
471 5 229 226
472 12 211 213
473 11 211 214
474 13 348 352
475 14 348 284
476 13 231 201
477 13 231 445
478 13 342 348
479 14 445 444
480 7 210 213
481 3 210 211
482 5 210 207
483 5 210 212
484 16 556 558
485 13 556 560
486 16 575 573
487 13 575 577
488 13 397 445
489 14 397 396
490 18 449 39
491 12 79 77
492 11 79 81
493 14 478 476
494 13 480 478
495 14 480 481
496 18 318 559
497 13 321 320
498 6 84 317
499 2 84 86
500 5 84 82
501 5 84 552
502 13 182 181
503 14 182 178
504 14 181 51
505 7 78 77
506 3 78 79
507 5 78 80
508 5 78 76
509 4 319 321
510 1 319 510
511 5 319 316
512 5 319 465
513 8 406 402
514 3 406 405
515 5 406 410
516 5 406 408
517 12 405 543
518 11 405 538
519 3 544 405
520 7 544 543
521 5 544 548
522 5 544 541
523 5 510 583
524 5 510 509
525 5 510 511
526 10 86 559
527 9 86 88
528 12 197 199
529 11 197 200
530 7 196 199
531 3 196 197
532 5 196 198
533 5 196 194
534 16 400 402
535 13 400 397
536 3 195 197
537 8 195 394
538 5 195 163
539 5 195 398
540 1 383 328
541 5 383 512
542 5 383 381
543 5 383 389
544 13 323 321
545 14 323 324
546 10 247 243
547 9 247 246
548 12 312 313
549 11 312 315
550 8 561 558
551 2 561 86
552 5 561 90
553 5 561 537
554 4 262 267
555 1 262 263
556 5 262 261
557 5 262 260
558 14 497 495
559 16 500 501
560 13 500 498
561 13 435 436
562 14 435 433
563 14 305 307
564 16 442 394
565 13 442 438
566 13 442 393
567 3 310 312
568 8 310 306
569 5 310 309
570 5 310 377
571 13 560 557
572 14 560 536
573 13 302 305
574 14 302 303
575 13 438 435
576 14 438 437
577 13 554 556
578 14 554 551
579 13 298 299
580 14 298 296
581 4 434 436
582 4 434 555
583 5 434 431
584 5 434 429
585 14 393 395
586 13 499 502
587 13 499 497
588 13 553 554
589 14 553 550
590 13 498 497
591 14 498 496
592 5 263 264
593 5 263 259
594 5 263 265
595 13 299 302
596 13 439 393
597 14 439 441
598 14 557 440
599 13 503 500
600 14 503 505
601 16 304 306
602 13 304 301
603 13 304 305
604 13 555 553
605 13 555 557
606 13 502 503
607 14 502 463
608 13 436 439
609 13 301 298
610 14 301 300
611 4 295 299
612 4 295 499
613 5 295 293
614 5 295 458
615 14 25 27

Angles

1 24 280 283 281
2 26 281 283 285
3 26 280 283 285
4 24 276 278 281
5 26 276 278 116
6 26 281 278 116
7 24 276 277 280
8 25 276 277 275
9 25 280 277 275
10 9 282 280 277
11 24 277 280 283
12 9 282 280 283
13 9 274 276 277
14 9 274 276 278
15 24 277 276 278
16 24 49 47 174
17 25 49 47 45
18 25 174 47 45
19 1 113 274 276
20 2 113 274 117
21 2 113 274 273
22 23 276 274 117
23 29 117 274 273
24 23 276 274 273
25 28 278 116 227
26 28 278 116 114
27 35 227 116 114
28 24 177 49 47
29 25 177 49 50
30 25 47 49 50
31 9 56 177 49
32 9 56 177 124
33 24 49 177 124
34 9 56 15 17
35 24 17 15 13
36 9 56 15 13
37 9 447 281 283
38 24 283 281 278
39 9 447 281 278
40 23 356 361 363
41 23 356 361 360
42 23 356 361 362
43 29 363 361 360
44 29 363 361 362
45 29 360 361 362
46 24 14 17 15
47 25 14 17 18
48 25 15 17 18
49 11 244 173 351
50 28 351 173 171
51 12 244 173 171
52 9 361 356 354
53 24 354 356 351
54 9 361 356 351
55 24 347 351 356
56 26 356 351 173
57 26 347 351 173
58 31 271 269 466
59 19 472 269 271
60 29 271 269 270
61 31 270 269 466
62 19 472 269 270
63 20 472 269 466
64 13 269 466 472
65 14 168 169 174
66 27 47 174 169
67 24 47 174 176
68 27 176 174 169
69 6 269 472 473
70 8 269 472 466
71 7 269 472 474
72 7 473 472 474
73 34 474 472 466
74 8 473 472 466
75 2 274 113 115
76 29 115 113 158
77 29 115 113 157
78 2 274 113 158
79 29 158 113 157
80 2 274 113 157
81 22 15 56 177
82 23 15 56 132
83 23 15 56 57
84 23 177 56 132
85 29 132 56 57
86 23 177 56 57
87 28 354 357 359
88 28 354 357 355
89 35 359 357 355
90 26 349 354 357
91 24 349 354 356
92 26 356 354 357
93 2 63 545 576
94 2 63 545 572
95 2 63 545 546
96 29 576 545 572
97 29 576 545 546
98 29 572 545 546
99 16 43 41 285
100 30 40 41 285
101 30 42 41 285
102 15 43 41 40
103 29 40 41 42
104 15 43 41 42
105 1 287 282 280
106 23 280 282 279
107 23 280 282 483
108 2 287 282 279
109 29 279 282 483
110 2 287 282 483
111 21 568 571 573
112 32 566 571 573
113 32 570 571 573
114 19 568 571 566
115 29 566 571 570
116 19 568 571 570
117 23 281 447 446
118 23 281 447 450
119 23 281 447 448
120 29 446 447 450
121 29 446 447 448
122 29 450 447 448
123 11 41 285 283
124 28 283 285 286
125 12 41 285 286
126 13 223 193 379
127 24 185 180 128
128 25 185 180 179
129 25 128 180 179
130 31 507 528 527
131 19 531 528 507
132 29 507 528 529
133 31 529 528 527
134 19 531 528 529
135 20 531 528 527
136 9 187 185 136
137 9 187 185 180
138 24 136 185 180
139 20 379 223 193
140 19 379 223 222
141 19 379 223 224
142 31 222 223 193
143 29 222 223 224
144 31 224 223 193
145 24 15 13 11
146 25 15 13 53
147 25 11 13 53
148 2 282 287 289
149 2 282 287 288
150 2 282 287 489
151 29 289 287 288
152 29 289 287 489
153 29 288 287 489
154 13 528 527 531
155 6 430 379 223
156 8 430 379 193
157 7 430 379 378
158 7 223 379 378
159 34 378 379 193
160 8 223 379 193
161 6 528 531 532
162 8 528 531 527
163 7 528 531 533
164 7 532 531 533
165 34 533 531 527
166 8 532 531 527
167 24 334 390 386
168 25 334 390 391
169 25 386 390 391
170 21 531 532 534
171 19 531 532 508
172 19 531 532 530
173 32 508 532 534
174 29 508 532 530
175 32 530 532 534
176 24 12 11 13
177 25 12 11 10
178 25 13 11 10
179 31 297 294 291
180 19 123 294 297
181 29 297 294 249
182 31 249 294 291
183 19 123 294 249
184 20 123 294 291
185 6 294 123 121
186 8 294 123 291
187 7 294 123 292
188 7 121 123 292
189 34 292 123 291
190 8 121 123 291
191 21 379 430 380
192 32 432 430 380
193 32 428 430 380
194 19 379 430 432
195 29 432 430 428
196 19 379 430 428
197 24 130 128 180
198 25 130 128 126
199 25 180 128 126
200 20 251 250 125
201 19 251 250 103
202 19 251 250 102
203 31 103 250 125
204 29 103 250 102
205 31 102 250 125
206 14 430 380 384
207 27 386 384 380
208 24 386 384 388
209 27 388 384 380
210 24 384 388 392
211 25 384 388 387
212 25 392 388 387
213 24 334 392 388
214 25 334 392 335
215 25 388 392 335
216 14 131 129 130
217 6 131 251 250
218 8 131 251 125
219 7 131 251 248
220 7 250 251 248
221 34 248 251 125
222 8 250 251 125
223 13 250 125 251
224 21 251 131 129
225 32 134 131 129
226 32 133 131 129
227 19 251 131 134
228 29 134 131 133
229 19 251 131 133
230 13 294 291 123
231 27 135 130 129
232 24 135 130 128
233 27 128 130 129
234 9 337 334 390
235 9 337 334 392
236 24 390 334 392
237 24 136 135 130
238 25 136 135 137
239 25 130 135 137
240 27 14 12 9
241 27 11 12 9
242 24 14 12 11
243 24 390 386 384
244 25 390 386 382
245 25 384 386 382
246 22 342 337 334
247 23 342 337 338
248 23 342 337 336
249 23 334 337 338
250 29 338 337 336
251 23 334 337 336
252 6 367 368 372
253 8 367 368 370
254 7 367 368 366
255 7 372 368 366
256 34 366 368 370
257 8 372 368 370
258 20 368 372 370
259 19 368 372 375
260 19 368 372 373
261 31 375 372 370
262 29 375 372 373
263 31 373 372 370
264 21 123 121 241
265 19 123 121 119
266 19 123 121 122
267 32 119 121 241
268 29 119 121 122
269 32 122 121 241
270 20 108 105 107
271 19 108 105 104
272 19 108 105 106
273 31 104 105 107
274 29 104 105 106
275 31 106 105 107
276 13 372 370 368
277 14 532 534 26
278 14 504 501 500
279 14 571 573 575
280 3 3 4 8
281 5 3 4 1
282 4 3 4 5
283 4 8 4 5
284 33 5 4 1
285 5 8 4 1
286 14 252 461 462
287 24 255 217 424
288 25 255 217 220
289 25 424 217 220
290 9 328 326 323
291 9 328 326 325
292 24 323 326 325
293 24 12 14 17
294 25 12 14 16
295 25 17 14 16
296 24 321 320 322
297 26 322 320 317
298 26 321 320 317
299 6 571 568 569
300 8 571 568 564
301 7 571 568 565
302 7 569 568 565
303 34 565 568 564
304 8 569 568 564
305 17 247 252 461
306 15 247 252 459
307 15 247 252 253
308 32 459 252 461
309 29 459 252 253
310 32 253 252 461
311 13 569 564 568
312 17 140 142 143
313 15 140 142 144
314 15 140 142 141
315 32 144 142 143
316 29 144 142 141
317 32 141 142 143
318 24 462 421 423
319 25 462 421 420
320 25 423 421 420
321 3 257 140 142
322 5 257 140 139
323 4 257 140 138
324 4 142 140 138
325 33 138 140 139
326 5 142 140 139
327 23 322 152 154
328 23 322 152 151
329 23 322 152 150
330 29 154 152 151
331 29 154 152 150
332 29 151 152 150
333 26 64 65 542
334 24 64 65 67
335 26 67 65 542
336 28 65 542 547
337 28 65 542 540
338 35 547 542 540
339 9 63 64 66
340 24 66 64 65
341 9 63 64 65
342 9 69 67 65
343 24 65 67 70
344 9 69 67 70
345 23 67 69 46
346 23 67 69 44
347 23 67 69 48
348 29 46 69 44
349 29 46 69 48
350 29 44 69 48
351 24 68 70 67
352 26 68 70 72
353 26 67 70 72
354 1 545 63 64
355 23 64 63 98
356 23 64 63 539
357 2 545 63 98
358 29 98 63 539
359 2 545 63 539
360 24 68 66 64
361 25 68 66 100
362 25 64 66 100
363 11 257 72 70
364 28 70 72 74
365 12 257 72 74
366 9 71 68 66
367 9 71 68 70
368 24 66 68 70
369 16 140 257 72
370 30 254 257 72
371 30 258 257 72
372 15 140 257 254
373 29 254 257 258
374 15 140 257 258
375 1 204 71 68
376 2 204 71 75
377 2 204 71 101
378 23 68 71 75
379 29 75 71 101
380 23 68 71 101
381 2 71 204 203
382 29 203 204 202
383 29 203 204 205
384 2 71 204 202
385 29 202 204 205
386 2 71 204 205
387 28 325 327 156
388 28 325 327 329
389 35 156 327 329
390 9 152 322 320
391 24 320 322 325
392 9 152 322 325
393 24 326 325 322
394 26 326 325 327
395 26 322 325 327
396 18 140 139 73
397 20 568 569 564
398 19 568 569 451
399 19 568 569 567
400 31 451 569 564
401 29 451 569 567
402 31 567 569 564
403 14 142 143 146
404 11 84 317 320
405 28 320 317 464
406 12 84 317 464
407 27 255 462 461
408 27 421 462 461
409 24 255 462 421
410 24 424 423 421
411 25 424 423 422
412 25 421 423 422
413 1 383 328 326
414 2 383 328 385
415 2 383 328 332
416 23 326 328 385
417 29 385 328 332
418 23 326 328 332
419 24 462 255 217
420 25 462 255 256
421 25 217 255 256
422 24 26 32 33
423 25 26 32 535
424 25 33 32 535
425 6 504 108 105
426 8 504 108 107
427 7 504 108 19
428 7 105 108 19
429 34 19 108 107
430 8 105 108 107
431 9 31 29 24
432 9 31 29 25
433 24 24 29 25
434 13 210 213 211
435 24 29 24 148
436 25 29 24 28
437 25 148 24 28
438 1 85 89 111
439 2 85 89 225
440 2 85 89 62
441 23 111 89 225
442 29 225 89 62
443 23 111 89 62
444 9 262 267 268
445 24 268 267 109
446 9 262 267 109
447 27 148 146 143
448 24 148 146 149
449 27 149 146 143
450 14 367 369 371
451 2 89 85 110
452 29 110 85 83
453 29 110 85 87
454 2 89 85 83
455 29 83 85 87
456 2 89 85 87
457 24 22 23 30
458 25 22 23 21
459 25 30 23 21
460 24 218 216 188
461 25 218 216 215
462 25 188 216 215
463 14 8 9 12
464 21 108 504 501
465 32 506 504 501
466 32 582 504 501
467 19 108 504 506
468 29 506 504 582
469 19 108 504 582
470 24 111 268 267
471 25 111 268 266
472 25 267 268 266
473 27 374 371 369
474 24 374 371 188
475 27 188 371 369
476 24 26 22 23
477 25 26 22 20
478 25 23 22 20
479 16 4 3 95
480 30 2 3 95
481 30 99 3 95
482 15 4 3 2
483 29 2 3 99
484 15 4 3 99
485 24 218 425 374
486 25 218 425 426
487 25 374 425 426
488 24 146 149 25
489 25 146 149 147
490 25 25 149 147
491 24 24 148 146
492 25 24 148 145
493 25 146 148 145
494 28 109 155 153
495 28 109 155 37
496 35 153 155 37
497 18 4 1 97
498 26 267 109 155
499 24 267 109 112
500 26 112 109 155
501 9 92 112 109
502 24 109 112 91
503 9 92 112 91
504 27 22 26 534
505 27 32 26 534
506 24 22 26 32
507 9 89 111 268
508 9 89 111 91
509 24 268 111 91
510 13 105 107 108
511 21 368 367 369
512 32 364 367 369
513 32 365 367 369
514 19 368 367 364
515 29 364 367 365
516 19 368 367 365
517 24 111 91 112
518 26 112 91 95
519 26 111 91 95
520 9 31 30 23
521 24 23 30 33
522 9 31 30 33
523 9 219 218 425
524 9 219 218 216
525 24 425 218 216
526 24 371 188 216
527 25 371 188 184
528 25 216 188 184
529 22 30 31 29
530 23 30 31 35
531 23 30 31 34
532 23 29 31 35
533 29 35 31 34
534 23 29 31 34
535 24 30 33 32
536 25 30 33 36
537 25 32 33 36
538 22 424 219 218
539 23 424 219 221
540 23 424 219 427
541 23 218 219 221
542 29 221 219 427
543 23 218 219 427
544 9 219 424 217
545 24 217 424 423
546 9 219 424 423
547 17 4 8 9
548 15 4 8 7
549 15 4 8 6
550 32 7 8 9
551 29 7 8 6
552 32 6 8 9
553 23 112 92 93
554 23 112 92 94
555 23 112 92 38
556 29 93 92 94
557 29 93 92 38
558 29 94 92 38
559 11 3 95 91
560 28 91 95 96
561 12 3 95 96
562 24 425 374 371
563 25 425 374 376
564 25 371 374 376
565 24 456 453 575
566 25 456 453 452
567 25 575 453 452
568 16 247 244 173
569 30 245 244 173
570 30 242 244 173
571 15 247 244 245
572 29 245 244 242
573 15 247 244 242
574 24 469 470 585
575 25 469 470 468
576 25 585 470 468
577 24 470 585 516
578 25 470 585 584
579 25 516 585 584
580 9 515 516 585
581 24 585 516 333
582 9 515 516 333
583 27 470 469 467
584 27 331 469 467
585 24 470 469 331
586 24 469 331 333
587 25 469 331 330
588 25 333 331 330
589 24 347 344 349
590 25 347 344 341
591 25 349 344 341
592 13 523 519 521
593 1 403 345 349
594 23 349 345 346
595 23 349 345 340
596 2 403 345 346
597 29 346 345 340
598 2 403 345 340
599 2 345 403 401
600 2 345 403 407
601 2 345 403 399
602 29 401 403 407
603 29 401 403 399
604 29 407 403 399
605 6 523 521 520
606 8 523 521 519
607 7 523 521 525
608 7 520 521 525
609 34 525 521 519
610 8 520 521 519
611 31 522 523 519
612 19 521 523 522
613 29 522 523 526
614 31 526 523 519
615 19 521 523 526
616 20 521 523 519
617 21 521 520 358
618 19 521 520 518
619 19 521 520 524
620 32 518 520 358
621 29 518 520 524
622 32 524 520 358
623 24 516 333 331
624 25 516 333 272
625 25 331 333 272
626 24 60 190 186
627 25 60 190 192
628 25 186 190 192
629 24 475 477 479
630 25 475 477 562
631 25 479 477 562
632 24 174 176 124
633 25 174 176 120
634 25 124 176 120
635 24 177 124 176
636 25 177 124 127
637 25 176 124 127
638 24 58 60 190
639 25 58 60 61
640 25 190 60 61
641 9 515 475 477
642 9 515 475 478
643 24 477 475 478
644 22 516 515 475
645 23 516 515 513
646 23 516 515 514
647 23 475 515 513
648 29 513 515 514
649 23 475 515 514
650 9 187 186 190
651 24 190 186 182
652 9 187 186 182
653 1 162 165 347
654 2 162 165 164
655 2 162 165 166
656 23 347 165 164
657 29 164 165 166
658 23 347 165 166
659 9 165 347 344
660 9 165 347 351
661 24 344 347 351
662 14 520 358 353
663 31 308 311 313
664 19 312 311 308
665 29 308 311 314
666 31 314 311 313
667 19 312 311 314
668 20 312 311 313
669 24 353 350 343
670 25 353 350 517
671 25 343 350 517
672 9 345 349 344
673 24 344 349 354
674 9 345 349 354
675 24 231 201 404
676 25 231 201 237
677 25 404 201 237
678 13 311 313 312
679 21 79 55 59
680 19 79 55 54
681 19 79 55 52
682 32 54 55 59
683 29 54 55 52
684 32 52 55 59
685 3 41 43 168
686 5 41 43 39
687 4 41 43 170
688 4 168 43 170
689 33 170 43 39
690 5 168 43 39
691 24 201 404 400
692 25 201 404 409
693 25 400 404 409
694 14 473 467 469
695 2 165 162 160
696 29 160 162 161
697 29 160 162 159
698 2 165 162 161
699 29 161 162 159
700 2 165 162 159
701 24 350 343 342
702 25 350 343 339
703 25 342 343 339
704 27 350 353 358
705 27 352 353 358
706 24 350 353 352
707 13 78 77 79
708 17 43 168 169
709 15 43 168 172
710 15 43 168 167
711 32 172 168 169
712 29 172 168 167
713 32 167 168 169
714 24 477 479 482
715 25 477 479 563
716 25 482 479 563
717 27 60 58 59
718 27 181 58 59
719 24 60 58 181
720 14 55 59 58
721 24 185 136 135
722 25 185 136 191
723 25 135 136 191
724 22 186 187 185
725 23 186 187 189
726 23 186 187 183
727 23 185 187 189
728 29 189 187 183
729 23 185 187 183
730 21 472 473 467
731 19 472 473 471
732 19 472 473 443
733 32 471 473 467
734 29 471 473 443
735 32 443 473 467
736 27 479 482 484
737 24 479 482 480
738 27 480 482 484
739 24 575 577 578
740 25 575 577 574
741 25 578 577 574
742 24 580 578 577
743 25 580 578 579
744 25 577 578 579
745 20 490 492 486
746 19 490 492 493
747 19 490 492 494
748 31 493 492 486
749 29 493 492 494
750 31 494 492 486
751 24 233 235 239
752 25 233 235 236
753 25 239 235 236
754 9 581 580 456
755 9 581 580 578
756 24 456 580 578
757 24 238 239 235
758 25 238 239 240
759 25 235 239 240
760 21 211 208 413
761 19 211 208 206
762 19 211 208 209
763 32 206 208 413
764 29 206 208 209
765 32 209 208 413
766 21 490 487 484
767 32 485 487 484
768 32 491 487 484
769 19 490 487 485
770 29 485 487 491
771 19 490 487 491
772 24 415 418 417
773 25 415 418 419
774 25 417 418 419
775 27 415 414 413
776 27 412 414 413
777 24 415 414 412
778 9 581 417 418
779 24 418 417 455
780 9 581 417 455
781 24 414 415 418
782 25 414 415 416
783 25 418 415 416
784 14 208 413 414
785 24 417 455 412
786 25 417 455 454
787 25 412 455 454
788 24 414 412 455
789 25 414 412 411
790 25 455 412 411
791 22 417 581 580
792 23 417 581 460
793 23 417 581 549
794 23 580 581 460
795 29 460 581 549
796 23 580 581 549
797 24 238 234 232
798 25 238 234 118
799 25 232 234 118
800 27 234 238 241
801 27 239 238 241
802 24 234 238 239
803 24 580 456 453
804 25 580 456 457
805 25 453 456 457
806 24 353 352 348
807 25 353 352 290
808 25 348 352 290
809 9 229 233 232
810 24 232 233 235
811 9 229 233 235
812 24 234 232 233
813 25 234 232 230
814 25 233 232 230
815 6 487 490 492
816 8 487 490 486
817 7 487 490 488
818 7 492 490 488
819 34 488 490 486
820 8 492 490 486
821 22 233 229 231
822 23 233 229 228
823 23 233 229 226
824 23 231 229 228
825 29 228 229 226
826 23 231 229 226
827 6 210 211 208
828 8 210 211 213
829 7 210 211 214
830 7 208 211 214
831 34 214 211 213
832 8 208 211 213
833 14 121 241 238
834 24 342 348 352
835 25 342 348 284
836 25 352 348 284
837 13 492 486 490
838 9 229 231 201
839 9 229 231 445
840 24 201 231 445
841 14 487 484 482
842 9 337 342 343
843 24 343 342 348
844 9 337 342 348
845 24 231 445 397
846 25 231 445 444
847 25 397 445 444
848 31 207 210 213
849 19 211 210 207
850 29 207 210 212
851 31 212 210 213
852 19 211 210 212
853 20 211 210 213
854 27 554 556 558
855 24 554 556 560
856 27 560 556 558
857 27 453 575 573
858 24 453 575 577
859 27 577 575 573
860 24 400 397 445
861 25 400 397 396
862 25 445 397 396
863 6 78 79 55
864 8 78 79 77
865 7 78 79 81
866 7 55 79 81
867 34 81 79 77
868 8 55 79 77
869 24 475 478 480
870 25 475 478 476
871 25 480 478 476
872 24 482 480 478
873 25 482 480 481
874 25 478 480 481
875 18 43 39 449
876 18 247 243 175
877 9 319 321 323
878 24 323 321 320
879 9 319 321 320
880 16 86 84 317
881 30 82 84 317
882 30 552 84 317
883 15 86 84 82
884 29 82 84 552
885 15 86 84 552
886 24 186 182 181
887 25 186 182 178
888 25 181 182 178
889 24 58 181 182
890 25 58 181 51
891 25 182 181 51
892 31 80 78 77
893 19 79 78 80
894 29 80 78 76
895 31 76 78 77
896 19 79 78 76
897 20 79 78 77
898 1 510 319 321
899 23 321 319 316
900 23 321 319 465
901 2 510 319 316
902 29 316 319 465
903 2 510 319 465
904 21 405 406 402
905 32 410 406 402
906 32 408 406 402
907 19 405 406 410
908 29 410 406 408
909 19 405 406 408
910 6 406 405 544
911 8 406 405 543
912 7 406 405 538
913 7 544 405 538
914 34 538 405 543
915 8 544 405 543
916 20 405 544 543
917 19 405 544 548
918 19 405 544 541
919 31 548 544 543
920 29 548 544 541
921 31 541 544 543
922 13 544 543 405
923 14 406 402 400
924 2 319 510 583
925 2 319 510 509
926 2 319 510 511
927 29 583 510 509
928 29 583 510 511
929 29 509 510 511
930 3 84 86 561
931 5 84 86 559
932 4 84 86 88
933 4 561 86 88
934 33 88 86 559
935 5 561 86 559
936 6 196 197 195
937 8 196 197 199
938 7 196 197 200
939 7 195 197 200
940 34 200 197 199
941 8 195 197 199
942 13 196 199 197
943 31 198 196 199
944 19 197 196 198
945 29 198 196 194
946 31 194 196 199
947 19 197 196 194
948 20 197 196 199
949 27 404 400 402
950 24 404 400 397
951 27 397 400 402
952 21 197 195 394
953 19 197 195 163
954 19 197 195 398
955 32 163 195 394
956 29 163 195 398
957 32 398 195 394
958 2 328 383 512
959 29 512 383 381
960 29 512 383 389
961 2 328 383 381
962 29 381 383 389
963 2 328 383 389
964 24 326 323 321
965 25 326 323 324
966 25 321 323 324
967 3 244 247 252
968 5 244 247 243
969 4 244 247 246
970 4 252 247 246
971 33 246 247 243
972 5 252 247 243
973 14 561 558 556
974 18 86 559 318
975 6 311 312 310
976 8 311 312 313
977 7 311 312 315
978 7 310 312 315
979 34 315 312 313
980 8 310 312 313
981 17 86 561 558
982 15 86 561 90
983 15 86 561 537
984 32 90 561 558
985 29 90 561 537
986 32 537 561 558
987 1 263 262 267
988 23 267 262 261
989 23 267 262 260
990 2 263 262 261
991 29 261 262 260
992 2 263 262 260
993 24 499 497 498
994 25 499 497 495
995 25 498 497 495
996 27 503 500 501
997 24 503 500 498
998 27 498 500 501
999 24 438 435 436
1000 25 438 435 433
1001 25 436 435 433
1002 24 304 305 302
1003 25 304 305 307
1004 25 302 305 307
1005 14 310 306 304
1006 27 438 442 394
1007 27 393 442 394
1008 24 438 442 393
1009 21 312 310 306
1010 19 312 310 309
1011 19 312 310 377
1012 32 309 310 306
1013 29 309 310 377
1014 32 377 310 306
1015 24 556 560 557
1016 25 556 560 536
1017 25 557 560 536
1018 24 299 302 305
1019 25 299 302 303
1020 25 305 302 303
1021 24 442 438 435
1022 25 442 438 437
1023 25 435 438 437
1024 24 553 554 556
1025 25 553 554 551
1026 25 556 554 551
1027 24 301 298 299
1028 25 301 298 296
1029 25 299 298 296
1030 22 436 434 555
1031 23 436 434 431
1032 23 436 434 429
1033 23 555 434 431
1034 29 431 434 429
1035 23 555 434 429
1036 24 442 393 439
1037 25 442 393 395
1038 25 439 393 395
1039 9 295 499 502
1040 9 295 499 497
1041 24 502 499 497
1042 24 555 553 554
1043 25 555 553 550
1044 25 554 553 550
1045 24 500 498 497
1046 25 500 498 496
1047 25 497 498 496
1048 2 262 263 264
1049 2 262 263 259
1050 2 262 263 265
1051 29 264 263 259
1052 29 264 263 265
1053 29 259 263 265
1054 9 295 299 298
1055 24 298 299 302
1056 9 295 299 302
1057 14 195 394 442
1058 24 436 439 393
1059 25 436 439 441
1060 25 393 439 441
1061 24 555 557 560
1062 25 555 557 440
1063 25 560 557 440
1064 24 502 503 500
1065 25 502 503 505
1066 25 500 503 505
1067 27 301 304 306
1068 27 305 304 306
1069 24 301 304 305
1070 9 434 555 553
1071 9 434 555 557
1072 24 553 555 557
1073 24 499 502 503
1074 25 499 502 463
1075 25 503 502 463
1076 9 434 436 435
1077 24 435 436 439
1078 9 434 436 439
1079 24 304 301 298
1080 25 304 301 300
1081 25 298 301 300
1082 22 299 295 499
1083 23 299 295 293
1084 23 299 295 458
1085 23 499 295 293
1086 29 293 295 458
1087 23 499 295 458
1088 24 29 25 149
1089 25 29 25 27
1090 25 149 25 27

Dihedrals

1 26 280 283 281 278
2 30 281 283 285 286
3 30 280 283 285 286
4 26 276 278 281 283
5 30 276 278 116 227
6 30 276 278 116 114
7 30 281 278 116 227
8 30 281 278 116 114
9 26 276 277 280 283
10 26 280 277 276 278
11 10 282 280 277 276
12 25 277 280 282 279
13 25 277 280 282 483
14 26 277 280 283 281
15 11 282 280 277 275
16 27 283 280 277 275
17 25 283 280 282 279
18 25 283 280 282 483
19 10 282 280 283 281
20 12 282 280 283 285
21 28 277 280 283 285
22 10 274 276 277 280
23 11 274 276 277 275
24 10 274 276 278 281
25 12 274 276 278 116
26 25 277 276 274 117
27 25 278 276 274 117
28 25 277 276 274 273
29 25 278 276 274 273
30 26 277 276 278 281
31 28 277 276 278 116
32 27 278 276 277 275
33 29 49 47 174 169
34 26 49 47 174 176
35 27 174 47 49 50
36 45 45 47 174 169
37 1 113 274 276 277
38 1 113 274 276 278
39 23 276 274 113 115
40 23 276 274 113 158
41 23 276 274 113 157
42 26 177 49 47 174
43 27 177 49 47 45
44 44 50 49 47 45
45 26 47 49 177 124
46 10 56 177 49 47
47 11 56 177 49 50
48 10 56 177 124 176
49 11 56 177 124 127
50 25 49 177 56 132
51 25 124 177 56 132
52 25 49 177 56 57
53 25 124 177 56 57
54 26 49 177 124 176
55 27 49 177 124 127
56 27 124 177 49 50
57 10 56 15 17 14
58 25 17 15 56 132
59 25 17 15 56 57
60 26 17 15 13 11
61 27 17 15 13 53
62 11 56 15 17 18
63 27 13 15 17 18
64 25 13 15 56 132
65 25 13 15 56 57
66 11 56 15 13 53
67 10 56 15 13 11
68 10 447 281 278 276
69 10 447 281 283 280
70 25 283 281 447 446
71 25 283 281 447 450
72 25 283 281 447 448
73 28 283 281 278 116
74 25 278 281 447 446
75 25 278 281 447 450
76 25 278 281 447 448
77 12 447 281 278 116
78 12 447 281 283 285
79 28 278 281 283 285
80 26 14 17 15 13
81 27 15 17 14 16
82 15 244 173 351 356
83 31 351 173 244 245
84 31 351 173 244 242
85 15 244 173 351 347
86 10 361 356 351 347
87 10 361 356 354 349
88 25 354 356 361 363
89 25 354 356 361 360
90 25 354 356 361 362
91 28 351 356 354 357
92 25 351 356 361 363
93 25 351 356 361 360
94 25 351 356 361 362
95 12 361 356 354 357
96 12 361 356 351 173
97 28 354 356 351 173
98 26 347 351 356 354
99 30 356 351 173 171
100 30 347 351 173 171
101 37 271 269 472 466
102 36 271 269 472 474
103 37 270 269 472 466
104 36 270 269 472 474
105 16 269 466 472 474
106 22 472 466 269 271
107 22 472 466 269 270
108 17 168 169 174 47
109 17 168 169 174 176
110 32 174 169 168 167
111 32 174 169 168 172
112 26 47 174 176 124
113 27 47 174 176 120
114 27 176 174 47 45
115 9 473 472 466 269
116 8 269 472 473 467
117 6 269 472 473 471
118 6 269 472 473 443
119 6 473 472 269 271
120 6 473 472 269 270
121 42 474 472 269 466
122 43 474 472 473 467
123 47 466 472 473 467
124 7 473 472 269 466
125 33 115 113 274 117
126 33 115 113 274 273
127 33 158 113 274 117
128 33 158 113 274 273
129 33 157 113 274 117
130 33 157 113 274 273
131 24 177 56 15 17
132 24 15 56 177 49
133 24 15 56 177 124
134 24 177 56 15 13
135 30 349 354 357 359
136 30 349 354 357 355
137 26 349 354 356 351
138 30 356 354 357 359
139 30 356 354 357 355
140 18 43 41 285 283
141 46 285 41 43 39
142 19 43 41 285 286
143 38 40 41 285 286
144 38 42 41 285 286
145 35 40 41 43 39
146 34 40 41 43 170
147 35 42 41 43 39
148 34 42 41 43 170
149 1 287 282 280 277
150 23 280 282 287 289
151 23 280 282 287 288
152 23 280 282 287 489
153 1 287 282 280 283
154 33 279 282 287 289
155 33 279 282 287 288
156 33 279 282 287 489
157 33 483 282 287 289
158 33 483 282 287 288
159 33 483 282 287 489
160 21 568 571 573 575
161 37 566 571 568 564
162 36 566 571 568 565
163 37 570 571 568 564
164 36 570 571 568 565
165 15 41 285 283 281
166 31 283 285 41 40
167 31 283 285 41 42
168 15 41 285 283 280
169 22 379 193 223 222
170 22 379 193 223 224
171 16 223 193 379 378
172 26 185 180 128 130
173 27 185 180 128 126
174 37 507 528 531 527
175 36 507 528 531 533
176 37 529 528 531 527
177 36 529 528 531 533
178 10 187 185 136 135
179 11 187 185 136 191
180 10 187 185 180 128
181 11 187 185 180 179
182 25 136 185 187 189
183 25 180 185 187 189
184 25 136 185 187 183
185 25 180 185 187 183
186 26 136 185 180 128
187 27 136 185 180 179
188 27 180 185 136 191
189 36 222 223 379 378
190 36 224 223 379 378
191 37 222 223 379 193
192 37 224 223 379 193
193 27 15 13 11 10
194 44 53 13 11 10
195 16 528 527 531 533
196 22 531 527 528 507
197 22 531 527 528 529
198 8 223 379 430 380
199 47 193 379 430 380
200 43 378 379 430 380
201 7 430 379 223 193
202 6 430 379 223 222
203 6 430 379 223 224
204 9 430 379 193 223
205 6 223 379 430 432
206 6 223 379 430 428
207 42 378 379 223 193
208 9 532 531 527 528
209 8 528 531 532 534
210 6 528 531 532 508
211 6 528 531 532 530
212 6 532 531 528 507
213 6 532 531 528 529
214 42 533 531 528 527
215 43 533 531 532 534
216 47 527 531 532 534
217 7 532 531 528 527
218 26 334 390 386 384
219 27 334 390 386 382
220 44 391 390 386 382
221 26 386 390 334 392
222 21 531 532 534 26
223 36 508 532 531 533
224 36 530 532 531 533
225 37 508 532 531 527
226 37 530 532 531 527
227 29 13 11 12 9
228 45 10 11 12 9
229 26 12 11 13 15
230 27 12 11 13 53
231 37 297 294 123 291
232 36 297 294 123 292
233 37 249 294 123 291
234 36 249 294 123 292
235 9 121 123 291 294
236 8 294 123 121 241
237 6 294 123 121 119
238 6 294 123 121 122
239 6 121 123 294 297
240 6 121 123 294 249
241 42 292 123 294 291
242 43 292 123 121 241
243 47 291 123 121 241
244 7 121 123 294 291
245 21 379 430 380 384
246 37 432 430 379 193
247 36 432 430 379 378
248 37 428 430 379 193
249 36 428 430 379 378
250 27 130 128 180 179
251 45 126 128 130 129
252 44 126 128 180 179
253 29 180 128 130 129
254 36 103 250 251 248
255 36 102 250 251 248
256 37 103 250 251 125
257 37 102 250 251 125
258 17 430 380 384 386
259 32 384 380 430 432
260 32 384 380 430 428
261 17 430 380 384 388
262 26 386 384 388 392
263 27 386 384 388 387
264 27 388 384 386 382
265 27 384 388 392 335
266 45 387 388 384 380
267 44 387 388 392 335
268 29 392 388 384 380
269 26 334 392 388 384
270 27 334 392 388 387
271 17 131 129 130 135
272 32 130 129 131 134
273 32 130 129 131 133
274 17 131 129 130 128
275 8 250 251 131 129
276 47 125 251 131 129
277 43 248 251 131 129
278 7 131 251 250 125
279 6 131 251 250 103
280 6 131 251 250 102
281 9 131 251 125 250
282 6 250 251 131 134
283 6 250 251 131 133
284 42 248 251 250 125
285 22 251 125 250 103
286 22 251 125 250 102
287 16 250 125 251 248
288 21 251 131 129 130
289 37 134 131 251 125
290 36 134 131 251 248
291 37 133 131 251 125
292 36 133 131 251 248
293 16 294 291 123 292
294 22 123 291 294 297
295 22 123 291 294 249
296 26 135 130 128 180
297 27 135 130 128 126
298 27 128 130 135 137
299 10 337 334 390 386
300 11 337 334 390 391
301 10 337 334 392 388
302 11 337 334 392 335
303 25 390 334 337 338
304 25 392 334 337 338
305 25 390 334 337 336
306 25 392 334 337 336
307 26 390 334 392 388
308 27 390 334 392 335
309 27 392 334 390 391
310 29 136 135 130 129
311 26 136 135 130 128
312 27 130 135 136 191
313 45 137 135 130 129
314 26 14 12 11 13
315 27 14 12 11 10
316 27 11 12 14 16
317 29 390 386 384 380
318 26 390 386 384 388
319 27 384 386 390 391
320 45 382 386 384 380
321 24 334 337 342 343
322 24 342 337 334 390
323 24 342 337 334 392
324 24 334 337 342 348
325 8 372 368 367 369
326 47 370 368 367 369
327 43 366 368 367 369
328 7 367 368 372 370
329 6 367 368 372 375
330 6 367 368 372 373
331 9 367 368 370 372
332 6 372 368 367 364
333 6 372 368 367 365
334 42 366 368 372 370
335 36 375 372 368 366
336 36 373 372 368 366
337 37 375 372 368 370
338 37 373 372 368 370
339 21 123 121 241 238
340 36 119 121 123 292
341 36 122 121 123 292
342 37 119 121 123 291
343 37 122 121 123 291
344 36 104 105 108 19
345 36 106 105 108 19
346 37 104 105 108 107
347 37 106 105 108 107
348 22 368 370 372 375
349 22 368 370 372 373
350 16 372 370 368 366
351 17 532 534 26 22
352 17 532 534 26 32
353 32 26 534 532 508
354 32 26 534 532 530
355 17 504 501 500 503
356 32 500 501 504 506
357 32 500 501 504 582
358 17 504 501 500 498
359 17 571 573 575 453
360 32 575 573 571 566
361 32 575 573 571 570
362 17 571 573 575 577
363 3 8 4 3 95
364 39 5 4 3 95
365 4 3 4 8 9
366 2 3 4 8 7
367 2 3 4 8 6
368 5 3 4 1 97
369 2 8 4 3 2
370 2 8 4 3 99
371 40 5 4 8 9
372 41 5 4 1 97
373 5 8 4 1 97
374 17 252 461 462 255
375 17 252 461 462 421
376 32 462 461 252 253
377 32 462 461 252 459
378 26 255 217 424 423
379 27 424 217 255 256
380 10 328 326 323 321
381 11 328 326 323 324
382 10 328 326 325 322
383 12 328 326 325 327
384 25 323 326 328 385
385 25 325 326 328 385
386 25 323 326 328 332
387 25 325 326 328 332
388 26 323 326 325 322
389 28 323 326 325 327
390 27 325 326 323 324
391 29 17 14 12 9
392 45 16 14 12 9
393 26 12 14 17 15
394 27 12 14 17 18
395 44 16 14 17 18
396 26 17 14 12 11
397 26 321 320 322 325
398 30 322 320 317 464
399 30 321 320 317 464
400 8 569 568 571 573
401 47 564 568 571 573
402 43 565 568 571 573
403 7 571 568 569 564
404 6 571 568 569 451
405 6 571 568 569 567
406 9 571 568 564 569
407 6 569 568 571 566
408 6 569 568 571 570
409 42 565 568 569 564
410 20 247 252 461 462
411 34 459 252 247 246
412 34 253 252 247 246
413 48 461 252 247 243
414 35 459 252 247 243
415 35 253 252 247 243
416 22 568 564 569 451
417 22 568 564 569 567
418 16 569 564 568 565
419 20 140 142 143 146
420 34 144 142 140 138
421 34 141 142 140 138
422 48 143 142 140 139
423 35 144 142 140 139
424 35 141 142 140 139
425 29 423 421 462 461
426 45 420 421 462 461
427 26 462 421 423 424
428 27 462 421 423 422
429 3 142 140 257 72
430 39 138 140 257 72
431 4 257 140 142 143
432 2 257 140 142 144
433 2 257 140 142 141
434 5 257 140 139 73
435 2 142 140 257 254
436 2 142 140 257 258
437 40 138 140 142 143
438 41 138 140 139 73
439 5 142 140 139 73
440 30 64 65 542 547
441 30 64 65 542 540
442 26 64 65 67 70
443 30 67 65 542 547
444 30 67 65 542 540
445 10 63 64 66 68
446 25 66 64 63 98
447 25 66 64 63 539
448 28 66 64 65 542
449 26 66 64 65 67
450 11 63 64 66 100
451 27 65 64 66 100
452 25 65 64 63 98
453 25 65 64 63 539
454 10 63 64 65 67
455 12 63 64 65 542
456 10 69 67 70 68
457 10 69 67 65 64
458 25 65 67 69 46
459 25 65 67 69 44
460 25 65 67 69 48
461 28 70 67 65 542
462 25 70 67 69 46
463 25 70 67 69 44
464 25 70 67 69 48
465 12 69 67 65 542
466 12 69 67 70 72
467 28 65 67 70 72
468 26 68 70 67 65
469 30 68 70 72 74
470 30 67 70 72 74
471 1 545 63 64 66
472 23 64 63 545 576
473 23 64 63 545 572
474 23 64 63 545 546
475 1 545 63 64 65
476 33 98 63 545 576
477 33 98 63 545 572
478 33 98 63 545 546
479 33 539 63 545 576
480 33 539 63 545 572
481 33 539 63 545 546
482 26 68 66 64 65
483 26 64 66 68 70
484 15 257 72 70 68
485 31 70 72 257 254
486 31 70 72 257 258
487 15 257 72 70 67
488 10 71 68 66 64
489 11 71 68 66 100
490 10 71 68 70 67
491 25 66 68 71 75
492 25 70 68 71 75
493 25 66 68 71 101
494 25 70 68 71 101
495 26 66 68 70 67
496 27 70 68 66 100
497 12 71 68 70 72
498 28 66 68 70 72
499 18 140 257 72 70
500 46 72 257 140 139
501 19 140 257 72 74
502 38 254 257 72 74
503 38 258 257 72 74
504 35 254 257 140 139
505 34 254 257 140 138
506 35 258 257 140 139
507 34 258 257 140 138
508 1 204 71 68 66
509 1 204 71 68 70
510 23 68 71 204 203
511 23 68 71 204 202
512 23 68 71 204 205
513 33 203 204 71 75
514 33 203 204 71 101
515 33 202 204 71 75
516 33 202 204 71 101
517 33 205 204 71 75
518 33 205 204 71 101
519 10 152 322 325 326
520 10 152 322 320 321
521 25 320 322 152 154
522 25 320 322 152 151
523 25 320 322 152 150
524 28 320 322 325 327
525 25 325 322 152 154
526 25 325 322 152 151
527 25 325 322 152 150
528 12 152 322 325 327
529 12 152 322 320 317
530 28 325 322 320 317
531 26 326 325 322 320
532 30 326 325 327 156
533 30 326 325 327 329
534 30 322 325 327 156
535 30 322 325 327 329
536 36 451 569 568 565
537 36 567 569 568 565
538 37 451 569 568 564
539 37 567 569 568 564
540 17 142 143 146 148
541 17 142 143 146 149
542 32 146 143 142 141
543 32 146 143 142 144
544 15 84 317 320 322
545 31 320 317 84 82
546 31 320 317 84 552
547 15 84 317 320 321
548 26 255 462 421 423
549 27 255 462 421 420
550 27 421 462 255 256
551 27 424 423 421 420
552 44 422 423 421 420
553 1 383 328 326 323
554 1 383 328 326 325
555 23 326 328 383 512
556 23 326 328 383 381
557 23 326 328 383 389
558 29 217 255 462 461
559 45 256 255 462 461
560 26 462 255 217 424
561 27 462 255 217 220
562 44 256 255 217 220
563 26 217 255 462 421
564 29 33 32 26 534
565 45 535 32 26 534
566 26 26 32 33 30
567 27 26 32 33 36
568 8 105 108 504 501
569 47 107 108 504 501
570 43 19 108 504 501
571 7 504 108 105 107
572 6 504 108 105 104
573 6 504 108 105 106
574 9 504 108 107 105
575 6 105 108 504 506
576 6 105 108 504 582
577 42 19 108 105 107
578 10 31 29 24 148
579 11 31 29 24 28
580 10 31 29 25 149
581 11 31 29 25 27
582 25 24 29 31 35
583 25 25 29 31 35
584 25 24 29 31 34
585 25 25 29 31 34
586 26 24 29 25 149
587 27 24 29 25 27
588 27 25 29 24 28
589 16 210 213 211 214
590 22 211 213 210 207
591 22 211 213 210 212
592 26 29 24 148 146
593 27 29 24 148 145
594 44 28 24 148 145
595 26 148 24 29 25
596 1 85 89 111 268
597 1 85 89 111 91
598 23 111 89 85 110
599 23 111 89 85 83
600 23 111 89 85 87
601 10 262 267 268 111
602 25 268 267 262 261
603 25 268 267 262 260
604 28 268 267 109 155
605 26 268 267 109 112
606 11 262 267 268 266
607 27 109 267 268 266
608 25 109 267 262 261
609 25 109 267 262 260
610 10 262 267 109 112
611 12 262 267 109 155
612 26 148 146 149 25
613 27 148 146 149 147
614 27 149 146 148 145
615 17 367 369 371 374
616 32 371 369 367 364
617 32 371 369 367 365
618 17 367 369 371 188
619 33 110 85 89 225
620 33 110 85 89 62
621 33 83 85 89 225
622 33 83 85 89 62
623 33 87 85 89 225
624 33 87 85 89 62
625 26 22 23 30 33
626 27 30 23 22 20
627 26 218 216 188 371
628 27 218 216 188 184
629 17 8 9 12 14
630 17 8 9 12 11
631 32 12 9 8 6
632 32 12 9 8 7
633 21 108 504 501 500
634 37 506 504 108 107
635 36 506 504 108 19
636 37 582 504 108 107
637 36 582 504 108 19
638 26 111 268 267 109
639 26 267 268 111 91
640 26 374 371 188 216
641 27 374 371 188 184
642 27 188 371 374 376
643 29 23 22 26 534
644 45 20 22 26 534
645 26 26 22 23 30
646 27 26 22 23 21
647 44 20 22 23 21
648 26 23 22 26 32
649 18 4 3 95 91
650 46 95 3 4 1
651 19 4 3 95 96
652 38 2 3 95 96
653 38 99 3 95 96
654 35 2 3 4 1
655 34 2 3 4 5
656 35 99 3 4 1
657 34 99 3 4 5
658 26 218 425 374 371
659 27 218 425 374 376
660 44 426 425 374 376
661 26 374 425 218 216
662 27 146 149 25 27
663 45 147 149 146 143
664 44 147 149 25 27
665 29 25 149 146 143
666 29 24 148 146 143
667 26 24 148 146 149
668 27 146 148 24 28
669 45 145 148 146 143
670 30 267 109 155 153
671 30 267 109 155 37
672 26 267 109 112 91
673 30 112 109 155 153
674 30 112 109 155 37
675 10 92 112 91 111
676 10 92 112 109 267
677 25 109 112 92 93
678 25 109 112 92 94
679 25 109 112 92 38
680 28 91 112 109 155
681 25 91 112 92 93
682 25 91 112 92 94
683 25 91 112 92 38
684 12 92 112 109 155
685 12 92 112 91 95
686 28 109 112 91 95
687 26 22 26 32 33
688 27 22 26 32 535
689 27 32 26 22 20
690 10 89 111 268 267
691 11 89 111 268 266
692 10 89 111 91 112
693 25 268 111 89 225
694 25 91 111 89 225
695 25 268 111 89 62
696 25 91 111 89 62
697 26 268 111 91 112
698 27 91 111 268 266
699 12 89 111 91 95
700 28 268 111 91 95
701 22 108 107 105 104
702 22 108 107 105 106
703 16 105 107 108 19
704 21 368 367 369 371
705 37 364 367 368 370
706 36 364 367 368 366
707 37 365 367 368 370
708 36 365 367 368 366
709 26 111 91 112 109
710 30 112 91 95 96
711 30 111 91 95 96
712 10 31 30 23 22
713 25 23 30 31 35
714 25 23 30 31 34
715 26 23 30 33 32
716 27 23 30 33 36
717 11 31 30 23 21
718 27 33 30 23 21
719 25 33 30 31 35
720 25 33 30 31 34
721 11 31 30 33 36
722 10 31 30 33 32
723 10 219 218 425 374
724 11 219 218 425 426
725 10 219 218 216 188
726 11 219 218 216 215
727 25 425 218 219 221
728 25 216 218 219 221
729 25 425 218 219 427
730 25 216 218 219 427
731 26 425 218 216 188
732 27 425 218 216 215
733 27 216 218 425 426
734 27 371 188 216 215
735 45 184 188 371 369
736 44 184 188 216 215
737 29 216 188 371 369
738 24 29 31 30 23
739 24 30 31 29 24
740 24 30 31 29 25
741 24 29 31 30 33
742 27 30 33 32 535
743 44 36 33 32 535
744 24 218 219 424 217
745 24 424 219 218 425
746 24 424 219 218 216
747 24 218 219 424 423
748 10 219 424 217 255
749 25 217 424 219 221
750 25 217 424 219 427
751 26 217 424 423 421
752 27 217 424 423 422
753 11 219 424 217 220
754 27 423 424 217 220
755 25 423 424 219 221
756 25 423 424 219 427
757 11 219 424 423 422
758 10 219 424 423 421
759 20 4 8 9 12
760 34 7 8 4 5
761 34 6 8 4 5
762 48 9 8 4 1
763 35 7 8 4 1
764 35 6 8 4 1
765 15 3 95 91 112
766 31 91 95 3 2
767 31 91 95 3 99
768 15 3 95 91 111
769 29 425 374 371 369
770 26 425 374 371 188
771 27 371 374 425 426
772 45 376 374 371 369
773 29 456 453 575 573
774 26 456 453 575 577
775 27 575 453 456 457
776 45 452 453 575 573
777 18 247 244 173 351
778 46 173 244 247 243
779 19 247 244 173 171
780 38 245 244 173 171
781 38 242 244 173 171
782 35 245 244 247 243
783 34 245 244 247 246
784 35 242 244 247 243
785 34 242 244 247 246
786 29 585 470 469 467
787 45 468 470 469 467
788 26 469 470 585 516
789 27 469 470 585 584
790 44 468 470 585 584
791 26 585 470 469 331
792 26 470 585 516 333
793 27 516 585 470 468
794 10 515 516 585 470
795 25 585 516 515 513
796 25 585 516 515 514
797 26 585 516 333 331
798 27 585 516 333 272
799 11 515 516 585 584
800 27 333 516 585 584
801 25 333 516 515 513
802 25 333 516 515 514
803 11 515 516 333 272
804 10 515 516 333 331
805 26 470 469 331 333
806 27 470 469 331 330
807 27 331 469 470 468
808 29 333 331 469 467
809 45 330 331 469 467
810 26 469 331 333 516
811 27 469 331 333 272
812 26 347 344 349 354
813 26 349 344 347 351
814 16 523 519 521 525
815 22 521 519 523 522
816 22 521 519 523 526
817 1 403 345 349 344
818 23 349 345 403 401
819 23 349 345 403 407
820 23 349 345 403 399
821 1 403 345 349 354
822 33 346 345 403 401
823 33 346 345 403 407
824 33 346 345 403 399
825 33 340 345 403 401
826 33 340 345 403 407
827 33 340 345 403 399
828 9 520 521 519 523
829 8 523 521 520 358
830 6 523 521 520 518
831 6 523 521 520 524
832 6 520 521 523 522
833 6 520 521 523 526
834 42 525 521 523 519
835 43 525 521 520 358
836 47 519 521 520 358
837 7 520 521 523 519
838 37 522 523 521 519
839 36 522 523 521 525
840 37 526 523 521 519
841 36 526 523 521 525
842 21 521 520 358 353
843 36 518 520 521 525
844 36 524 520 521 525
845 37 518 520 521 519
846 37 524 520 521 519
847 27 516 333 331 330
848 44 272 333 331 330
849 26 60 190 186 182
850 27 186 190 60 61
851 26 475 477 479 482
852 27 475 477 479 563
853 44 562 477 479 563
854 26 479 477 475 478
855 27 174 176 124 127
856 45 120 176 174 169
857 44 120 176 124 127
858 29 124 176 174 169
859 26 177 124 176 174
860 27 177 124 176 120
861 29 190 60 58 59
862 45 61 60 58 59
863 26 58 60 190 186
864 27 58 60 190 192
865 44 61 60 190 192
866 26 190 60 58 181
867 10 515 475 477 479
868 11 515 475 477 562
869 10 515 475 478 480
870 11 515 475 478 476
871 25 477 475 515 513
872 25 478 475 515 513
873 25 477 475 515 514
874 25 478 475 515 514
875 26 477 475 478 480
876 27 477 475 478 476
877 27 478 475 477 562
878 24 475 515 516 585
879 24 516 515 475 477
880 24 516 515 475 478
881 24 475 515 516 333
882 10 187 186 190 60
883 25 190 186 187 189
884 25 190 186 187 183
885 26 190 186 182 181
886 27 190 186 182 178
887 11 187 186 190 192
888 27 182 186 190 192
889 25 182 186 187 189
890 25 182 186 187 183
891 11 187 186 182 178
892 10 187 186 182 181
893 1 162 165 347 344
894 1 162 165 347 351
895 23 347 165 162 160
896 23 347 165 162 161
897 23 347 165 162 159
898 10 165 347 344 349
899 11 165 347 344 341
900 10 165 347 351 356
901 25 344 347 165 164
902 25 351 347 165 164
903 25 344 347 165 166
904 25 351 347 165 166
905 26 344 347 351 356
906 27 351 347 344 341
907 12 165 347 351 173
908 28 344 347 351 173
909 17 520 358 353 350
910 17 520 358 353 352
911 32 353 358 520 518
912 32 353 358 520 524
913 37 308 311 312 313
914 36 308 311 312 315
915 37 314 311 312 313
916 36 314 311 312 315
917 29 343 350 353 358
918 45 517 350 353 358
919 26 353 350 343 342
920 27 353 350 343 339
921 44 517 350 343 339
922 26 343 350 353 352
923 10 345 349 344 347
924 25 344 349 345 346
925 25 344 349 345 340
926 28 344 349 354 357
927 26 344 349 354 356
928 11 345 349 344 341
929 27 354 349 344 341
930 25 354 349 345 346
931 25 354 349 345 340
932 10 345 349 354 356
933 12 345 349 354 357
934 26 231 201 404 400
935 27 231 201 404 409
936 44 237 201 404 409
937 26 404 201 231 445
938 16 311 313 312 315
939 22 312 313 311 308
940 22 312 313 311 314
941 21 79 55 59 58
942 36 54 55 79 81
943 36 52 55 79 81
944 37 54 55 79 77
945 37 52 55 79 77
946 3 168 43 41 285
947 39 170 43 41 285
948 4 41 43 168 169
949 2 41 43 168 172
950 2 41 43 168 167
951 5 41 43 39 449
952 2 168 43 41 40
953 2 168 43 41 42
954 40 170 43 168 169
955 41 170 43 39 449
956 5 168 43 39 449
957 29 201 404 400 402
958 26 201 404 400 397
959 27 400 404 201 237
960 45 409 404 400 402
961 17 473 467 469 470
962 17 473 467 469 331
963 32 469 467 473 471
964 32 469 467 473 443
965 33 160 162 165 164
966 33 160 162 165 166
967 33 161 162 165 164
968 33 161 162 165 166
969 33 159 162 165 164
970 33 159 162 165 166
971 26 350 343 342 348
972 27 342 343 350 517
973 26 350 353 352 348
974 27 350 353 352 290
975 27 352 353 350 517
976 16 78 77 79 81
977 22 79 77 78 80
978 22 79 77 78 76
979 20 43 168 169 174
980 34 172 168 43 170
981 34 167 168 43 170
982 48 169 168 43 39
983 35 172 168 43 39
984 35 167 168 43 39
985 29 477 479 482 484
986 26 477 479 482 480
987 27 482 479 477 562
988 45 563 479 482 484
989 26 60 58 181 182
990 27 60 58 181 51
991 27 181 58 60 61
992 17 55 59 58 60
993 17 55 59 58 181
994 32 58 59 55 54
995 32 58 59 55 52
996 26 185 136 135 130
997 27 185 136 135 137
998 44 191 136 135 137
999 26 135 136 185 180
1000 24 185 187 186 190
1001 24 186 187 185 136
1002 24 186 187 185 180
1003 24 185 187 186 182
1004 21 472 473 467 469
1005 36 471 473 472 474
1006 36 443 473 472 474
1007 37 471 473 472 466
1008 37 443 473 472 466
1009 26 479 482 480 478
1010 27 479 482 480 481
1011 27 480 482 479 563
1012 27 575 577 578 579
1013 45 574 577 575 573
1014 44 574 577 578 579
1015 29 578 577 575 573
1016 26 580 578 577 575
1017 27 580 578 577 574
1018 36 493 492 490 488
1019 36 494 492 490 488
1020 37 493 492 490 486
1021 37 494 492 490 486
1022 27 233 235 239 240
1023 44 236 235 239 240
1024 10 581 580 456 453
1025 11 581 580 456 457
1026 10 581 580 578 577
1027 11 581 580 578 579
1028 25 456 580 581 460
1029 25 578 580 581 460
1030 25 456 580 581 549
1031 25 578 580 581 549
1032 26 456 580 578 577
1033 27 456 580 578 579
1034 27 578 580 456 457
1035 29 235 239 238 241
1036 45 240 239 238 241
1037 26 238 239 235 233
1038 27 238 239 235 236
1039 21 211 208 413 414
1040 36 206 208 211 214
1041 36 209 208 211 214
1042 37 206 208 211 213
1043 37 209 208 211 213
1044 21 490 487 484 482
1045 37 485 487 490 486
1046 36 485 487 490 488
1047 37 491 487 490 486
1048 36 491 487 490 488
1049 26 415 418 417 455
1050 27 417 418 415 416
1051 26 415 414 412 455
1052 27 415 414 412 411
1053 27 412 414 415 416
1054 10 581 417 418 415
1055 25 418 417 581 460
1056 25 418 417 581 549
1057 26 418 417 455 412
1058 27 418 417 455 454
1059 11 581 417 418 419
1060 27 455 417 418 419
1061 25 455 417 581 460
1062 25 455 417 581 549
1063 11 581 417 455 454
1064 10 581 417 455 412
1065 29 418 415 414 413
1066 45 416 415 414 413
1067 26 414 415 418 417
1068 27 414 415 418 419
1069 44 416 415 418 419
1070 26 418 415 414 412
1071 17 208 413 414 415
1072 17 208 413 414 412
1073 32 414 413 208 206
1074 32 414 413 208 209
1075 27 417 455 412 411
1076 44 454 455 412 411
1077 29 455 412 414 413
1078 45 411 412 414 413
1079 26 414 412 455 417
1080 27 414 412 455 454
1081 24 580 581 417 418
1082 24 417 581 580 456
1083 24 417 581 580 578
1084 24 580 581 417 455
1085 29 232 234 238 241
1086 45 118 234 238 241
1087 26 238 234 232 233
1088 27 238 234 232 230
1089 44 118 234 232 230
1090 26 232 234 238 239
1091 26 234 238 239 235
1092 27 234 238 239 240
1093 27 239 238 234 118
1094 26 580 456 453 575
1095 27 580 456 453 452
1096 44 457 456 453 452
1097 26 453 456 580 578
1098 29 348 352 353 358
1099 45 290 352 353 358
1100 26 353 352 348 342
1101 27 353 352 348 284
1102 10 229 233 232 234
1103 25 232 233 229 228
1104 25 232 233 229 226
1105 26 232 233 235 239
1106 27 232 233 235 236
1107 11 229 233 232 230
1108 27 235 233 232 230
1109 25 235 233 229 228
1110 25 235 233 229 226
1111 11 229 233 235 236
1112 10 229 233 235 239
1113 26 234 232 233 235
1114 27 233 232 234 118
1115 8 492 490 487 484
1116 47 486 490 487 484
1117 43 488 490 487 484
1118 7 487 490 492 486
1119 6 487 490 492 493
1120 6 487 490 492 494
1121 9 487 490 486 492
1122 6 492 490 487 485
1123 6 492 490 487 491
1124 42 488 490 492 486
1125 24 231 229 233 232
1126 24 233 229 231 201
1127 24 233 229 231 445
1128 24 231 229 233 235
1129 9 208 211 213 210
1130 8 210 211 208 413
1131 6 210 211 208 206
1132 6 210 211 208 209
1133 6 208 211 210 207
1134 6 208 211 210 212
1135 42 214 211 210 213
1136 43 214 211 208 413
1137 47 213 211 208 413
1138 7 208 211 210 213
1139 17 121 241 238 234
1140 17 121 241 238 239
1141 32 238 241 121 119
1142 32 238 241 121 122
1143 27 342 348 352 290
1144 44 284 348 352 290
1145 22 490 486 492 493
1146 22 490 486 492 494
1147 16 492 486 490 488
1148 10 229 231 201 404
1149 11 229 231 201 237
1150 10 229 231 445 397
1151 11 229 231 445 444
1152 25 201 231 229 228
1153 25 445 231 229 228
1154 25 201 231 229 226
1155 25 445 231 229 226
1156 26 201 231 445 397
1157 27 201 231 445 444
1158 27 445 231 201 237
1159 17 487 484 482 479
1160 32 482 484 487 485
1161 32 482 484 487 491
1162 17 487 484 482 480
1163 10 337 342 343 350
1164 25 343 342 337 338
1165 25 343 342 337 336
1166 26 343 342 348 352
1167 27 343 342 348 284
1168 11 337 342 343 339
1169 27 348 342 343 339
1170 25 348 342 337 338
1171 25 348 342 337 336
1172 11 337 342 348 284
1173 10 337 342 348 352
1174 26 231 445 397 400
1175 27 231 445 397 396
1176 37 207 210 211 213
1177 36 207 210 211 214
1178 37 212 210 211 213
1179 36 212 210 211 214
1180 26 554 556 560 557
1181 27 554 556 560 536
1182 27 560 556 554 551
1183 26 453 575 577 578
1184 27 453 575 577 574
1185 27 577 575 453 452
1186 27 400 397 445 444
1187 45 396 397 400 402
1188 44 396 397 445 444
1189 29 445 397 400 402
1190 9 55 79 77 78
1191 8 78 79 55 59
1192 6 78 79 55 54
1193 6 78 79 55 52
1194 6 55 79 78 80
1195 6 55 79 78 76
1196 42 81 79 78 77
1197 43 81 79 55 59
1198 47 77 79 55 59
1199 7 55 79 78 77
1200 26 475 478 480 482
1201 27 475 478 480 481
1202 27 482 480 478 476
1203 45 481 480 482 484
1204 44 481 480 478 476
1205 29 478 480 482 484
1206 10 319 321 323 326
1207 25 323 321 319 316
1208 25 323 321 319 465
1209 26 323 321 320 322
1210 11 319 321 323 324
1211 27 320 321 323 324
1212 25 320 321 319 316
1213 25 320 321 319 465
1214 10 319 321 320 322
1215 12 319 321 320 317
1216 28 323 321 320 317
1217 18 86 84 317 320
1218 46 317 84 86 559
1219 19 86 84 317 464
1220 38 82 84 317 464
1221 38 552 84 317 464
1222 35 82 84 86 559
1223 34 82 84 86 88
1224 35 552 84 86 559
1225 34 552 84 86 88
1226 27 186 182 181 51
1227 44 178 182 181 51
1228 29 182 181 58 59
1229 45 51 181 58 59
1230 26 58 181 182 186
1231 27 58 181 182 178
1232 37 80 78 79 77
1233 36 80 78 79 81
1234 37 76 78 79 77
1235 36 76 78 79 81
1236 1 510 319 321 323
1237 23 321 319 510 583
1238 23 321 319 510 509
1239 23 321 319 510 511
1240 1 510 319 321 320
1241 33 316 319 510 583
1242 33 316 319 510 509
1243 33 316 319 510 511
1244 33 465 319 510 583
1245 33 465 319 510 509
1246 33 465 319 510 511
1247 21 405 406 402 400
1248 37 410 406 405 543
1249 36 410 406 405 538
1250 37 408 406 405 543
1251 36 408 406 405 538
1252 8 544 405 406 402
1253 47 543 405 406 402
1254 43 538 405 406 402
1255 7 406 405 544 543
1256 6 406 405 544 548
1257 6 406 405 544 541
1258 9 406 405 543 544
1259 6 544 405 406 410
1260 6 544 405 406 408
1261 42 538 405 544 543
1262 36 548 544 405 538
1263 36 541 544 405 538
1264 37 548 544 405 543
1265 37 541 544 405 543
1266 22 405 543 544 548
1267 22 405 543 544 541
1268 16 544 543 405 538
1269 17 406 402 400 404
1270 32 400 402 406 410
1271 32 400 402 406 408
1272 17 406 402 400 397
1273 3 561 86 84 317
1274 39 88 86 84 317
1275 4 84 86 561 558
1276 2 84 86 561 90
1277 2 84 86 561 537
1278 5 84 86 559 318
1279 2 561 86 84 82
1280 2 561 86 84 552
1281 40 88 86 561 558
1282 41 88 86 559 318
1283 5 561 86 559 318
1284 9 195 197 199 196
1285 8 196 197 195 394
1286 6 196 197 195 163
1287 6 196 197 195 398
1288 6 195 197 196 198
1289 6 195 197 196 194
1290 42 200 197 196 199
1291 43 200 197 195 394
1292 47 199 197 195 394
1293 7 195 197 196 199
1294 16 196 199 197 200
1295 22 197 199 196 198
1296 22 197 199 196 194
1297 37 198 196 197 199
1298 36 198 196 197 200
1299 37 194 196 197 199
1300 36 194 196 197 200
1301 26 404 400 397 445
1302 27 404 400 397 396
1303 27 397 400 404 409
1304 21 197 195 394 442
1305 36 163 195 197 200
1306 36 398 195 197 200
1307 37 163 195 197 199
1308 37 398 195 197 199
1309 33 512 383 328 385
1310 33 512 383 328 332
1311 33 381 383 328 385
1312 33 381 383 328 332
1313 33 389 383 328 385
1314 33 389 383 328 332
1315 26 326 323 321 320
1316 26 321 323 326 325
1317 3 252 247 244 173
1318 39 246 247 244 173
1319 4 244 247 252 461
1320 2 244 247 252 459
1321 2 244 247 252 253
1322 5 244 247 243 175
1323 2 252 247 244 245
1324 2 252 247 244 242
1325 40 246 247 252 461
1326 41 246 247 243 175
1327 5 252 247 243 175
1328 17 561 558 556 554
1329 17 561 558 556 560
1330 32 556 558 561 537
1331 32 556 558 561 90
1332 9 310 312 313 311
1333 8 311 312 310 306
1334 6 311 312 310 309
1335 6 311 312 310 377
1336 6 310 312 311 308
1337 6 310 312 311 314
1338 42 315 312 311 313
1339 43 315 312 310 306
1340 47 313 312 310 306
1341 7 310 312 311 313
1342 20 86 561 558 556
1343 34 90 561 86 88
1344 34 537 561 86 88
1345 48 558 561 86 559
1346 35 90 561 86 559
1347 35 537 561 86 559
1348 1 263 262 267 268
1349 23 267 262 263 264
1350 23 267 262 263 259
1351 23 267 262 263 265
1352 1 263 262 267 109
1353 33 261 262 263 264
1354 33 261 262 263 259
1355 33 261 262 263 265
1356 33 260 262 263 264
1357 33 260 262 263 259
1358 33 260 262 263 265
1359 26 499 497 498 500
1360 27 499 497 498 496
1361 26 503 500 498 497
1362 27 503 500 498 496
1363 27 498 500 503 505
1364 26 438 435 436 439
1365 27 436 435 438 437
1366 29 302 305 304 306
1367 45 307 305 304 306
1368 26 304 305 302 299
1369 27 304 305 302 303
1370 17 310 306 304 301
1371 17 310 306 304 305
1372 32 304 306 310 309
1373 32 304 306 310 377
1374 26 438 442 393 439
1375 27 438 442 393 395
1376 27 393 442 438 437
1377 21 312 310 306 304
1378 36 309 310 312 315
1379 36 377 310 312 315
1380 37 309 310 312 313
1381 37 377 310 312 313
1382 27 556 560 557 440
1383 45 536 560 556 558
1384 44 536 560 557 440
1385 29 557 560 556 558
1386 27 299 302 305 307
1387 44 303 302 305 307
1388 29 435 438 442 394
1389 45 437 438 442 394
1390 26 442 438 435 436
1391 27 442 438 435 433
1392 44 437 438 435 433
1393 26 435 438 442 393
1394 29 553 554 556 558
1395 26 553 554 556 560
1396 27 556 554 553 550
1397 45 551 554 556 558
1398 26 301 298 299 302
1399 27 299 298 301 300
1400 24 555 434 436 435
1401 24 436 434 555 553
1402 24 436 434 555 557
1403 24 555 434 436 439
1404 29 439 393 442 394
1405 45 395 393 442 394
1406 26 442 393 439 436
1407 27 442 393 439 441
1408 10 295 499 502 503
1409 11 295 499 502 463
1410 10 295 499 497 498
1411 11 295 499 497 495
1412 25 502 499 295 293
1413 25 497 499 295 293
1414 25 502 499 295 458
1415 25 497 499 295 458
1416 26 502 499 497 498
1417 27 502 499 497 495
1418 27 497 499 502 463
1419 26 555 553 554 556
1420 27 555 553 554 551
1421 44 550 553 554 551
1422 26 554 553 555 557
1423 27 500 498 497 495
1424 45 496 498 500 501
1425 44 496 498 497 495
1426 29 497 498 500 501
1427 10 295 299 298 301
1428 25 298 299 295 293
1429 25 298 299 295 458
1430 26 298 299 302 305
1431 27 298 299 302 303
1432 11 295 299 298 296
1433 27 302 299 298 296
1434 25 302 299 295 293
1435 25 302 299 295 458
1436 11 295 299 302 303
1437 10 295 299 302 305
1438 17 195 394 442 438
1439 17 195 394 442 393
1440 32 442 394 195 163
1441 32 442 394 195 398
1442 27 436 439 393 395
1443 44 441 439 393 395
1444 26 555 557 560 556
1445 27 555 557 560 536
1446 29 502 503 500 501
1447 26 502 503 500 498
1448 27 500 503 502 463
1449 45 505 503 500 501
1450 26 301 304 305 302
1451 27 301 304 305 307
1452 27 305 304 301 300
1453 10 434 555 553 554
1454 11 434 555 553 550
1455 10 434 555 557 560
1456 11 434 555 557 440
1457 25 553 555 434 431
1458 25 557 555 434 431
1459 25 553 555 434 429
1460 25 557 555 434 429
1461 26 553 555 557 560
1462 27 553 555 557 440
1463 27 557 555 553 550
1464 26 499 502 503 500
1465 27 499 502 503 505
1466 44 463 502 503 505
1467 26 503 502 499 497
1468 10 434 436 435 438
1469 25 435 436 434 431
1470 25 435 436 434 429
1471 26 435 436 439 393
1472 27 435 436 439 441
1473 11 434 436 435 433
1474 27 439 436 435 433
1475 25 439 436 434 431
1476 25 439 436 434 429
1477 11 434 436 439 441
1478 10 434 436 439 393
1479 29 298 301 304 306
1480 45 300 301 304 306
1481 26 304 301 298 299
1482 27 304 301 298 296
1483 44 300 301 298 296
1484 26 298 301 304 305
1485 24 499 295 299 298
1486 24 299 295 499 502
1487 24 299 295 499 497
1488 24 499 295 299 302
1489 26 29 25 149 146
1490 27 29 25 149 147

Impropers

1 26 280 283 281 285
2 26 276 278 281 116
3 25 276 277 280 275
4 24 282 280 283 277
5 24 274 276 277 278
6 25 49 47 174 45
7 1 113 274 276 117
8 1 113 274 276 273
9 3 113 274 117 273
10 13 276 274 117 273
11 30 278 116 227 114
12 25 177 49 47 50
13 24 56 177 49 124
14 24 56 15 13 17
15 24 447 281 278 283
16 13 356 361 363 360
17 13 356 361 363 362
18 13 356 361 360 362
19 14 363 361 360 362
20 25 14 17 15 18
21 29 244 173 171 351
22 24 361 356 351 354
23 26 347 351 356 173
24 8 472 269 271 466
25 8 472 269 270 466
26 16 271 269 270 466
27 7 472 269 271 270
28 27 176 174 47 169
29 22 269 472 473 466
30 21 269 472 473 474
31 23 269 472 466 474
32 23 473 472 466 474
33 3 274 113 115 158
34 3 274 113 115 157
35 3 274 113 158 157
36 14 115 113 158 157
37 12 15 56 177 132
38 12 15 56 177 57
39 13 15 56 132 57
40 13 177 56 132 57
41 30 354 357 359 355
42 26 356 354 349 357
43 3 63 545 576 572
44 3 63 545 576 546
45 3 63 545 572 546
46 14 576 545 572 546
47 5 43 41 40 285
48 5 43 41 42 285
49 15 40 41 42 285
50 4 43 41 40 42
51 2 287 282 279 280
52 2 287 282 483 280
53 13 280 282 279 483
54 3 287 282 279 483
55 9 568 571 566 573
56 9 568 571 570 573
57 17 566 571 570 573
58 7 568 571 566 570
59 13 281 447 446 450
60 13 281 447 446 448
61 13 281 447 450 448
62 14 446 447 450 448
63 29 41 285 286 283
64 25 128 180 185 179
65 8 531 528 507 527
66 8 531 528 529 527
67 16 507 528 529 527
68 7 531 528 507 529
69 24 187 185 136 180
70 10 379 223 193 222
71 10 379 223 193 224
72 7 379 223 222 224
73 16 222 223 224 193
74 25 15 13 11 53
75 3 282 287 289 288
76 3 282 287 289 489
77 3 282 287 288 489
78 14 289 287 288 489
79 22 430 379 223 193
80 21 430 379 223 378
81 23 430 379 193 378
82 23 223 379 193 378
83 22 528 531 532 527
84 21 528 531 532 533
85 23 528 531 527 533
86 23 532 531 527 533
87 25 334 390 386 391
88 11 531 532 534 508
89 11 531 532 534 530
90 7 531 532 508 530
91 17 508 532 530 534
92 25 13 11 12 10
93 8 123 294 297 291
94 8 123 294 249 291
95 16 297 294 249 291
96 7 123 294 297 249
97 22 294 123 121 291
98 21 294 123 121 292
99 23 294 123 291 292
100 23 121 123 291 292
101 9 379 430 432 380
102 9 379 430 428 380
103 17 432 430 428 380
104 7 379 430 432 428
105 25 130 128 180 126
106 10 251 250 125 103
107 10 251 250 125 102
108 7 251 250 103 102
109 16 103 250 102 125
110 27 388 384 386 380
111 25 384 388 392 387
112 25 388 392 334 335
113 22 131 251 250 125
114 21 131 251 250 248
115 23 131 251 125 248
116 23 250 251 125 248
117 9 251 131 134 129
118 9 251 131 133 129
119 17 134 131 133 129
120 7 251 131 134 133
121 27 128 130 135 129
122 24 337 334 390 392
123 25 136 135 130 137
124 27 14 12 11 9
125 25 390 386 384 382
126 12 342 337 334 338
127 12 342 337 334 336
128 13 342 337 338 336
129 13 334 337 338 336
130 22 367 368 372 370
131 21 367 368 372 366
132 23 367 368 370 366
133 23 372 368 370 366
134 10 368 372 370 375
135 10 368 372 370 373
136 7 368 372 375 373
137 16 375 372 373 370
138 11 123 121 241 119
139 11 123 121 241 122
140 7 123 121 119 122
141 17 119 121 122 241
142 10 108 105 107 104
143 10 108 105 107 106
144 7 108 105 104 106
145 16 104 105 106 107
146 19 3 4 8 1
147 18 3 4 8 5
148 20 3 4 1 5
149 20 8 4 1 5
150 25 255 217 424 220
151 24 328 326 323 325
152 25 12 14 17 16
153 26 321 320 322 317
154 22 571 568 569 564
155 21 571 568 569 565
156 23 571 568 564 565
157 23 569 568 564 565
158 6 247 252 461 459
159 6 247 252 461 253
160 4 247 252 459 253
161 17 459 252 253 461
162 6 140 142 143 144
163 6 140 142 143 141
164 4 140 142 144 141
165 17 144 142 141 143
166 25 423 421 462 420
167 19 257 140 142 139
168 18 257 140 142 138
169 20 257 140 139 138
170 20 142 140 139 138
171 13 322 152 154 151
172 13 322 152 154 150
173 13 322 152 151 150
174 14 154 152 151 150
175 26 67 65 64 542
176 30 65 542 547 540
177 24 63 64 65 66
178 24 69 67 70 65
179 13 67 69 46 44
180 13 67 69 46 48
181 13 67 69 44 48
182 14 46 69 44 48
183 26 67 70 68 72
184 2 545 63 98 64
185 2 545 63 539 64
186 13 64 63 98 539
187 3 545 63 98 539
188 25 68 66 64 100
189 29 257 72 74 70
190 24 71 68 66 70
191 5 140 257 254 72
192 5 140 257 258 72
193 15 254 257 258 72
194 4 140 257 254 258
195 1 204 71 68 75
196 1 204 71 68 101
197 3 204 71 75 101
198 13 68 71 75 101
199 3 71 204 203 202
200 3 71 204 203 205
201 3 71 204 202 205
202 14 203 204 202 205
203 30 325 327 156 329
204 24 152 322 325 320
205 26 326 325 322 327
206 10 568 569 564 451
207 10 568 569 564 567
208 7 568 569 451 567
209 16 451 569 567 564
210 29 84 317 464 320
211 27 255 462 421 461
212 25 424 423 421 422
213 1 383 328 326 385
214 1 383 328 326 332
215 3 383 328 385 332
216 13 326 328 385 332
217 25 462 255 217 256
218 25 33 32 26 535
219 22 504 108 105 107
220 21 504 108 105 19
221 23 504 108 107 19
222 23 105 108 107 19
223 24 31 29 24 25
224 25 29 24 148 28
225 1 85 89 111 225
226 1 85 89 111 62
227 3 85 89 225 62
228 13 111 89 225 62
229 24 262 267 109 268
230 27 149 146 148 143
231 3 89 85 110 83
232 3 89 85 110 87
233 3 89 85 83 87
234 14 110 85 83 87
235 25 22 23 30 21
236 25 188 216 218 215
237 9 108 504 506 501
238 9 108 504 582 501
239 17 506 504 582 501
240 7 108 504 506 582
241 25 111 268 267 266
242 27 188 371 374 369
243 25 26 22 23 20
244 5 4 3 2 95
245 5 4 3 99 95
246 15 2 3 99 95
247 4 4 3 2 99
248 25 218 425 374 426
249 25 146 149 25 147
250 25 24 148 146 145
251 30 109 155 153 37
252 26 112 109 267 155
253 24 92 112 91 109
254 27 22 26 32 534
255 24 89 111 268 91
256 9 368 367 364 369
257 9 368 367 365 369
258 17 364 367 365 369
259 7 368 367 364 365
260 26 111 91 112 95
261 24 31 30 33 23
262 24 219 218 425 216
263 25 371 188 216 184
264 12 30 31 29 35
265 12 30 31 29 34
266 13 30 31 35 34
267 13 29 31 35 34
268 25 30 33 32 36
269 12 424 219 218 221
270 12 424 219 218 427
271 13 424 219 221 427
272 13 218 219 221 427
273 24 219 424 423 217
274 6 4 8 9 7
275 6 4 8 9 6
276 4 4 8 7 6
277 17 7 8 6 9
278 13 112 92 93 94
279 13 112 92 93 38
280 13 112 92 94 38
281 14 93 92 94 38
282 29 3 95 96 91
283 25 425 374 371 376
284 25 456 453 575 452
285 5 247 244 245 173
286 5 247 244 242 173
287 15 245 244 242 173
288 4 247 244 245 242
289 25 469 470 585 468
290 25 470 585 516 584
291 24 515 516 333 585
292 27 470 469 331 467
293 25 333 331 469 330
294 25 347 344 349 341
295 2 403 345 346 349
296 2 403 345 340 349
297 13 349 345 346 340
298 3 403 345 346 340
299 3 345 403 401 407
300 3 345 403 401 399
301 3 345 403 407 399
302 14 401 403 407 399
303 22 523 521 520 519
304 21 523 521 520 525
305 23 523 521 519 525
306 23 520 521 519 525
307 8 521 523 522 519
308 8 521 523 526 519
309 16 522 523 526 519
310 7 521 523 522 526
311 11 521 520 358 518
312 11 521 520 358 524
313 7 521 520 518 524
314 17 518 520 524 358
315 25 516 333 331 272
316 25 60 190 186 192
317 25 475 477 479 562
318 25 174 176 124 120
319 25 176 124 177 127
320 25 58 60 190 61
321 24 515 475 477 478
322 12 516 515 475 513
323 12 516 515 475 514
324 13 516 515 513 514
325 13 475 515 513 514
326 24 187 186 182 190
327 1 162 165 347 164
328 1 162 165 347 166
329 3 162 165 164 166
330 13 347 165 164 166
331 24 165 347 344 351
332 8 312 311 308 313
333 8 312 311 314 313
334 16 308 311 314 313
335 7 312 311 308 314
336 25 353 350 343 517
337 24 345 349 354 344
338 25 231 201 404 237
339 11 79 55 59 54
340 11 79 55 59 52
341 7 79 55 54 52
342 17 54 55 52 59
343 19 41 43 168 39
344 18 41 43 168 170
345 20 41 43 39 170
346 20 168 43 39 170
347 25 201 404 400 409
348 3 165 162 160 161
349 3 165 162 160 159
350 3 165 162 161 159
351 14 160 162 161 159
352 25 350 343 342 339
353 27 350 353 352 358
354 6 43 168 169 172
355 6 43 168 169 167
356 4 43 168 172 167
357 17 172 168 167 169
358 25 477 479 482 563
359 27 60 58 181 59
360 25 185 136 135 191
361 12 186 187 185 189
362 12 186 187 185 183
363 13 186 187 189 183
364 13 185 187 189 183
365 11 472 473 467 471
366 11 472 473 467 443
367 7 472 473 471 443
368 17 471 473 443 467
369 27 480 482 479 484
370 25 575 577 578 574
371 25 577 578 580 579
372 10 490 492 486 493
373 10 490 492 486 494
374 7 490 492 493 494
375 16 493 492 494 486
376 25 233 235 239 236
377 24 581 580 456 578
378 25 235 239 238 240
379 11 211 208 413 206
380 11 211 208 413 209
381 7 211 208 206 209
382 17 206 208 209 413
383 9 490 487 485 484
384 9 490 487 491 484
385 17 485 487 491 484
386 7 490 487 485 491
387 25 415 418 417 419
388 27 415 414 412 413
389 24 581 417 455 418
390 25 414 415 418 416
391 25 417 455 412 454
392 25 455 412 414 411
393 12 417 581 580 460
394 12 417 581 580 549
395 13 417 581 460 549
396 13 580 581 460 549
397 25 238 234 232 118
398 27 234 238 239 241
399 25 580 456 453 457
400 25 348 352 353 290
401 24 229 233 235 232
402 25 234 232 233 230
403 22 487 490 492 486
404 21 487 490 492 488
405 23 487 490 486 488
406 23 492 490 486 488
407 12 233 229 231 228
408 12 233 229 231 226
409 13 233 229 228 226
410 13 231 229 228 226
411 22 210 211 208 213
412 21 210 211 208 214
413 23 210 211 213 214
414 23 208 211 213 214
415 25 342 348 352 284
416 24 229 231 201 445
417 24 337 342 348 343
418 25 397 445 231 444
419 8 211 210 207 213
420 8 211 210 212 213
421 16 207 210 212 213
422 7 211 210 207 212
423 27 560 556 554 558
424 27 577 575 453 573
425 25 400 397 445 396
426 22 78 79 55 77
427 21 78 79 55 81
428 23 78 79 77 81
429 23 55 79 77 81
430 25 480 478 475 476
431 25 482 480 478 481
432 24 319 321 320 323
433 5 86 84 82 317
434 5 86 84 552 317
435 15 82 84 552 317
436 4 86 84 82 552
437 25 186 182 181 178
438 25 182 181 58 51
439 8 79 78 80 77
440 8 79 78 76 77
441 16 80 78 76 77
442 7 79 78 80 76
443 2 510 319 316 321
444 2 510 319 465 321
445 13 321 319 316 465
446 3 510 319 316 465
447 9 405 406 410 402
448 9 405 406 408 402
449 17 410 406 408 402
450 7 405 406 410 408
451 22 406 405 544 543
452 21 406 405 544 538
453 23 406 405 543 538
454 23 544 405 543 538
455 10 405 544 543 548
456 10 405 544 543 541
457 7 405 544 548 541
458 16 548 544 541 543
459 3 319 510 583 509
460 3 319 510 583 511
461 3 319 510 509 511
462 14 583 510 509 511
463 19 84 86 561 559
464 18 84 86 561 88
465 20 84 86 559 88
466 20 561 86 559 88
467 22 196 197 195 199
468 21 196 197 195 200
469 23 196 197 199 200
470 23 195 197 199 200
471 8 197 196 198 199
472 8 197 196 194 199
473 16 198 196 194 199
474 7 197 196 198 194
475 27 397 400 404 402
476 11 197 195 394 163
477 11 197 195 394 398
478 7 197 195 163 398
479 17 163 195 398 394
480 3 328 383 512 381
481 3 328 383 512 389
482 3 328 383 381 389
483 14 512 383 381 389
484 25 326 323 321 324
485 19 244 247 252 243
486 18 244 247 252 246
487 20 244 247 243 246
488 20 252 247 243 246
489 22 311 312 310 313
490 21 311 312 310 315
491 23 311 312 313 315
492 23 310 312 313 315
493 6 86 561 558 90
494 6 86 561 558 537
495 4 86 561 90 537
496 17 90 561 537 558
497 2 263 262 261 267
498 2 263 262 260 267
499 13 267 262 261 260
500 3 263 262 261 260
501 25 498 497 499 495
502 27 498 500 503 501
503 25 438 435 436 433
504 25 302 305 304 307
505 27 438 442 393 394
506 11 312 310 306 309
507 11 312 310 306 377
508 7 312 310 309 377
509 17 309 310 377 306
510 25 556 560 557 536
511 25 299 302 305 303
512 25 442 438 435 437
513 25 553 554 556 551
514 25 301 298 299 296
515 12 436 434 555 431
516 12 436 434 555 429
517 13 436 434 431 429
518 13 555 434 431 429
519 25 439 393 442 395
520 24 295 499 502 497
521 25 555 553 554 550
522 25 500 498 497 496
523 3 262 263 264 259
524 3 262 263 264 265
525 3 262 263 259 265
526 14 264 263 259 265
527 24 295 299 302 298
528 25 436 439 393 441
529 25 560 557 555 440
530 25 502 503 500 505
531 27 301 304 305 306
532 24 434 555 553 557
533 25 499 502 503 463
534 24 434 436 439 435
535 25 304 301 298 300
536 12 299 295 499 293
537 12 299 295 499 458
538 13 299 295 293 458
539 13 499 295 293 458
540 25 149 25 29 27
