LAMMPS data file via write_data, version 4 Jul 2026, timestep = 1272500, units = real

585 atoms
11 atom types
615 bonds
18 bond types
1090 angles
35 angle types
1496 dihedrals
48 dihedral types
540 impropers
30 improper types

1.4043290785658122 19.74944993143437 xlo xhi
1.4043290785658122 19.74944993143437 ylo yhi
1.4043290785658122 19.74944993143437 zlo zhi

Masses

1 12.01115
2 12.01115
3 12.01115
4 12.01115
5 1.00797
6 1.00797
7 1.00797
8 14.0067
9 15.9994
10 15.9994
11 15.9994

Pair Coeffs # lj/class2/coul/long

1 0.054 4.01
2 0.054 4.01
3 0.054 4.01
4 0.064 4.01
5 0.02 2.995
6 0.013 1.098
7 0.013 1.098
8 0.065 4.07
9 0.24 3.535
10 0.24 3.535
11 0.24 3.535

Bond Coeffs # class2

1 1.53 299.67 -501.77 679.81
2 1.53 299.67 -501.77 679.81
3 1.53 299.67 -501.77 679.81
4 1.501 321.902 -521.821 572.163
5 1.101 345 -691.89 844.6
6 1.457 365.805 -699.637 998.484
7 1.42 400.395 -835.195 1313.01
8 1.42 400.395 -835.195 1313.01
9 1.101 345 -691.89 844.6
10 1.42 400.395 -835.195 1313.01
11 1.101 345 -691.89 844.6
12 1.42 400.395 -835.195 1313.01
13 1.417 470.836 -627.618 1327.63
14 1.0982 372.825 -803.453 894.317
15 1.412 257.775 0 0
16 1.3768 428.88 -738.235 1114.97
17 1.006 466.74 -1073.6 1251.11
18 0.965 532.506 -1282.9 2004.77

Angle Coeffs # class2

1 108.4 43.9594 -8.3924 -9.3379
2 110.77 41.453 -10.604 5.129
3 112.67 39.516 -7.443 -9.5583
4 110.77 41.453 -10.604 5.129
5 111.27 54.5381 -8.3642 -13.0838
6 112.67 39.516 -7.443 -9.5583
7 110.77 41.453 -10.604 5.129
8 111.27 54.5381 -8.3642 -13.0838
9 120.05 44.7148 -22.7352 0
10 112.444 47.2337 -10.6612 -10.2062
11 109 80 0 0
12 110.954 50.8652 -4.4522 -10.0298
13 104.5 35.7454 -10.0067 -6.2729
14 102.969 38.9739 -6.2595 -8.171
15 110.77 41.453 -10.604 5.129
16 111.91 60.7147 -13.3366 -13.0785
17 111.27 54.5381 -8.3642 -13.0838
18 105.8 52.7061 -12.109 -9.8681
19 110.77 41.453 -10.604 5.129
20 111.27 54.5381 -8.3642 -13.0838
21 111.27 54.5381 -8.3642 -13.0838
22 111 44.3234 -9.4454 0
23 111 44.3234 -9.4454 0
24 118.9 61.0226 -34.9931 0
25 117.94 35.1558 -12.4682 0
26 120 102 0 0
27 123.42 73.6781 -21.6787 0
28 110 41.6 0 0
29 107.66 39.641 -12.921 -2.4318
30 110.62 51.3137 -6.7198 -2.6003
31 108.728 58.5446 -10.8088 -12.4006
32 108.728 58.5446 -10.8088 -12.4006
33 108.728 58.5446 -10.8088 -12.4006
34 108.728 58.5446 -10.8088 -12.4006
35 107.067 45.252 -7.5558 -9.512

BondBond Coeffs

1 0 1.53 1.501
2 3.3872 1.53 1.101
3 0 1.53 1.53
4 3.3872 1.53 1.101
5 11.4318 1.53 1.42
6 0 1.53 1.53
7 3.3872 1.53 1.101
8 11.4318 1.53 1.42
9 12.0676 1.501 1.417
10 -2.1113 1.457 1.457
11 0 1.457 1.412
12 -6.4168 1.457 1.006
13 -7.1131 1.42 1.42
14 0 1.42 1.3768
15 3.3872 1.53 1.101
16 4.6217 1.53 1.457
17 11.4318 1.53 1.42
18 -9.6879 1.42 0.965
19 3.3872 1.53 1.101
20 11.4318 1.53 1.42
21 11.4318 1.53 1.42
22 0 1.501 1.501
23 2.9168 1.501 1.101
24 68.2856 1.417 1.417
25 1.0795 1.417 1.0982
26 0 1.417 1.412
27 48.4754 1.417 1.3768
28 0 1.412 1.006
29 5.3316 1.101 1.101
30 12.426 1.101 1.457
31 23.1979 1.101 1.42
32 23.1979 1.101 1.42
33 23.1979 1.101 1.42
34 23.1979 1.101 1.42
35 -1.8749 1.006 1.006

BondAngle Coeffs

1 0 0 1.53 1.501
2 20.754 11.421 1.53 1.101
3 8.016 8.016 1.53 1.53
4 20.754 11.421 1.53 1.101
5 2.6868 20.4033 1.53 1.42
6 8.016 8.016 1.53 1.53
7 20.754 11.421 1.53 1.101
8 2.6868 20.4033 1.53 1.42
9 47.0579 31.0771 1.501 1.417
10 -7.2229 -7.2229 1.457 1.457
11 0 0 1.457 1.412
12 31.8096 20.5799 1.457 1.006
13 -2.8112 -2.8112 1.42 1.42
14 0 0 1.42 1.3768
15 20.754 11.421 1.53 1.101
16 6.0876 16.5702 1.53 1.457
17 2.6868 20.4033 1.53 1.42
18 28.58 18.9277 1.42 0.965
19 20.754 11.421 1.53 1.101
20 2.6868 20.4033 1.53 1.42
21 2.6868 20.4033 1.53 1.42
22 0 0 1.501 1.501
23 26.4608 11.7717 1.501 1.101
24 28.8708 28.8708 1.417 1.417
25 20.0033 24.2183 1.417 1.0982
26 0 0 1.417 1.412
27 58.479 107.681 1.417 1.3768
28 0 0 1.412 1.006
29 18.103 18.103 1.101 1.101
30 13.4582 42.4332 1.101 1.457
31 4.6189 55.327 1.101 1.42
32 4.6189 55.327 1.101 1.42
33 4.6189 55.327 1.101 1.42
34 4.6189 55.327 1.101 1.42
35 28.0322 28.0322 1.006 1.006

Dihedral Coeffs # class2

1 -0.2802 0 -0.0678 0 -0.0122 0
2 0 0 0.0316 0 -0.1681 0
3 0.1764 0 0.1766 0 -0.5206 0
4 0.7137 0 0.266 0 -0.2545 0
5 -0.6732 0 -0.4778 0 -0.167 0
6 0 0 0.0316 0 -0.1681 0
7 0.7137 0 0.266 0 -0.2545 0
8 0.7137 0 0.266 0 -0.2545 0
9 -0.5203 0 -0.3028 0 -0.345 0
10 0 0 4.4072 0 0 0
11 0 0 1.559 0 0 0
12 0 0 3 0 0 0
13 -0.1406 0 0.4168 0 0.015 0
14 0.1904 0 -0.1342 0 -0.246 0
15 0 0 2.25 0 0 0
16 0.5302 0 0 0 -0.3966 0
17 0 0 1.5 0 0 0
18 0 0 0 0 0.05 180
19 -1.1506 0 -0.6344 0 -0.1845 0
20 0 0 0 0 0.13 180
21 0 0 0 0 0.13 180
22 0.5302 0 0 0 -0.3966 0
23 -0.0228 0 0.028 0 -0.1863 0
24 -0.2802 0 -0.0678 0 -0.0122 0
25 -0.2801 0 -0.0678 0 -0.0122 0
26 8.3667 0 1.1932 0 0 0
27 0 0 3.9661 0 0 0
28 0 0 3 0 0 0
29 0 0 4.8498 0 0 0
30 0 0 2.25 0 0 0
31 0 0 0 0 0.05 180
32 0.9513 0 0.1155 0 0.072 0
33 -0.1432 0 0.0617 0 -0.1083 0
34 -0.1432 0 0.0617 0 -0.1083 0
35 -0.1435 0 0.253 0 -0.0905 0
36 -0.1432 0 0.0617 0 -0.1083 0
37 -0.1435 0 0.253 0 -0.0905 0
38 -0.5187 0 -0.4837 0 -0.1692 0
39 -0.2428 0 0.4065 0 -0.3079 0
40 -0.1435 0 0.253 0 -0.0905 0
41 0.1863 0 -0.4338 0 -0.2121 0
42 -0.1435 0 0.253 0 -0.0905 0
43 -0.1435 0 0.253 0 -0.0905 0
44 0 0 1.8769 0 0 0
45 0 0 1.7234 0 0 0
46 0 0 0 0 0.158 180
47 -0.182 0 -0.1084 0 -0.7047 0
48 -0.182 0 -0.1084 0 -0.7047 0

AngleAngleTorsion Coeffs

1 0 108.4 120.05
2 -16.164 112.67 110.77
3 -27.3953 112.67 111.91
4 -29.042 112.67 111.27
5 -12.1038 111.27 105.8
6 -16.164 112.67 110.77
7 -29.042 112.67 111.27
8 -29.042 112.67 111.27
9 -19.0059 111.27 104.5
10 -14.4097 120.05 118.9
11 4.4444 120.05 117.94
12 0 120.05 120
13 -24.3818 112.444 111.91
14 -12.5567 112.444 110.62
15 0 109 120
16 -16.4438 104.5 108.728
17 0 102.969 123.42
18 0 111.91 109
19 -7.5499 111.91 110.954
20 0 111.27 102.969
21 0 111.27 102.969
22 -16.4438 104.5 108.728
23 0 108.4 110.77
24 0 111 120.05
25 -5.8888 120.05 111
26 0 118.9 118.9
27 -4.8141 118.9 117.94
28 0 118.9 120
29 -21.0247 118.9 123.42
30 0 120 110
31 0 109 110.62
32 0 102.969 108.728
33 -12.564 110.77 110.77
34 -12.564 110.77 110.77
35 -20.2006 110.77 111.27
36 -12.564 110.77 110.77
37 -20.2006 110.77 111.27
38 -10.4258 110.62 110.954
39 -15.7572 110.77 111.91
40 -20.2006 110.77 111.27
41 -10.5093 108.728 105.8
42 -20.2006 110.77 111.27
43 -20.2006 110.77 111.27
44 0.3598 117.94 117.94
45 4.2296 117.94 123.42
46 0 111.91 111.27
47 -14.0484 111.27 111.27
48 -14.0484 111.27 111.27

EndBondTorsion Coeffs

1 0 0 0 0 0 0 1.53 1.417
2 0.2486 0.2422 -0.0925 0.0814 0.0591 0.2219 1.53 1.101
3 0.1032 0.5896 -0.4836 0.0579 -0.0043 -0.1906 1.53 1.457
4 -0.319 0.4411 -0.7174 1.1538 0.8409 -0.9138 1.53 1.42
5 -0.58 0.9004 0 0 0.5343 0.9025 1.53 0.965
6 0.2486 0.2422 -0.0925 0.0814 0.0591 0.2219 1.53 1.101
7 -0.319 0.4411 -0.7174 1.1538 0.8409 -0.9138 1.53 1.42
8 -0.319 0.4411 -0.7174 1.1538 0.8409 -0.9138 1.53 1.42
9 -0.2456 1.0517 -0.7795 0.4741 1.2635 0.5576 1.53 1.42
10 0 0.2421 0 0 -0.6918 0 1.501 1.417
11 0 -1.797 0 0 -0.4879 0 1.501 1.0982
12 0 0 0 0 0 0 1.501 1.412
13 -0.0128 -0.0495 -0.1079 0.0997 -0.0046 -0.2657 1.457 1.53
14 0.0628 0.0873 -0.0882 -0.5892 0.714 0.3505 1.457 1.101
15 0 0 0 0 0 0 1.457 1.417
16 -0.162 0.1564 -1.1408 -0.6054 1.3339 0.9648 1.42 1.101
17 0 0 0 0 0 0 1.42 1.417
18 0 0 0 0 0 0 1.53 1.412
19 -0.9466 0.9356 -0.5542 0.057 0.0625 0.4112 1.53 1.006
20 0 0 0 0 0 0 1.53 1.3768
21 0 0 0 0 0 0 1.53 1.3768
22 -0.162 0.1564 -1.1408 -0.6054 1.3339 0.9648 1.42 1.101
23 0 0 0 0 0 0 1.501 1.101
24 0 0 0 0 0 0 1.501 1.417
25 -0.5835 1.122 0.3978 1.3997 0.7756 0 1.417 1.101
26 -0.1185 6.3204 0 -0.1185 6.3204 0 1.417 1.417
27 0 -6.8958 0 0 -0.4669 0 1.417 1.0982
28 0 0 0 0 0 0 1.417 1.412
29 0 0.2655 0 0 4.8905 0 1.417 1.3768
30 0 0 0 0 0 0 1.417 1.006
31 0 0 0 0 0 0 1.412 1.101
32 0 0 0 0 0 0 1.3768 1.101
33 0.213 0.312 0.0777 0.213 0.312 0.0777 1.101 1.101
34 0.213 0.312 0.0777 0.213 0.312 0.0777 1.101 1.101
35 0.9681 0.9551 0.0436 0.5903 0.6669 0.8584 1.101 1.42
36 0.213 0.312 0.0777 0.213 0.312 0.0777 1.101 1.101
37 0.9681 0.9551 0.0436 0.5903 0.6669 0.8584 1.101 1.42
38 -1.1685 0.9266 -0.0993 0.085 0.3061 0.2104 1.101 1.006
39 0.196 0.7056 0.112 0.1022 0.209 0.6433 1.101 1.457
40 0.9681 0.9551 0.0436 0.5903 0.6669 0.8584 1.101 1.42
41 -1.7554 1.3145 0.2263 0.2493 0.6803 0 1.101 0.965
42 0.9681 0.9551 0.0436 0.5903 0.6669 0.8584 1.101 1.42
43 0.9681 0.9551 0.0436 0.5903 0.6669 0.8584 1.101 1.42
44 0 -0.689 0 0 -0.689 0 1.0982 1.0982
45 0 -1.5867 0 0 4.2641 0 1.0982 1.3768
46 0 0 0 0 0 0 1.457 1.42
47 1.0165 0.7553 -0.4609 1.0165 0.7553 -0.4609 1.42 1.42
48 1.0165 0.7553 -0.4609 1.0165 0.7553 -0.4609 1.42 1.42

MiddleBondTorsion Coeffs

1 0 0 0 1.501
2 -14.879 -3.6581 -0.3138 1.53
3 -15.4174 -7.3055 -1.0749 1.53
4 -21.8842 -7.6764 -0.6868 1.53
5 1.2472 0 0.7485 1.42
6 -14.879 -3.6581 -0.3138 1.53
7 -21.8842 -7.6764 -0.6868 1.53
8 -21.8842 -7.6764 -0.6868 1.53
9 -5.9288 -2.7007 -0.3175 1.42
10 0 9.1792 0 1.417
11 0 3.9421 0 1.417
12 0 0 0 1.417
13 -8.0036 -7.7321 -3.064 1.457
14 -6.4529 -6.8122 -1.1632 1.457
15 0 0 0 1.412
16 -6.8007 -4.6546 -1.4101 1.42
17 0 0 0 1.3768
18 0 0 0 1.457
19 -2.2208 0.5479 -0.3527 1.457
20 0 0 0 1.42
21 0 0 0 1.42
22 -6.8007 -4.6546 -1.4101 1.42
23 0 0 0 1.53
24 0 0 0 1.501
25 -5.5679 1.4083 0.301 1.501
26 27.5989 -2.312 0 1.417
27 0 -1.1521 0 1.417
28 0 0 0 1.417
29 0 4.8255 0 1.417
30 0 0 0 1.412
31 0 0 0 1.457
32 0 0 0 1.42
33 -14.261 -0.5322 -0.4864 1.53
34 -14.261 -0.5322 -0.4864 1.53
35 -16.7975 -1.2296 -0.275 1.53
36 -14.261 -0.5322 -0.4864 1.53
37 -16.7975 -1.2296 -0.275 1.53
38 -3.4611 1.6996 -0.6007 1.457
39 -10.4959 -0.7647 -0.0545 1.53
40 -16.7975 -1.2296 -0.275 1.53
41 0 0.9241 -0.5889 1.42
42 -16.7975 -1.2296 -0.275 1.53
43 -16.7975 -1.2296 -0.275 1.53
44 0 4.8228 0 1.417
45 0 5.5432 0 1.417
46 0 0 0 1.53
47 -17.2585 -3.6157 -0.8364 1.53
48 -17.2585 -3.6157 -0.8364 1.53

BondBond13 Coeffs

1 0 1.53 1.417
2 0 1.53 1.101
3 0 1.53 1.457
4 0 1.53 1.42
5 0 1.53 0.965
6 0 1.53 1.101
7 0 1.53 1.42
8 0 1.53 1.42
9 0 1.53 1.42
10 2.5085 1.501 1.417
11 0.8743 1.501 1.0982
12 0 1.501 1.412
13 0 1.457 1.53
14 0 1.457 1.101
15 0 1.457 1.417
16 0 1.42 1.101
17 0 1.42 1.417
18 0 1.53 1.412
19 0 1.53 1.006
20 0 1.53 1.3768
21 0 1.53 1.3768
22 0 1.42 1.101
23 0 1.501 1.101
24 0 1.501 1.417
25 -3.4826 1.417 1.101
26 53 1.417 1.417
27 -6.2741 1.417 1.0982
28 0 1.417 1.412
29 -2.2436 1.417 1.3768
30 0 1.417 1.006
31 0 1.412 1.101
32 0 1.3768 1.101
33 0 1.101 1.101
34 0 1.101 1.101
35 0 1.101 1.42
36 0 1.101 1.101
37 0 1.101 1.42
38 0 1.101 1.006
39 0 1.101 1.457
40 0 1.101 1.42
41 0 1.101 0.965
42 0 1.101 1.42
43 0 1.101 1.42
44 -1.7077 1.0982 1.0982
45 2.0517 1.0982 1.3768
46 0 1.457 1.42
47 0 1.42 1.42
48 0 1.42 1.42

AngleTorsion Coeffs

1 0 0 0 0 0 0 108.4 120.05
2 -0.2454 0 -0.1136 0.3113 0.4516 -0.1988 112.67 110.77
3 -1.9225 -1.345 0.221 2.0125 0.944 -2.7612 112.67 111.91
4 0.5623 -0.3041 -0.4015 0.9672 -0.7566 -1.2331 112.67 111.27
5 -3.5903 2.5225 0.4888 0.8726 -0.3577 0.3888 111.27 105.8
6 -0.2454 0 -0.1136 0.3113 0.4516 -0.1988 112.67 110.77
7 0.5623 -0.3041 -0.4015 0.9672 -0.7566 -1.2331 112.67 111.27
8 0.5623 -0.3041 -0.4015 0.9672 -0.7566 -1.2331 112.67 111.27
9 -2.7466 1.4877 -0.8955 0.5676 0.945 0.0703 111.27 104.5
10 0 -4.4683 0 0 3.8987 0 120.05 118.9
11 0 -0.1242 0 0 3.4601 0 120.05 117.94
12 0 0 0 0 0 0 120.05 120
13 1.2031 1.3645 -0.7071 -2.7883 1.5193 1.4796 112.444 111.91
14 -1.3582 0.1465 -0.5729 -2.6321 0.9353 -0.8398 112.444 110.62
15 0 0 0 0 0 0 109 120
16 -0.7777 0.434 -0.6653 -1.8234 1.6393 0.5144 104.5 108.728
17 0 0 0 0 0 0 102.969 123.42
18 0 0 0 0 0 0 111.91 109
19 -3.343 4.4558 -0.0346 0.2873 -0.8072 -0.096 111.91 110.954
20 0 0 0 0 0 0 111.27 102.969
21 0 0 0 0 0 0 111.27 102.969
22 -0.7777 0.434 -0.6653 -1.8234 1.6393 0.5144 104.5 108.728
23 0 0 0 0 0 0 108.4 110.77
24 0 0 0 0 0 0 111 120.05
25 0.2251 0.6548 0.1237 4.6266 0.1632 0.0461 120.05 111
26 1.9767 1.0239 0 1.9767 1.0239 0 118.9 118.9
27 0 2.5014 0 0 2.7147 0 118.9 117.94
28 0 0 0 0 0 0 118.9 120
29 0 10.0155 0 0 1.7404 0 118.9 123.42
30 0 0 0 0 0 0 120 110
31 0 0 0 0 0 0 109 110.62
32 0 0 0 0 0 0 102.969 108.728
33 -0.8085 0.5569 -0.2466 -0.8085 0.5569 -0.2466 110.77 110.77
34 -0.8085 0.5569 -0.2466 -0.8085 0.5569 -0.2466 110.77 110.77
35 2.3668 2.492 -1.0122 -0.1892 0.4918 0.7273 110.77 111.27
36 -0.8085 0.5569 -0.2466 -0.8085 0.5569 -0.2466 110.77 110.77
37 2.3668 2.492 -1.0122 -0.1892 0.4918 0.7273 110.77 111.27
38 -3.9582 2.0063 0.3213 -0.4294 -0.4442 -0.6141 110.62 110.954
39 0.5111 1.6328 -1.0155 -1.1075 0.282 0.8318 110.77 111.91
40 2.3668 2.492 -1.0122 -0.1892 0.4918 0.7273 110.77 111.27
41 -3.406 1.6396 0.0737 0 -0.281 -0.5944 108.728 105.8
42 2.3668 2.492 -1.0122 -0.1892 0.4918 0.7273 110.77 111.27
43 2.3668 2.492 -1.0122 -0.1892 0.4918 0.7273 110.77 111.27
44 0 2.4501 0 0 2.4501 0 117.94 117.94
45 0 1.8729 0 0 2.5706 0 117.94 123.42
46 0 0 0 0 0 0 111.91 111.27
47 0.5511 0.9737 -0.6673 0.5511 0.9737 -0.6673 111.27 111.27
48 0.5511 0.9737 -0.6673 0.5511 0.9737 -0.6673 111.27 111.27

Improper Coeffs # class2

1 0 0
2 0 0
3 0 0
4 0 0
5 0 0
6 0 0
7 0 0
8 0 0
9 0 0
10 0 0
11 0 0
12 0 0
13 0 0
14 0 0
15 0 0
16 0 0
17 0 0
18 0 0
19 0 0
20 0 0
21 0 0
22 0 0
23 0 0
24 7.8153 0
25 4.8912 0
26 0 0
27 13.0421 0
28 0 0
29 0 0
30 0 0

AngleAngle Coeffs

1 2.0403 -1.8202 1.0827 108.4 110.77 111
2 1.0827 -1.8202 2.0403 110.77 108.4 111
3 0.2738 -0.4825 0.2738 110.77 110.77 107.66
4 0.2738 -0.4825 0.2738 110.77 110.77 107.66
5 2.4286 0.5381 -2.5301 110.77 111.91 110.62
6 0.1689 2.5926 3.9177 111.27 110.77 108.728
7 0.2738 -0.4825 0.2738 110.77 110.77 107.66
8 3.9177 2.5926 0.1689 110.77 111.27 108.728
9 3.9177 2.5926 0.1689 110.77 111.27 108.728
10 0.1689 2.5926 3.9177 111.27 110.77 108.728
11 0.1689 2.5926 3.9177 111.27 110.77 108.728
12 0 0 0 111 111 111
13 2.3794 3.0118 2.3794 111 111 107.66
14 -0.3157 -0.3157 -0.3157 107.66 107.66 107.66
15 2.4321 2.4321 -3.5496 107.66 110.62 110.62
16 2.4259 2.4259 2.1283 107.66 108.728 108.728
17 2.4259 2.4259 2.1283 107.66 108.728 108.728
18 -1.3199 -1.3199 0.1184 112.67 110.77 110.77
19 -0.833 -0.833 -3.5744 112.67 111.27 111.27
20 0.1689 2.5926 3.9177 111.27 110.77 108.728
21 -1.3199 -1.3199 0.1184 112.67 110.77 110.77
22 -0.833 -0.833 -3.5744 112.67 111.27 111.27
23 0.1689 2.5926 3.9177 111.27 110.77 108.728
24 0 0 0 120.05 120.05 118.9
25 0 0 0 118.9 117.94 117.94
26 0 0 0 118.9 120 120
27 0 0 0 118.9 123.42 123.42
28 0 0 0 112.444 109 109
29 0 0 0 110.954 109 110
30 0 0 0 110 110 107.067

Atoms # full

283 1 4 0 3.5978569863525944 9.50337242477636 3.8696258109168657 0 0 0
278 1 4 0 4.469053371872793 8.159766040102326 5.612347541250096 0 0 0
277 1 4 -0.1268 2.189970000420531 8.731581947106928 5.690633319329503 0 0 0
280 1 4 0 2.336847339854897 9.52476122985145 4.543822766983755 0 0 0
276 1 4 0 3.221451770738459 8.007819418046617 6.21766704656138 0 0 0
45 1 5 0.1268 4.594396748157316 4.9061220371073055 3.217320845522887 0 0 0
274 1 1 -0.106 2.9351715169493118 7.13626712891646 7.405454493400459 0 0 0
50 1 5 0.1268 6.471145055450471 3.263531505250171 3.7551609230846976 0 0 0
116 1 8 -0.4974 5.506964440942021 7.4181178741599325 6.276914342068643 0 0 0
114 1 6 0.2487 5.1480124464437305 6.653552451257714 6.847285992542339 0 0 0
49 1 4 -0.1268 6.471028715376005 3.8246123556511624 2.8202102514253538 0 0 0
117 1 5 0.053 3.5462778900892102 6.238131255492091 7.318948046444287 0 0 0
15 1 4 0 9.53446501846777 2.507983185777844 3.0440167743419537 0 0 0
281 1 4 0 4.640755120257921 8.825657850142498 4.4245741899576565 0 0 0
227 1 6 0.2487 6.229684017198755 7.176285806921119 5.6710888553883185 0 0 0
361 6 1 -0.159 7.118673422410598 3.133196878663181 7.749430163771343 0 1 0
356 6 4 0 6.314126872757569 3.750280326677467 8.942364446026868 0 1 0
359 6 6 0.2487 8.430658868423041 5.053469465585195 8.289576927700619 0 1 0
157 1 5 0.053 4.064377215529678 8.172975867438666 8.983530813408757 0 0 0
113 1 1 -0.159 3.0690544495573584 7.629653987012319 8.833317863560236 0 0 0
357 6 8 -0.4974 8.080376903382444 5.381023035354813 9.217025163530366 0 1 0
354 6 4 0 6.80837919175786 4.902100905138706 9.554319274287565 0 1 0
447 1 1 -0.159 6.085286629636923 8.973827565926221 4.03377373760755 0 0 0
351 6 4 0 5.181367272299895 3.0831070655195107 9.367116066128606 0 1 0
222 7 5 0.053 8.169755395803758 6.30424664501492 4.049690809991035 -1 0 0
193 7 9 -0.266 8.877201633666052 5.3887041171094445 5.83570781622749 -1 0 0
223 7 1 0.027 9.041615728215433 5.780000426119262 4.503980926996477 -1 0 0
47 1 4 -0.1268 5.502614073211798 4.770843933275766 2.668047509882128 0 0 0
56 1 1 -0.106 8.379588230900866 2.3287178771091233 2.025415445719159 0 0 0
443 9 5 0.053 2.7344252213659974 3.471614101053935 2.2798543831518323 1 1 1
360 6 5 0.053 8.16524521912342 3.262405244898294 7.547994855356073 0 1 0
158 1 5 0.053 2.3155692283226923 8.460063840353722 8.882103806598984 0 0 0
224 7 5 0.053 9.592464634565584 5.1125600786284675 3.7325093749981226 -1 0 0
363 6 5 0.053 6.956330068277144 2.0404240388896318 7.66784587053702 0 1 0
177 1 4 0 7.533496638632917 3.6011544750517857 1.9134678699769339 0 0 0
40 1 5 0.053 2.373251375888226 8.805441897761462 1.963716807162539 0 0 0
173 6 8 -0.3314 4.727010760459173 1.9107839460142992 8.697147113592688 0 1 0
41 1 1 -0.0233 3.094697137052286 9.574619056100229 1.4462201381307094 0 0 0
362 6 5 0.053 6.597069868423624 3.5578076974475854 6.818973282195946 0 1 0
17 1 4 -0.1268 9.378716138075973 2.0928580032659836 4.379907178061629 0 0 0
14 1 4 -0.1268 10.4116558554009 2.157644258323445 5.304575628765265 0 0 0
446 1 5 0.053 6.644233639421742 8.037038470048246 3.963812525258422 0 0 0
171 6 6 0.2487 5.219668567690059 1.6234238749229033 7.899800241561949 0 1 0
452 8 5 0.1268 9.534336309843434 9.269069090971318 8.712704592206052 0 0 0
164 6 5 0.053 2.6086405472440886 2.3769445157999387 10.228380130196081 0 1 0
473 9 1 0.027 1.7761069640809624 3.944998698962677 1.899574371546195 1 1 1
576 2 5 0.053 3.521125497427664 2.6726662782681743 4.859044186168868 0 1 0
115 1 5 0.053 2.8494061528168464 6.887611750340997 9.579081734327966 0 0 0
13 1 4 -0.1268 10.779423297845192 3.0422393246293136 2.6662986846402483 0 0 0
174 1 4 0.0265 5.704754257217676 5.729606295910366 1.6141647649242934 0 0 0
273 1 5 0.053 1.9196023197152838 6.74066480184653 7.22082247252948 0 0 0
371 6 4 0.0265 15.139340654136337 12.42333217615102 8.206738679528947 0 0 0
379 7 3 0.08 9.802858717474356 6.46032365718845 5.579440227428288 -1 0 0
18 1 5 0.1268 8.377030201701192 1.7313423376326509 4.736662635647123 0 0 0
57 1 5 0.053 7.7155642125021515 1.4601925970443785 2.282533852034343 0 0 0
189 3 5 0.053 9.228845612753123 8.893155003754313 2.562510410529952 0 0 0
16 1 5 0.1268 10.208728663580835 1.9934176979267508 6.3802343806374475 0 0 0
572 2 5 0.053 4.761746333568351 2.2966845878151747 6.080748466146088 0 1 0
347 6 4 0 4.436342443364454 3.7688269142514637 10.331604187816035 0 1 0
450 1 5 0.053 6.602619562677604 9.82328621584924 4.54376371397132 0 0 0
183 3 5 0.053 9.016150517914625 7.41518662434618 1.670792493491244 0 0 0
286 1 6 0.2487 4.854941261076528 10.196254222239101 2.343483312689485 0 0 0
285 1 8 -0.3314 3.8543326839212853 10.17817398244299 2.5704741729900356 0 0 0
187 3 1 -0.106 9.515511001536467 8.436253763220263 1.5866624646216583 0 0 0
355 6 6 0.2487 8.21377385777276 6.334433219752997 9.485450549398054 0 1 0
24 2 4 -0.1268 19.449102024674616 12.512347055385101 9.724697686652846 0 -1 1
466 9 9 -0.266 2.019771991727585 5.365168623664372 4.118933880326477 1 1 1
179 3 5 0.1268 10.758565153183568 6.0981995602547325 1.6743439895350203 0 0 0
448 1 5 0.053 6.246957134323493 9.322332901593725 2.9752007203374435 0 0 0
407 6 5 0.053 5.797427747275143 8.308544251079065 10.222614942620993 0 1 0
378 7 5 0.053 9.499084197415774 7.491532859212594 5.809457407789688 -1 0 0
507 2 5 0.053 2.061297808943559 2.9348129581326257 7.802372580805646 1 0 1
545 2 1 -0.159 3.936005024655756 1.8209704754019362 5.501794839237846 0 1 0
546 2 5 0.053 3.1453655401611402 1.463659530488187 6.2094982079991174 0 1 0
159 6 5 0.053 1.9114954602857719 4.65593796446471 9.655498882271283 0 1 0
259 1 5 0.053 12.853617775413062 13.17117620668195 2.1155629967182548 0 0 0
453 8 4 -0.1268 10.252382198850313 9.454901887071658 9.49872992107718 0 0 0
185 3 4 0 11.021131797440086 8.290782360782961 1.5808119151073827 0 0 0
275 1 5 0.1268 19.592785122154414 8.732967123836307 6.191503778270586 -1 0 0
53 1 5 0.1268 10.950610667680955 3.253716270365487 1.6444098091793609 0 0 0
471 9 5 0.053 19.40328245138963 3.234347453304234 1.6387216805137748 0 1 1
456 8 4 -0.1268 10.375689719529598 8.515385597655966 10.52840812088177 0 0 0
128 3 4 -0.1268 12.789382739419459 6.689414339877444 1.7153312138543086 0 0 0
292 5 5 0.053 12.936601369063142 5.070849224598598 9.679262443946996 -1 0 0
529 2 5 0.053 19.656236582444446 4.186446221016471 6.827612931828994 0 0 1
472 9 3 0.08 19.54846753735846 4.545669075540963 3.227129896939371 0 1 1
126 3 5 0.1268 13.051997351949526 5.5899823424257375 1.7826876564643535 0 0 0
270 9 5 0.053 19.432757405594252 6.813429873644665 2.8537495513521476 0 1 1
575 8 4 0.0265 11.188347800931435 10.549068509527316 9.473877467993413 0 0 0
269 9 1 0.027 19.211361650858787 5.940925028493653 3.4757895079673498 0 1 1
432 7 5 0.053 11.571369350492233 5.187606041671405 5.665025462726578 -1 0 0
271 9 5 0.053 18.397611474876925 6.211445832378668 4.203272594246913 0 1 1
474 9 5 0.053 18.971077374103302 3.754791152553494 3.8041301678395594 0 1 1
251 3 3 0.08 16.15589457579872 5.091693236998456 1.659325957707909 0 0 0
391 7 5 0.1268 15.152566264096885 7.9255932598473775 9.804321111776073 -1 0 0
528 2 1 0.027 19.511354713035725 3.146527191861659 7.239250883929416 0 0 1
133 3 5 0.053 14.688710787159888 5.652772890057882 3.2202541593459957 0 0 0
527 2 9 -0.266 19.086585109329267 2.0933487552730035 6.336611242295584 0 0 1
342 7 4 0 17.709734756894374 7.310931405323265 9.632106668098013 -1 0 0
11 1 4 -0.1268 11.846690455762104 3.115750896568235 3.5598564846957266 0 0 0
12 1 4 0.0265 11.64833929248973 2.6859006038589186 4.92345672521958 0 0 0
336 7 5 0.053 17.688592558165972 5.702298517424706 8.121771652190997 -1 0 0
531 2 3 0.08 18.262509919625543 2.4605007737495885 7.500748242733291 0 0 1
533 2 5 0.053 17.35205510511318 2.9522513917421165 7.0998205126417036 0 0 1
390 7 4 -0.1268 14.858243471796747 7.40823711820751 8.86966230164481 -1 0 0
430 7 1 0.027 11.349590023202337 6.2631758363900785 5.781158331525605 -1 0 0
380 7 10 -0.1595 11.688154789484855 6.66521055044229 7.097957020354225 -1 0 0
384 7 4 0.0265 13.061014396928728 6.666553913059223 7.29242776712638 -1 0 0
387 7 5 0.1268 13.774324151939478 5.658708150343049 5.51589239050912 -1 0 0
388 7 4 -0.1268 14.041046530529512 6.136343541511184 6.460822101459591 -1 0 0
335 7 5 0.1268 16.152795187478127 5.861252399782728 6.114534238387558 -1 0 0
392 7 4 -0.1268 15.377242527108804 6.229649530223535 6.81472544881765 -1 0 0
291 5 9 -0.266 13.94163823758004 3.539467013967582 8.641979694517659 -1 0 0
334 7 4 0 15.845930398027333 6.821865134356978 7.9753788968435035 -1 0 0
428 7 5 0.053 11.865184613036158 6.887666916834696 4.999931664227279 -1 0 0
386 7 4 -0.1268 13.485291458945673 7.317779368771959 8.46045132065684 -1 0 0
337 7 1 -0.106 17.346288497552077 6.823688842558592 8.251638241672975 -1 0 0
382 7 5 0.1268 12.748474997098105 7.67313466280436 9.172155439328225 -1 0 0
10 1 5 0.1268 12.889544061542031 3.347934506091128 3.3475476896021856 0 0 0
338 7 5 0.053 17.93765623000287 7.275299000845376 7.459360118497535 -1 0 0
373 6 5 0.053 13.818569517187463 8.322768704503705 5.031384596348655 0 0 0
294 5 1 0.027 12.87768962544982 2.908238772762659 9.320347165267286 -1 0 0
297 5 5 0.053 11.853545088745534 3.0229963807246216 8.874810404095577 -1 0 0
9 1 10 -0.1595 12.70636642587697 2.4493463278723437 5.775678091017459 0 0 0
106 1 5 0.053 17.013407585826307 1.7503239794578849 4.6532503170881645 0 0 1
5 1 5 0.053 15.254975061058728 2.056725896941367 5.871623137835253 0 0 0
343 7 4 -0.1268 18.009131421787533 8.661351847606415 9.884016933565691 -1 0 0
249 5 5 0.053 13.050581062475928 1.8979541229841026 9.741295423016004 -1 0 0
131 3 1 0.027 15.477212236646126 6.110735048808875 2.615592264907587 0 0 0
248 3 5 0.053 16.975325756833946 4.502533889445572 2.1066651641505 0 0 0
570 8 5 0.053 11.189282679750024 10.157347400807826 6.510768823624957 0 0 0
530 2 5 0.053 17.063369686747095 1.8108740076405845 9.278972160904708 0 0 1
532 2 1 0.027 17.78748334180702 19.69909220951112 8.515701623747805 0 -1 1
134 3 5 0.053 16.276474634347256 6.289164498030454 3.342679959081812 0 0 0
372 6 1 0.027 14.522472060889774 9.147814715425937 5.108275759757451 0 0 0
368 6 3 0.08 14.654135944711173 9.928546423955687 6.347508103091255 0 0 0
375 6 5 0.053 15.359155251449387 8.935936206812798 4.491032674716301 0 0 0
97 1 7 0.4241 14.227566015954322 1.659088560996684 7.946851430951325 0 1 0
339 7 5 0.1268 17.9923439437491 9.265766385205046 8.967942223438822 -1 0 0
483 1 5 0.053 18.59108112313117 9.565616463508182 4.13635857401561 -1 0 0
123 5 3 0.08 13.471683988293268 4.153369335452361 9.842133084452527 -1 0 0
366 6 5 0.053 13.942737048407148 9.715687285073395 7.132659294219003 0 0 0
365 6 5 0.053 16.82493625827712 9.885430918512121 6.824045755185438 0 0 0
180 3 4 -0.1268 11.4811263247092 6.9698988116814675 1.6493450470064304 0 0 0
130 3 4 0.0265 13.774036504700728 7.714554373213424 1.9067398152257296 0 0 0
19 1 5 0.053 18.93403434822458 1.5983888602662506 3.4524317501731194 0 0 1
225 1 5 0.053 14.278981656197294 19.695271951380516 2.606615479812895 0 0 0
104 1 5 0.053 16.61215959820958 1.5340162295549506 2.9498294346832252 0 0 1
129 3 10 -0.1595 15.113814222123164 7.42498242039631 2.149982368321142 0 0 0
136 3 4 -0.1268 12.003962885125633 9.325556288515063 1.6820024950946562 0 0 0
135 3 4 -0.1268 13.363257558171618 9.076592813974836 1.767728328687939 0 0 0
191 3 5 0.1268 11.524432622180122 10.300331237458211 1.5176892331125444 0 0 0
566 8 5 0.053 9.733767731326944 10.884434444287045 7.050379332181937 0 0 0
141 2 5 0.053 6.315791327576249 10.744598280012715 10.07383310091447 1 -1 1
138 2 5 0.053 6.6093555572747595 11.306521301597506 7.635661458802062 1 -1 1
316 4 5 0.053 3.8768404896925133 16.96689478175516 1.5103719428514741 0 -1 1
88 4 5 0.053 2.5382190031954694 12.580726359035513 1.8748882018860382 0 0 1
137 3 5 0.1268 14.022601299737374 9.86009708983603 1.9822746400689821 0 0 0
73 2 7 0.4241 7.675865895239834 13.391235453187466 9.178453119239506 0 0 0
247 6 2 0.08 5.710028373617979 18.548606350376392 10.507615702719184 0 0 0
244 6 1 -0.0233 4.573763244312548 19.00721281977921 9.592303552609403 0 0 0
252 6 1 0.027 7.00580938418172 18.12555222230145 9.775133633567036 0 0 0
464 4 6 0.2487 4.539872540939443 13.529220992789654 2.4946836704298896 0 -1 1
142 2 1 0.027 5.679929563758651 11.576078044095844 9.619424398598293 1 -1 1
539 2 5 0.053 5.363829596589683 19.41832001617312 4.021223923980365 0 0 0
98 2 5 0.053 3.708622909352324 18.87562430245021 3.8145467262576505 0 0 0
421 6 4 -0.1268 9.760608303424242 17.647545490970195 8.894121249576266 0 0 0
140 2 2 0.08 6.4772068853449705 12.118485698374863 8.362261596003124 1 -1 1
254 2 5 0.053 6.430355400884517 13.277559497822043 6.5486568588044705 1 -1 1
258 2 5 0.053 4.855848863578532 12.905366590126915 7.0845911103821475 1 -1 1
540 2 6 0.2487 6.683323066506967 17.88922000010925 3.476335723126628 0 0 0
547 2 6 0.2487 7.700149563426714 16.736617673410137 4.158911986214034 0 0 0
151 4 5 0.053 7.196753555552194 11.98298606217804 2.2040083065888556 0 -1 1
152 4 1 -0.159 6.6221327463709425 12.742202432304001 2.7448181772745643 0 -1 1
156 4 6 0.2487 8.933597782669178 12.998838172856601 2.950549119572486 0 -1 1
65 2 4 0 6.031271404614279 17.08426830402356 5.294475785294665 0 0 0
542 2 8 -0.4974 7.044740997465684 17.4995661650026 4.364485148931552 0 0 0
46 2 5 0.053 8.605006210812732 16.174807876932178 6.173564956025531 0 0 0
64 2 4 0 4.83858509260126 17.82771004308557 5.385110258770041 0 0 0
48 2 5 0.053 7.812099897141034 14.70994062812347 5.702356969554807 0 0 0
67 2 4 0 6.308405282854322 16.103384182260264 6.2861667256780684 0 0 0
69 2 1 -0.159 7.756830502545824 15.556095018327696 6.3945060636945135 0 0 0
44 2 5 0.053 7.999055887243169 15.205054477363719 7.406620967439791 0 0 0
70 2 4 0 5.343199024010307 15.615385259273266 7.215972717856705 0 0 0
63 2 1 -0.106 4.479438103418721 19.109598762072288 4.567191324802916 0 0 0
66 2 4 -0.1268 3.854592216558729 17.25559174427142 6.233060691905075 0 0 0
72 2 8 -0.3314 5.584875970083938 14.54007480716624 8.119843491423298 0 0 0
68 2 4 0 4.0258391380775045 16.156526017901612 7.0914466728632926 0 0 0
74 2 6 0.2487 4.811810254009091 14.490363601227067 8.713957149434165 0 0 0
257 2 1 -0.0233 5.775997600387598 13.264056052174526 7.4679957521402285 1 -1 1
100 2 5 0.1268 2.8823647030486184 17.69371588227222 6.280062967037608 0 0 0
150 4 5 0.053 5.551034104295993 12.382468931982507 2.8441308073054508 0 -1 1
71 2 1 -0.106 2.8041517273358343 15.781526277069466 7.912444746709621 0 0 0
327 4 8 -0.4974 9.137353860219157 13.73437633669906 2.3086524694044477 0 -1 1
322 4 4 0 6.781942935465201 14.082865079174518 2.101812740961382 0 -1 1
139 2 11 -0.5571 7.788143590134882 12.508984598902888 8.829450836237928 1 -1 1
143 2 10 -0.1595 4.400104147045459 11.064470594179372 9.317379794798544 1 -1 1
459 6 5 0.053 6.647378748629247 17.520063871520726 8.915530140307242 0 0 0
420 6 5 0.1268 9.331695628174586 18.511338021108067 8.344509383375712 0 0 0
320 4 4 0 5.656062654584632 14.911515528655942 1.7758686041411706 0 -1 1
325 4 4 0 8.100607458294409 14.539761435842616 1.9399497076409624 0 -1 1
245 6 5 0.053 4.128352045196785 18.193270870564152 8.992130819719597 0 0 0
101 2 5 0.053 2.452197991027986 16.622339704639863 8.489662305588993 0 0 0
317 4 8 -0.3314 4.335470951079161 14.439505657543403 2.119137781498011 0 -1 1
253 6 5 0.053 7.423892908174143 19.08869350460384 9.500569312911757 0 0 0
146 2 4 0.0265 3.3887690998463245 11.697106602469804 9.93431650876551 1 -1 1
318 4 7 0.4241 1.6711816148340868 14.640566104342128 2.8543580475675943 0 -1 1
462 6 4 0.0265 9.20585267727289 17.079105667155183 10.075377334575618 0 0 0
242 6 5 0.053 3.7676766378149016 19.180435907157186 10.335175066427329 0 0 0
144 2 5 0.053 5.631705339293323 12.495240386149908 10.255653507788713 1 -1 1
154 4 5 0.053 6.96501074161502 12.820240851456836 3.7517564995806123 0 -1 1
289 1 5 0.053 1.667513474739335 12.119399500803263 4.674547214864409 0 0 0
75 2 5 0.053 3.0561052794997074 15.08902326797285 8.734730031827091 0 0 0
564 8 9 -0.266 10.647242993877185 12.27597168518874 4.860913135259985 0 0 0
329 4 6 0.2487 10.057441279773714 14.101168314806642 2.315864420937922 0 -1 1
267 1 4 0 14.546300981886867 15.303309714001049 1.720295811565248 0 0 0
204 2 1 -0.159 1.7176950682467802 15.087623834399436 7.042366654039336 0 0 0
202 2 5 0.053 2.144641654505941 14.074094607346828 6.7138824976718015 0 0 0
148 2 4 -0.1268 2.2440211173764317 11.908310431710834 9.183097898383078 1 -1 1
381 4 5 0.053 9.95670751655411 17.42987645228396 2.8333995325790413 0 -1 1
145 2 5 0.1268 2.2219304685863954 11.371860513859676 8.224377082331635 1 -1 1
512 4 5 0.053 10.589013032546434 15.774198017984194 2.9673524690731745 0 -1 1
383 4 1 -0.159 10.52753131264575 16.662333782635592 2.337610625917063 0 -1 1
574 8 5 0.1268 12.752047450736619 11.594943193609067 10.409734953264696 0 0 0
451 8 5 0.053 9.714382182605872 13.613830004133138 6.355856596953752 0 0 0
89 1 1 -0.106 14.451495870453908 19.079664718273456 1.663695990566974 0 0 0
279 1 5 0.053 19.419291839585597 10.637064262046172 3.0449070739706654 -1 0 0
282 1 1 -0.106 19.4625232105103 10.26389974380402 4.093555177490014 -1 0 0
2 1 5 0.053 16.387677340361243 18.08974736505502 6.241593695278501 0 -1 0
94 1 5 0.053 17.207876005641637 16.395316223258455 5.315492460149162 0 0 0
37 1 6 0.2487 15.778431153503234 13.578856404591932 4.182083032109748 0 0 0
370 6 9 -0.266 14.004076566852643 10.485469542461196 5.150539863842804 0 0 0
107 1 11 -0.5571 19.083730203458877 18.256763291231465 4.659852676129645 0 -1 1
91 1 4 0 15.507361430394496 17.368866011990868 3.356787022609981 0 0 0
218 6 4 0 13.898470114852529 14.878609948906508 8.784490515717051 0 0 0
32 2 4 -0.1268 17.54363694114987 16.724310866004238 9.283747652864328 0 -1 1
288 1 5 0.053 18.339382549322934 12.13340633713447 4.552990057616592 -1 0 0
559 4 11 -0.5571 19.695214936716926 14.307866186187104 2.0031199555800736 -1 0 1
28 2 5 0.1268 18.71910767712569 12.795705786255 8.976384899790787 0 -1 1
99 1 5 0.053 14.929357787191691 17.299759647173964 5.7664677543195175 0 -1 0
571 8 1 0.027 10.806281199396219 11.134116874695069 7.070531695854459 0 0 0
188 6 4 -0.1268 14.99250790588495 12.876988790629415 9.494543248157429 0 0 0
577 8 4 -0.1268 12.05943173008292 10.755363367010935 10.52941719662298 0 0 0
105 1 1 -0.0233 17.00996479385652 19.33546164636371 3.7994739620251052 0 -1 1
4 1 2 0.08 14.724231355243331 19.43488844420124 6.210081927793034 0 -1 0
7 1 5 0.053 13.296166735127116 19.260923586588255 4.490653116104379 0 -1 0
8 1 1 0.027 13.316748514293737 19.512839465760337 5.584074532781644 0 -1 0
3 1 1 -0.0233 15.502051371540562 18.21911667769013 5.628255013128719 0 -1 0
424 6 4 0 11.808853859265598 16.294796959646796 9.407718069612647 0 0 0
422 6 5 0.1268 11.515562890513102 17.74072299934146 7.76201865260366 0 0 0
506 1 5 0.053 1.6207723859259033 17.97402057995385 2.367790857242063 1 -1 1
205 2 5 0.053 1.5008591880367632 15.669814890352269 6.164282162785919 0 0 0
287 1 1 -0.159 19.178295054172143 11.487057621673879 4.898961396674672 -1 0 0
425 6 4 -0.1268 14.108111430551805 14.425244555649307 7.487482681967724 0 0 0
582 1 5 0.053 18.507801829106743 17.03122683557223 2.4739081191129504 0 -1 1
508 2 5 0.053 17.204819307583787 19.059062652851512 7.949885243110577 0 -1 1
374 6 4 -0.1268 14.620155205659575 13.180433132434555 7.154163964044747 0 0 0
369 6 10 -0.1595 15.845068340464191 11.235826460153776 8.03373016702994 0 0 0
367 6 1 0.027 15.943651683593071 10.590396562293616 6.789823626932597 0 0 0
1 1 11 -0.5571 14.712242549759598 19.23325185946195 7.596173445847051 0 -1 0
569 8 1 0.027 10.648550771213399 13.379823744848718 5.821944967251413 0 0 0
568 8 3 0.08 11.379291696338669 12.191544549062103 6.089486799543968 0 0 0
567 8 5 0.053 11.177175494588008 14.290463707728563 5.519424316598593 0 0 0
203 2 5 0.053 19.179704580235942 15.025680807886404 7.719879035964661 -1 0 0
534 2 10 -0.1595 18.72164214517898 18.939008367931084 9.310856995212776 0 -1 1
33 2 4 -0.1268 17.4355266169352 15.511921022676912 9.908446878533507 0 -1 1
426 6 5 0.1268 13.705134040685724 15.094033573326794 6.670733157844447 0 0 0
111 1 4 0 14.731339584248927 17.66371567939296 2.1573773377896774 0 0 0
489 1 5 0.053 19.26553276654542 11.359025138449018 5.992826720070645 -1 0 0
184 6 5 0.1268 15.429989695392555 12.277283336445745 10.319989181527276 0 0 0
96 1 7 0.4241 19.150550453562268 18.822152404454112 5.419959882878669 0 0 0
504 1 1 0.027 18.81301677110116 18.052441011582406 2.3557103214574697 0 -1 1
155 1 8 -0.4974 15.434074557107097 13.676188302580586 3.2403729305612345 0 0 0
109 1 4 0 15.214847031063055 15.013600591749046 2.9080960388395694 0 0 0
573 8 10 -0.1595 11.285493690523964 11.427870742745716 8.362782479146038 0 0 0
153 1 6 0.2487 14.743370897147186 12.967308475230084 2.9361049163735116 0 0 0
92 1 1 -0.159 16.583609966701527 15.605053448657914 4.87285087784447 0 0 0
535 2 5 0.1268 16.876703653287336 16.919667693491874 8.360326229539613 0 -1 1
565 8 5 0.053 12.476224327065967 12.18001346429244 6.056719131098566 0 0 0
376 6 5 0.1268 14.613788102045126 12.899558877993298 6.0650441203979595 0 0 0
427 6 5 0.053 13.75697398376975 16.557228515877892 10.127638406417942 0 0 0
364 6 5 0.053 16.244930351773135 11.399592695875734 6.102171763078597 0 0 0
423 6 4 -0.1268 11.07105491718927 17.266228517174756 8.661114219325745 0 0 0
219 6 1 -0.106 13.292180954439 16.239549220118576 9.218311569287916 0 0 0
93 1 5 0.053 16.098668715160738 15.294978043881954 5.824220218357144 0 0 0
6 1 5 0.053 12.760499616425381 18.76092776525071 6.082348887411579 0 -1 0
36 2 5 0.1268 16.84954145392775 14.75965610269764 9.389506535536988 0 -1 1
95 1 8 -0.1654 15.92395764153383 18.38501877561051 4.255145556693318 0 0 0
217 6 4 -0.1268 11.038938818916217 15.520606697810369 10.356818074839587 0 0 0
221 6 5 0.053 13.580897204507865 17.06305646599283 8.507378716189411 0 0 0
389 4 5 0.053 11.487010292173643 17.173507529916403 2.2506986249417866 0 -1 1
112 1 4 0 15.734535823814193 16.05180062141747 3.6984669988596175 0 0 0
216 6 4 -0.1268 14.265421449590972 13.976250689567202 9.808937458397741 0 0 0
108 1 2 0.08 18.457569611956405 18.959330896338088 3.5945562160266014 0 -1 1
26 2 4 0.0265 18.428024903269783 17.693172731919272 9.87579612834935 0 -1 1
38 1 5 0.053 17.335908758447243 14.877599530033043 4.640062989451783 0 0 0
349 6 4 0 6.123117434027724 5.535966160446739 10.55527931458217 0 1 0
284 7 5 0.1268 17.724977933437128 5.319479834549734 10.536711015455015 -1 0 0
110 1 5 0.053 12.307364346559744 19.315875197767454 1.5482394702087632 0 0 0
584 9 5 0.1268 4.582997747751247 5.445521366807062 15.357403550524257 1 1 0
470 9 4 -0.1268 3.324125026362821 5.352867294298964 17.160483806846734 1 1 0
585 9 4 -0.1268 4.251105990006488 4.8720130046821915 16.21138600912506 1 1 0
516 9 4 0 4.79590529776725 3.607826058288913 16.18803867233982 1 1 0
468 9 5 0.1268 3.0107318583740916 6.357929013994311 17.15860130322441 1 1 0
562 9 5 0.1268 7.301712070753656 5.2918335892103165 15.32568098301968 1 1 0
469 9 4 0.0265 2.969043060904154 4.448808928032592 18.2306565652061 1 1 0
331 9 4 -0.1268 3.6030931890877818 3.2138543429618815 18.259405352083274 1 1 0
523 7 1 0.027 3.3636073211758326 8.807140564029648 15.133118435310005 0 0 0
120 1 5 0.1268 6.928756064714787 6.107247561086421 18.20708166318607 0 0 -1
127 1 5 0.1268 8.43695897552806 4.348557325265425 18.480992604748128 0 0 -1
522 7 5 0.053 2.6045116593912434 7.940711000159994 15.160028748048548 0 0 0
477 9 4 -0.1268 7.854555653970547 4.3538701188908195 15.59856834309994 1 1 0
176 1 4 -0.1268 6.779030511737394 5.543496947304192 19.076666808301788 0 0 -1
475 9 4 0 7.16614106171406 3.1481704932969654 15.566524735001998 1 1 0
513 9 5 0.053 5.654025216176675 3.81402560716955 14.143172961510796 1 1 0
515 9 1 -0.106 5.71015122190021 3.1467040792441088 15.060334645695681 1 1 0
170 1 5 0.053 3.1374513103536823 8.568815738623188 17.960348441677105 0 0 -1
61 3 5 0.1268 8.089032244653382 8.301761557639416 15.348931921680698 0 0 -1
60 3 4 -0.1268 8.340484587779489 8.88706765781814 16.24692173006592 0 0 -1
333 9 4 -0.1268 4.481754866014152 2.824330022381843 17.265704601358543 1 1 0
479 9 4 -0.1268 9.184494137022952 4.377826449316521 15.981627496297602 1 1 0
192 3 5 0.1268 8.6997130578464 7.281987635042625 17.684310248304016 0 0 -1
190 3 4 -0.1268 8.653849468354737 8.325680774089326 17.526846496901808 0 0 -1
341 6 5 0.1268 4.474626418156151 5.310459115214204 11.9083067252735 0 1 0
478 9 4 -0.1268 7.806535923950738 2.022527017589794 16.021468801116335 1 1 0
526 7 5 0.053 4.297438726858693 8.638769232279177 15.648826571190726 0 0 0
314 1 5 0.053 9.196760807021388 4.379946575330456 13.153136770107967 0 0 0
311 1 1 0.027 10.134846699921104 4.003618614879679 12.763335237133363 0 0 0
330 9 5 0.1268 3.613820590354918 2.5211653678837536 19.1124144637317 1 1 0
480 9 4 -0.1268 9.08894127321423 2.040939909440772 16.477599241378798 1 1 0
186 3 4 0 9.020246356851173 9.025062496800501 18.655049113360523 0 0 -1
172 1 5 0.053 5.479356789608668 7.509590562935235 17.928372076861653 0 0 -1
345 6 1 -0.106 6.604897172596781 6.735072314881584 11.376956126319724 0 1 0
340 6 5 0.053 6.6264587202045755 6.405374458521065 12.3883521612012 0 1 0
54 3 5 0.053 9.140801665154626 9.405788346820094 13.699766602377021 0 0 -1
521 7 3 0.08 3.0867621983983886 9.924686638955471 14.24444615137907 0 0 0
519 7 9 -0.266 2.7135679905884533 10.08109562527311 15.605867634270483 0 0 0
344 6 4 -0.1268 4.9465456370307646 4.883627216349887 10.977632179485989 0 1 0
401 6 5 0.053 5.871655070643355 8.67601624597635 11.990782922187591 0 1 0
346 6 5 0.053 7.643848458124674 6.971701551391102 11.160651989465332 0 1 0
43 1 2 0.08 3.948841035723031 8.991361029193989 18.67938698101935 0 0 -1
514 9 5 0.053 5.442733734827955 2.079085943377808 14.725368680613274 1 1 0
563 9 5 0.1268 9.683953260735846 5.41654276463916 15.8369858938937 1 1 0
226 5 5 0.053 2.32221306746091 3.288156960886612 13.88024699034822 0 0 0
229 5 1 -0.106 1.6334004260875608 2.5801488630312273 14.37867765893081 0 0 0
403 6 1 -0.159 5.645137261744892 7.869206400659616 11.194080776603935 0 1 0
399 6 5 0.053 4.566853151994259 7.6528236191986245 11.410548387949499 0 1 0
228 5 5 0.053 1.5861043218798956 2.914364430141117 15.418373071289714 0 0 0
166 6 5 0.053 2.9607905305469453 2.944986138381841 11.874975720689685 0 1 0
465 4 5 0.053 5.1291666506756854 18.12790040683661 19.554343981527932 0 -1 0
518 7 5 0.053 2.292029991847912 9.9817580034558 12.218096546623595 0 0 0
161 6 5 0.053 2.3619121031418064 5.118603373478649 11.170644791903326 0 1 0
460 8 5 0.053 10.560999875475124 7.746610451375724 13.224339012689034 0 0 0
482 9 4 0.0265 9.853324331193967 3.213940956128951 16.453870894200165 1 1 0
272 9 5 0.1268 4.9903297598936085 1.8018905271989938 17.35919653190191 1 1 0
52 3 5 0.053 7.352792310784679 9.76858132821108 13.714600288665952 0 0 -1
162 6 1 -0.159 1.9740561989513399 4.302855257813542 10.652956263468681 0 1 0
520 7 1 0.027 1.8831761910078286 9.9568145208429 13.21007505708564 0 0 0
168 1 1 0.027 5.070209769889261 7.859139072877923 18.885910709677848 0 0 -1
312 1 3 0.08 10.310972930703784 2.718146567197414 12.086210649931536 0 0 0
315 1 5 0.053 9.362484471243384 2.1750153564908326 11.850952526585397 0 0 0
175 6 7 0.4241 6.153894547841964 1.9396803997704075 11.0777153443044 0 1 0
165 6 1 -0.106 3.024750904485514 3.2345367130340614 10.822334681032077 0 1 0
124 1 4 -0.1268 7.624109822581563 4.464509461426061 19.198710957213816 0 0 -1
81 3 5 0.053 8.270505241259883 10.58872079876424 11.482253376498866 0 0 -1
39 1 11 -0.5571 4.607031594880793 10.087969846444455 18.09801242840707 0 0 -1
449 1 7 0.4241 3.9392164782256986 10.41190787406031 17.506725460001576 0 0 -1
467 9 10 -0.1595 2.056890335657204 4.869876949986404 19.17152377811309 1 1 0
132 1 5 0.053 8.774147091952324 2.0168608950985183 19.4161294337475 0 0 -1
42 1 5 0.053 2.411950132866803 10.273661709024838 19.30174168446701 0 0 -1
313 1 9 -0.266 10.37347420595816 4.008668784567341 11.378997756414934 0 0 0
308 1 5 0.053 10.950025279162547 4.3917546034137676 13.331959395376632 0 0 0
549 8 5 0.053 11.35630161389428 6.6225599126333226 12.217785853634162 0 0 0
212 8 5 0.053 18.541041294536516 8.781125083375187 18.902974545436468 0 0 0
580 8 4 0 11.32145415658192 8.655841506126578 11.506857425878344 0 0 0
581 8 1 -0.106 11.47007519510451 7.6440234332316415 12.657966227671166 0 0 0
358 7 10 -0.1595 19.437906010294814 8.714086590348082 13.281021026375795 -1 0 0
484 9 10 -0.1595 11.152070848411329 3.15338285122316 16.874718184401743 1 1 0
121 5 1 0.027 14.330648437042294 4.1742377993775985 11.16195464587275 -1 0 0
290 7 5 0.1268 18.692551473781663 6.015084106347818 12.5539928043785 -1 0 0
241 5 10 -0.1595 14.953391612341376 2.956162013376021 11.574576623507156 -1 0 0
353 7 4 0.0265 18.870866104847373 8.239705005167515 12.078438670209403 -1 0 0
214 8 5 0.053 19.19767648671899 7.933664967052436 16.59441005361185 0 0 0
236 5 5 0.1268 18.259519277612004 4.660704648578919 14.339667998756381 -1 0 0
239 5 4 -0.1268 16.571253715538894 3.917031168710066 13.198456990855862 -1 0 0
493 9 5 0.053 13.485215765602737 1.8374187930284984 16.560296132476978 1 1 0
492 9 1 0.027 14.135566723463594 2.585546101020853 16.167516948183053 1 1 0
235 5 4 -0.1268 17.820050333294894 3.82956593908072 13.831497614120133 -1 0 0
208 8 1 0.027 17.159830824106017 7.337154100088195 15.861547563205988 0 0 0
487 9 1 0.027 11.973430674573693 4.216250136198873 16.317206598824864 1 1 0
419 8 5 0.1268 14.073911740802378 7.029256711880606 11.999904946661934 0 0 0
418 8 4 -0.1268 13.93238471414598 7.347328520037754 13.045216477493748 0 0 0
414 8 4 0.0265 14.8864351829222 7.753725393889334 15.221610612542756 0 0 0
417 8 4 0 12.672537983749091 7.712309417179019 13.52177292036149 0 0 0
416 8 5 0.1268 16.007494716572374 7.179270977522566 13.376550291899017 0 0 0
415 8 4 -0.1268 15.062123223938512 7.389317194400235 13.835877505818448 0 0 0
413 8 10 -0.1595 15.890949501084819 7.966243957005595 16.12141245295147 0 0 0
455 8 4 -0.1268 12.509607193350346 7.91244164385549 14.926814906354345 0 0 0
412 8 4 -0.1268 13.59457289474367 8.038761516363934 15.741844875677975 0 0 0
238 5 4 0.0265 16.038454884139703 2.912165338112484 12.410135953810647 -1 0 0
454 8 5 0.1268 11.471427529098458 8.256590344444644 15.263570823958428 0 0 0
411 8 5 0.1268 13.450766161642708 8.371053652260969 16.781817984773795 0 0 0
206 8 5 0.053 17.118107359589814 6.239084300075801 15.868701628501329 0 0 0
352 7 4 -0.1268 18.53310018833714 6.88737288083123 11.844569951412518 -1 0 0
233 5 4 0 18.543861769208796 2.6829900193206475 13.812655117664754 -1 0 0
490 9 3 0.08 13.564410492228713 3.952280322986892 16.069385207794596 1 1 0
494 9 5 0.053 15.147473989237017 2.291250013855543 16.34396161696548 1 1 0
211 8 3 0.08 18.21710127736337 7.745889272948677 16.952178942975344 0 0 0
209 8 5 0.053 17.63179904818129 7.566289489003067 14.946087450136432 0 0 0
491 9 5 0.053 11.845930314063388 5.105616778238529 16.874669819931906 1 1 0
486 9 9 -0.266 13.763244760869213 3.111415170384089 14.893143901114998 1 1 0
240 5 5 0.1268 15.938250878373246 4.84995456978907 13.083835991510119 -1 0 0
210 8 1 0.027 17.793740689226524 8.285331964504085 18.364310337782513 0 0 0
350 7 4 -0.1268 18.646950806907814 9.104907560354363 11.008067934770066 -1 0 0
213 8 9 -0.266 18.150279628189733 6.918487666839545 18.11993001445968 0 0 0
485 9 5 0.053 11.515693859744616 4.4891142930950725 15.36634531490662 1 1 0
122 5 5 0.053 13.493340071027776 4.390819308638797 11.839442970574604 -1 0 0
488 9 5 0.053 14.256471190388133 4.820144434571214 16.101265938229236 1 1 0
578 8 4 -0.1268 12.100212086900692 9.77432279524455 11.473165285860341 0 0 0
579 8 5 0.1268 12.82998760142127 9.90022241983323 12.350970928557441 0 0 0
207 8 5 0.053 16.683967727866722 8.463246579696463 18.466028742281953 0 0 0
119 5 5 0.053 15.107574998143454 5.033481619329368 11.2349720748228 -1 0 0
496 1 5 0.1268 16.98653798102123 1.516918391487627 17.5035371576955 0 0 0
429 4 5 0.053 14.712565023745945 9.976328152488335 14.548572548688663 -1 0 0
517 7 5 0.1268 18.8559819426853 10.13337311298748 10.999503353421733 -1 0 0
103 3 5 0.053 15.423264005308491 5.929737266656641 18.08920593406173 0 0 -1
125 3 9 -0.266 15.199247278731908 4.2575502646671595 19.3058845196971 0 0 -1
87 1 5 0.053 13.014051768492665 2.0170254752560695 18.546398457536856 0 1 -1
160 6 5 0.053 19.272586718562767 4.030696783210935 10.910815600914834 -1 1 0
102 3 5 0.053 16.738722136777323 4.644098304352715 17.84130296657601 0 0 -1
250 3 1 0.027 16.03868230360814 5.12104915232452 18.52483851161834 0 0 -1
461 6 10 -0.1595 7.951889560619745 17.41582565803823 10.592216779213171 0 0 0
524 7 5 0.053 19.55291753301584 10.719266686090975 13.496169538353158 -1 0 0
234 5 4 -0.1268 16.743901613029927 1.6718832617734245 12.352014980054758 -1 0 0
232 5 4 -0.1268 17.90519527105108 1.5777841995965896 13.105039264093426 -1 0 0
309 1 5 0.053 12.381302365426757 2.43059046886798 11.74206252972803 0 0 0
348 7 4 -0.1268 18.01767175589027 6.396034886579435 10.605361420435836 -1 0 0
220 6 5 0.1268 11.62995264789433 14.785447235618491 10.978311920607972 0 0 0
481 9 5 0.1268 9.481654111764588 19.466018576421845 16.974562048609993 1 0 0
525 7 5 0.053 3.8780314662233515 10.603652939583522 13.981818082661798 0 0 0
332 4 5 0.053 10.240125273468566 15.41685611132756 18.88949795275365 0 -1 0
323 4 4 -0.1268 7.2579018753615205 16.55080366932375 19.468943100907968 0 -1 0
476 9 5 0.1268 7.31198186158292 19.33553483312678 15.940070606027053 1 0 0
444 5 5 0.1268 3.8347012300845336 1.6082820275212242 13.20080755623603 0 0 0
231 5 4 0 2.102512066578579 19.50166397706073 14.380752769589666 0 -1 0
55 3 1 0.027 8.345389558361498 10.261353821458796 13.634688322966745 0 0 -1
243 6 11 -0.5571 5.848662077147771 19.496150630504133 11.517908855487294 0 0 0
58 3 4 0.0265 8.520281427426632 10.2307345341448 16.099952921600668 0 0 -1
178 3 5 0.1268 9.123914571230731 11.166296086399482 19.260357382087 0 0 -1
256 6 5 0.1268 9.329005818225294 15.582055994614658 11.562752563482803 0 0 0
182 3 4 -0.1268 9.065608186092074 10.399670354643254 18.460745559394056 0 0 -1
445 5 4 -0.1268 3.271013945009649 19.098219786193603 13.654219014116729 0 -1 0
59 3 10 -0.1595 8.471577910317095 10.945121284421727 14.898418458614854 0 0 -1
319 4 1 -0.106 4.811361097111585 17.11681421646351 19.26330747542425 0 -1 0
149 2 4 -0.1268 3.356287892708557 12.124598609341255 11.298273592254048 1 -1 1
201 5 4 -0.1268 1.433733596846373 18.48657944309475 15.121994676311223 0 -1 0
79 3 3 0.08 8.509931871050654 11.16927301106803 12.374666048639845 0 0 -1
181 3 4 -0.1268 8.80953090949842 11.003490705381717 17.26418029266935 0 0 -1
147 2 5 0.1268 4.228403651086094 11.956110462676666 11.877074971561795 1 -1 1
77 3 9 -0.266 7.797392524504702 12.41316757186417 12.271492933173542 0 0 -1
78 3 1 0.027 9.183330208051185 12.404741047332545 12.10389258340343 0 0 -1
76 3 5 0.053 9.72530107439817 13.093490249648893 12.770928547949023 0 0 -1
404 5 4 -0.1268 1.8174696715006027 17.155375220043133 15.099983735381318 0 -1 0
541 5 5 0.053 5.4444194261698655 12.38744048278263 16.206938055699794 0 -1 0
51 3 5 0.1268 8.764424430279293 12.095183011667212 17.176423761827387 0 0 -1
583 4 5 0.053 3.6976393693025464 17.8565125578219 17.528834440477123 0 -1 0
548 5 5 0.053 3.81369040041542 13.193932548866274 15.853339108181865 0 -1 0
406 5 1 0.027 4.848430072081582 15.371708608042177 14.111745028543845 0 -1 0
405 5 3 0.08 5.584268985437262 14.028914362052184 14.62392671951636 0 -1 0
544 5 1 0.027 4.883993534716625 13.090295508437062 15.55205445896306 0 -1 0
543 5 9 -0.266 5.134053196842267 12.766576087343942 14.1466425912625 0 -1 0
402 5 10 -0.1595 3.471636045133905 15.500535544749392 14.411088150763067 0 -1 0
510 4 1 -0.159 4.5598968807536995 17.18947847658781 17.749899781848864 0 -1 0
199 4 9 -0.266 7.967210037776604 16.645208203140715 15.771483759954702 -1 0 0
82 4 5 0.053 4.095291372929838 13.449309383430945 18.487786893725744 0 0 0
511 4 5 0.053 5.326305794787204 17.688424371257412 17.315164670705094 0 -1 0
408 5 5 0.053 5.500003779650515 16.1635338186628 14.532694350627713 0 -1 0
400 5 4 0.0265 2.998867666528583 16.812647396040198 14.346858483618128 0 -1 0
509 4 5 0.053 4.302534450256598 16.31447561498527 17.127956489320784 0 -1 0
538 5 5 0.053 6.642212550615683 14.180069426353128 14.834397054047818 0 -1 0
410 5 5 0.053 4.942809989467656 15.424041861675924 13.029924930660828 0 -1 0
561 4 1 0.027 1.5036528514867487 13.022964208421067 18.274479574086133 0 0 0
537 4 5 0.053 2.165785904515377 12.36698726557886 17.61283313183954 0 0 0
552 4 5 0.053 3.3168311387895413 15.085138147092021 18.71314021180045 0 0 0
397 5 4 -0.1268 3.7244463499897167 17.783078319128386 13.61310379683155 0 -1 0
396 5 5 0.1268 4.630376581195307 17.55584343639487 13.077210843583385 0 -1 0
198 4 5 0.053 9.14072488972846 18.25852657884287 14.829332261770686 -1 0 0
196 4 1 0.027 8.827596794790958 17.218746670481806 14.749558195022514 -1 0 0
197 4 3 0.08 9.326985192654128 16.172643405523587 15.640726663903683 -1 0 0
194 4 5 0.053 8.533267120040083 16.982119561608933 13.701780240026915 -1 0 0
409 5 5 0.1268 19.703487311713765 16.434919240183042 15.820297757917064 -1 -1 0
84 4 1 -0.0233 3.528755156212268 14.077145996816986 19.210336109085876 0 0 0
25 2 4 -0.1268 2.245183903013717 12.796897220007589 11.824956141110528 1 -1 1
27 2 5 0.1268 2.3218616621055217 13.103111913889084 12.868712861136613 1 -1 1
200 4 5 0.053 9.986033151090476 16.597363892883877 16.382994101993372 -1 0 0
299 1 4 0 14.62220231074368 16.81945939470644 14.462700985759358 0 -1 0
324 4 5 0.1268 7.498697426427366 17.541151862835623 19.03240567824804 0 -1 0
377 1 5 0.053 11.449717230956653 19.307515283399688 11.568323324207526 0 -1 0
21 2 5 0.1268 19.638618170475727 15.70064677583964 12.486290707983558 0 -1 1
385 4 5 0.053 9.863500791657941 17.158289932036084 18.652357120128244 0 -1 0
398 4 5 0.053 8.793601278802353 14.259389459758918 15.05414312989671 -1 0 0
80 3 5 0.053 9.503361637848052 12.510592671281886 11.088422528664532 0 0 -1
20 2 5 0.1268 1.5326652030327665 18.052562723121323 11.502182114391427 1 -1 1
195 4 1 0.027 9.69950712723206 14.74137148585953 15.388262869145843 -1 0 0
328 4 1 -0.106 9.755355204208094 16.31219732949034 19.36219617554217 0 -1 0
321 4 4 0 5.935795811914402 16.127606178527493 19.549907783816657 0 -1 0
442 4 4 0.0265 11.62111884344742 13.747046277163781 14.278177888087038 -1 0 0
246 6 5 0.053 5.478392854287767 17.601908563265443 11.037098978752367 0 0 0
215 6 5 0.1268 14.12818716594944 14.329283364985457 10.828882463547911 0 0 0
550 4 5 0.1268 14.706901625890788 10.76941806096013 16.88901502970295 -1 0 0
264 1 5 0.053 12.490145749149958 12.806259771932401 18.743969482826518 0 0 -1
22 2 4 -0.1268 19.166662055829825 17.32126415182295 10.968833086933294 0 -1 1
90 4 5 0.053 19.565483723481556 13.876071275673455 17.576394005244435 -1 0 0
310 1 1 0.027 11.584272058784338 1.8357624161516735 12.128074203358892 0 0 0
30 2 4 0 18.12002042866144 15.123537025255569 11.047774551033855 0 -1 1
263 1 1 -0.159 12.709004879469322 13.595060601051633 19.461157571776226 0 0 -1
23 2 4 -0.1268 19.0119533241759 16.060614171858393 11.5797297084393 0 -1 1
265 1 5 0.053 11.826111584014434 14.20970944072752 19.49594197131808 0 0 -1
301 1 4 -0.1268 12.679296858391124 18.24834527492905 15.000329636028022 0 -1 0
237 5 5 0.1268 19.061250365702097 18.911420815817536 15.802696160857279 -1 -1 0
83 1 5 0.053 12.92709104824079 18.539921243108882 18.444383938224917 0 0 -1
438 4 4 -0.1268 12.763631447168287 14.1320868691643 13.51838310123579 -1 0 0
298 1 4 -0.1268 13.597751264332528 17.253658306597018 15.310503938195623 0 -1 0
305 1 4 -0.1268 13.52988245455695 18.12835375578832 12.716713616330294 0 -1 0
555 4 4 0 16.00344854650733 11.387590264729962 15.367993689872767 -1 0 0
300 1 5 0.1268 11.831223781693955 18.455144953083888 15.681857832639997 0 -1 0
560 4 4 -0.1268 18.17208427766276 12.165207328705913 16.143092921121415 -1 0 0
34 2 5 0.053 18.161416907634354 13.676025306263702 12.685302623225569 0 -1 1
261 1 5 0.053 14.848166835969463 13.521534622865781 19.009426883828446 0 0 -1
436 4 4 0 13.829971454767337 12.064183017412992 14.26973157425276 -1 0 0
439 4 4 -0.1268 12.699599580354315 11.757013946742363 15.044489745016708 -1 0 0
395 4 5 0.1268 10.837976438486184 12.485327813709157 15.843709934371697 -1 0 0
29 2 4 0 19.458623930348146 13.016172930301684 11.03505338915026 0 -1 1
431 4 5 0.053 15.523611267595282 11.107898867672253 13.33792649310129 -1 0 0
262 1 1 -0.106 14.05767035055579 14.280313830271348 19.07148871352595 0 0 -1
35 2 5 0.053 17.266295477162068 13.173798534474566 11.209661177973178 0 -1 1
304 1 4 0.0265 12.67729210776247 18.658876635331595 13.689784950280638 0 -1 0
394 4 10 -0.1595 10.532399165505264 14.58894252143016 14.262490414526395 -1 0 0
303 1 5 0.1268 15.325313242160009 16.83618523174524 12.439155524634389 0 -1 0
62 1 5 0.053 15.27313406390286 19.389811527555885 19.408984521659356 0 0 -1
501 1 10 -0.1595 18.220308474825913 18.629087825236354 19.576826958686617 0 -1 0
557 4 4 -0.1268 17.24417077073562 11.919959241625262 15.160133821046653 -1 0 0
31 2 1 -0.106 18.19950632766843 13.678291215409805 11.585070567695332 0 -1 1
553 4 4 -0.1268 15.691886344847958 11.23804711693836 16.67968766082513 -1 0 0
306 1 10 -0.1595 11.739824477580454 19.68961950456604 13.492467352033767 0 -1 0
435 4 4 -0.1268 13.896061154630042 13.307644506822504 13.617698731920855 -1 0 0
536 4 5 0.1268 19.17365308323998 12.42133671991666 15.922024764525451 -1 0 0
118 5 5 0.1268 16.40053134934605 19.177106554733083 11.769918626857343 -1 -1 0
441 4 5 0.1268 12.686086793569125 10.850749711232327 15.737938831037697 -1 0 0
437 4 5 0.1268 12.81558280804747 15.10413958133922 12.990100122157637 -1 0 0
440 4 5 0.1268 17.43396440783784 12.010048402839674 14.122182671011432 -1 0 0
558 4 10 -0.1595 18.6214015229164 12.303377202820686 18.54526306271481 -1 0 0
505 1 5 0.1268 18.22407821233076 15.858893850838554 18.92515173533982 0 -1 0
495 1 5 0.1268 16.14844566795091 18.827476086313524 15.568145165297246 0 -1 0
463 1 5 0.1268 17.10758937777385 14.948825604408476 16.934213210855887 0 -1 0
268 1 4 -0.1268 14.395452924205394 16.59600417235191 19.666325824841227 0 0 -1
498 1 4 -0.1268 17.09982321061539 18.752364993220297 17.469591765519866 0 -1 0
230 5 5 0.1268 18.431725810974875 18.94214269325232 13.025320922616705 -1 -1 0
500 1 4 0.0265 17.753739403716274 17.948451290756452 18.469437509221336 0 -1 0
85 1 1 -0.159 13.136173712386865 19.38388206832654 19.160420837876405 0 0 -1
433 4 5 0.1268 14.871079594837868 13.561142126777066 13.20902667277422 -1 0 0
458 1 5 0.053 16.524426011297717 16.068940949775737 14.222434704312457 0 -1 0
497 1 4 -0.1268 16.536208589467847 18.14840497311115 16.341420214996667 0 -1 0
260 1 5 0.053 13.906731049374361 14.68044990351952 18.02290141365918 0 0 -1
296 1 5 0.1268 13.643838256688303 16.8800566428328 16.316276643442265 0 -1 0
163 4 5 0.053 10.207878021833793 14.428130487606964 16.28977998416741 -1 0 0
302 1 4 -0.1268 14.521386432724933 17.23954718113067 13.172032146289483 0 -1 0
503 1 4 -0.1268 17.799504326119614 16.553432327707796 18.26359305635629 0 -1 0
295 1 1 -0.106 15.816642736757537 16.129108742105103 15.010675618068149 0 -1 0
393 4 4 -0.1268 11.658621077322701 12.597734195918528 15.068744645103873 -1 0 0
551 4 5 0.1268 16.30931571969665 11.349856161779813 18.81187901751064 -1 0 0
293 1 5 0.053 15.572671011421493 15.071951421356303 15.207822905230923 0 -1 0
554 4 4 -0.1268 16.49831231552664 11.596515745888505 17.750292564476855 -1 0 0
434 4 1 -0.106 14.994430215277903 11.058891193119031 14.30811954037183 -1 0 0
266 1 5 0.1268 13.94805940583894 16.75700363688256 18.673401769936657 0 0 -1
556 4 4 0.0265 17.781928155372857 12.032706505860725 17.464312584530123 -1 0 0
499 1 4 0 16.448976904883228 16.81884928954871 16.24387929742278 0 -1 0
307 1 5 0.1268 13.510236022615018 18.67313258388596 11.772204927755306 0 -1 0
502 1 4 -0.1268 17.059943628856338 16.027812402749014 17.203417511731175 0 -1 0
167 1 5 0.053 5.871132368841122 8.445224404807561 19.41565023301821 0 0 -1
255 6 4 -0.1268 9.842855973275748 16.039565307446438 10.73015561967655 0 0 0
86 4 2 0.08 2.208040558940433 13.43841900843577 19.589803680639108 0 0 0
169 1 10 -0.1595 4.729440205285444 6.728498855737738 19.718325336276983 0 0 -1
326 4 4 0 8.364118786805829 15.7833042672168 19.63580010381374 0 -1 0
457 8 5 0.1268 9.605543485066521 7.785181539914463 10.63137413148589 0 0 0

Velocities

283 0.0035600339580130957 -0.0004350360059909484 0.006550027172387058
278 -0.004999702745637142 -0.003019028719875617 0.0019180755190594092
277 0.0079817094308961 0.0013248208936132706 -0.004824891812134979
280 0.0019794432335293196 -0.0032245019368117816 0.0015236231413944272
276 0.005677838380814589 0.004819200226449629 -0.00288223795745686
45 0.007941204670459256 0.007964408015635294 -0.0375492520392496
274 -0.0005608121142653469 -0.0014319369760169343 0.005801737231604158
50 -0.017491368802205188 -0.003498657112641336 -0.027367219164506844
116 0.0064046925403457786 8.724234240706588e-05 -0.0006603013220516996
114 0.018017792491336306 -0.011368520563244848 0.05154828112021733
49 0.0056859076178508005 0.0004481135851837053 0.0032313083252880764
117 0.02427709748701851 0.0008204861887211135 -0.01753883812350855
15 -0.0016570257665585566 0.005218575203768631 0.0024980256369972267
281 0.0016342114980401785 0.000670384132884128 -0.003812696035579816
227 -0.0013672196736137108 -0.018588576624255636 0.01061140185133435
361 -0.0007882854151095636 0.0006682879179248069 0.003063143280590557
356 -0.0004846554524894221 -0.0011757581280482704 0.0010591612464273237
359 0.009304664111326555 0.004206158278857098 -0.002598496205032364
157 -0.0021601157560368583 0.014329522814132339 0.0027205351870499407
113 -0.004477232159837567 0.008686579481980245 -0.0034227934236460505
357 -0.0010430148117405813 0.0041110943104044045 -0.0033705166712881983
354 0.0013909238553285268 0.007138825981312088 0.0016126954330740375
447 -0.005468216878549673 -0.007881991210608195 0.006784163596733079
351 0.0005741705272189274 -0.010456982919169765 -0.007623984104444675
222 0.005424344839785574 -0.017333885937175074 -0.022564118919042937
193 0.006862595227884635 0.0047825382455301685 0.001380192183006215
223 -0.0018703802013426607 -0.0016629482388300862 -0.0003595918903778722
47 -0.004947418421632119 -0.003156906055606854 -0.009417775231319208
56 -0.0023374362883730178 0.007162708550731139 0.0014941634003180096
443 -0.009356929999429452 -0.007925029097230722 0.022346645669381042
360 -0.002388019953932752 0.008622637166092021 0.0026205513488295478
158 0.0016487570886069202 0.01980374398013592 -0.03245644842496949
224 -0.007410385561346661 0.031772432845885795 -0.004586753536384734
363 0.007623202953543719 -0.009151780657966062 -0.026560165226605998
177 -0.004054744328765788 -0.009428173225805357 -0.009723109016449943
40 -0.007920744848924282 0.02893145034489347 -0.0033309865496478266
173 0.004861116313203611 0.0008153997832237358 -0.005262663497886964
41 0.0007922095525015835 -0.010741826995012277 -0.004235772950779671
362 0.006739883577475791 0.021726403880948 0.004719902445342963
17 -0.003364094778364235 0.0016362112853396786 -0.002674020185784807
14 0.006811290321349039 0.005677934051371998 0.004694946651817347
446 0.004453281154514023 0.014314848803880027 0.014274851285926028
171 -0.009466816878274206 -0.01937291155864612 0.011938997921363135
452 -0.023525465106500672 0.03480789299100648 0.006150173068347893
164 -0.002342241389676186 -0.003138008641181695 0.010411756319307436
473 -5.535143003419268e-07 0.000370391822797239 -0.006296225181877049
576 -0.0033264866093167455 -0.013225092609758146 0.002106412295268165
115 0.001469285134308115 -0.01685173132688465 -0.002167917091264978
13 -0.006257474686094366 0.006057551201045317 0.005403143956608641
174 0.0009640421676507618 0.0034460764594323894 -0.007447418625046049
273 -0.008036736331468465 -0.004969682075909412 0.003055156690439425
371 -0.004515009035008563 0.003996423622315947 -0.003791949276715598
379 -0.003255823197209301 -0.00405235361975994 0.005211063932416707
18 -0.0006161122976045564 -0.012444488656425985 -0.010752532241768269
57 0.0009600120784279371 -0.005725831652545191 -0.010147983238870114
189 -0.008808265077788544 0.0029443334554791196 0.007768611141560969
16 0.02534275413207513 0.029130482319705144 -0.017002682362021827
572 0.024228628986341625 -0.032162393704154045 -0.013811209670305875
347 -0.0016518740954372475 -0.003937567468330164 -0.0018205774913759463
450 0.0035350558196716813 0.002099768991824848 0.020257999881990053
183 0.0163635982547943 0.0025215068654104757 0.021524752864733564
286 0.0199976382319061 0.008301531393610674 0.011199911305168155
285 0.0003835943852079255 -0.004073342969004617 -0.00929859841992302
187 0.002113241245789113 -0.003700105034129909 -0.0021539091784558467
355 0.0014457741778306041 0.004325160844910711 0.003328839474508831
24 0.012532840336419868 0.003943915419754912 -0.0014989522828620387
466 -0.0014948774163375952 0.003568201327081083 -0.0036052069260411653
179 -0.02744944164839317 -0.006761837118070461 -0.006032182406889155
448 -0.009857704722615417 0.018466334384709213 -0.012330205403573284
407 -0.007212603225066494 -0.0026202368027814786 -0.0173579082559956
378 -0.016174613821237572 0.0050958643147003945 0.020873813312575484
507 -0.004988760389370614 -0.008141391861747284 -0.021471460727123734
545 -0.008820264901612907 0.004245509349566217 -0.002531367657984229
546 0.02129467351578354 -0.0026916936682961135 0.009799314570615001
159 0.004145060903330238 -0.009959693359518448 0.0009907807069724313
259 0.02047315858412117 0.007244382249170729 -0.0018229763635250113
453 0.005020727806974862 -0.006445054336531739 0.00021731376240930654
185 -0.007258771285239722 -0.0030790821936167753 0.01272611781443761
275 0.0017445860763613133 0.01177993902815862 0.008714468913577344
53 -0.0014588150451849298 -0.040622440523925885 -0.02159417425562031
471 -0.00416570747530652 0.006330405816150399 -0.004285291064886204
456 0.0014677085339069725 -0.00269264485544632 -0.0013276667712978437
128 0.004272887709339221 -0.006946007316555376 -0.0008778465367961084
292 0.015420244897224714 -0.010645402572159252 -0.0009756533042203555
529 -0.01090873607871701 -0.01083245099658585 0.0015988406099149116
472 -0.00681269714785512 -0.0077765763554584165 -0.0019814005334238168
126 0.019605121179858853 0.016003862106880536 -0.008162029157663345
270 0.017857907990126258 0.03238178413959639 0.013665509108812228
575 0.0039673249863530335 0.006398839367059158 0.002630415900647614
269 0.0020766803208847394 -0.008123625038096216 -0.001068529712778387
432 -0.0235584385866435 -0.026456352016195867 -0.01697173960588538
271 -0.01244592095975384 0.008049377841436986 -0.034968513978348686
474 -0.009196677418093203 -0.0005979014714162465 0.00800470806072244
251 0.002250300882978746 0.011659675518901295 0.001959708308963227
391 0.0032687799952945853 -0.03201411119455665 -0.007713347791468646
528 0.01296384879200924 0.0033984900047261853 0.0038116462978930927
133 0.0001673687848893843 -0.006350618217836512 -0.004705235783828047
527 0.00017803786893271924 0.0015998199811514343 -0.0003836534788689211
342 0.00864692365140955 0.0077242943385869905 -0.003800113585545493
11 -0.008824279235637663 -0.0008029823552819985 -0.000798064971708808
12 0.0009157606088565977 -7.537769276117177e-06 -0.00035253600026872366
336 -0.027782633723790133 0.0018168886704662266 0.005255006981536104
531 0.001079515810128557 -7.085610273629248e-05 -0.001642076905070215
533 0.003463893514002036 0.0037038235386277164 0.0026233589803445877
390 0.0006014989665898637 0.004143729284586751 -0.0035430156873892216
430 -0.011285901064252866 0.0031638585498573626 -0.002819813779998967
380 -0.0031191882154063552 -0.0007824863397812254 -0.004283972259299757
384 -0.002021037460764751 -6.316718744799903e-05 0.0061969269417073225
387 0.014674463713788416 -0.010744270607583794 -0.007138029368869449
388 0.0022323558874461345 -0.002378894340933974 -0.004816925606820003
335 0.002443187273398339 0.024914824581037057 0.019768905669206402
392 -0.002938193110265554 -0.004646946431956799 0.007087266449224385
291 -0.0036119381987859893 0.004141604962251154 -0.003224822737973917
334 0.0012221490575510788 -0.0031733440469417624 0.0032550663504916006
428 0.0022957126354007976 -0.011056991874001214 0.009381842743663318
386 0.011943198946081443 0.0008785364230255769 -0.0027822700801320857
337 -0.007108489115399254 -0.0013841408171900258 -0.006507812351710593
382 -0.006332118680093699 -0.011604699628096387 -0.015631030790914144
10 -0.014667890580277095 0.011292303511177583 -0.013243699241744645
338 -0.038204524284331874 0.0032067408011626376 0.007994994797293173
373 0.005345946652464537 -0.003250291057576738 -0.004753321680715933
294 -0.0038484835883201654 -0.0022443480195030786 0.0022866435165943976
297 -0.012145581740736525 0.01388754024323262 -0.017008789743922826
9 -0.003942209062009317 7.052494068833047e-05 0.00318580514864393
106 0.0005142787773916006 0.003631507321238382 0.007493492694881882
5 0.005958304874225476 -0.005455186996328872 0.030114633445988137
343 -0.0002857716749238858 -0.0019522193003485054 0.0016184390614606373
249 -0.0026225394469549393 -0.004196421837441795 -0.015516006128255218
131 -0.0022540802548644797 0.00562055707968304 0.003561658691876936
248 -0.014813046868251033 -0.021276016317477976 -0.005134392858138523
570 0.0007411816647682236 0.0070550186086341055 0.03041077340903617
530 -0.011928054909283808 -0.027600531626156805 -0.011637908302441203
532 -0.00011586536432430083 -0.0026022556237203145 -0.0007815184618121684
134 0.015748618114937753 -0.022035394616036905 0.025734701959016445
372 0.002241848903213357 0.0027930181928057934 0.004631018342765551
368 0.0012739905664826375 0.0011617670129219133 0.00035711062787106043
375 -0.0046413885033912 0.015985073040604512 0.018342474590579784
97 0.0020045418401338196 0.0008350948586696842 -0.03191088323742091
339 0.025799806150139912 -0.005412688793013215 -0.027271913797662542
483 0.01549096634033116 0.008653827283621239 0.00661577408629757
123 -0.001357879339089109 0.00795944957789414 -0.00854163826254585
366 -0.007573238791431173 0.0036649723665298636 0.023337142628174896
365 0.011165476484075043 0.004607820042207022 -0.017487520191681014
180 0.0007458379261008992 0.004018531038366667 -0.004901897506189622
130 0.007159677658137999 -0.0017274267225510344 -0.001612908930332239
19 0.028982189796416438 -1.9043401872917248e-05 0.0038063825670380455
225 -0.014935070783925516 -0.005099374778550207 -0.012415942039022444
104 0.0189249322654979 -0.011001105525921324 -0.012723709683137357
129 -0.004895601548486304 -0.0030107729947074133 0.0038970243816833887
136 0.0018615898984131857 -0.0012981379705624477 0.004483329869699993
135 -9.014027978366896e-05 -0.003497981680054504 -0.0059573047869060465
191 -0.0038075577877897636 0.005427954398587464 -0.01698625542560724
566 0.016227554786581572 0.01811247598469129 -0.0017057481564547023
141 -0.007815527728157516 -0.01342790874791944 -0.00712566099233654
138 0.03879754690158282 -0.015985836931076396 -0.025980409580675778
316 0.021929935018734584 -0.006800554540300471 0.009576146154378679
88 0.02505482983810269 -0.01838900229136238 -0.04014669626411313
137 -0.002157063497935341 0.009519955793150405 0.011849438556995323
73 -0.009082263942633503 -0.011416084260820365 0.0054916230802844294
247 -0.0020997568897651937 0.003388350467411336 0.0060620546313997995
244 0.004264655486994976 0.0012995432473620083 -0.006859246827782187
252 0.0021582832797842 0.0014339981984806995 -0.007096552481565591
464 0.016354851555432117 -0.005101625885020203 -0.01564224987991497
142 -0.004193696561919099 0.004401696965111716 0.004144361907406051
539 0.01271216387485608 0.008574433510852604 -0.01021650500643623
98 -0.011724616014539746 -0.005453603932903433 -0.013803271250884057
421 -0.0036033469124923767 -0.007709656378723487 0.0029682914469551167
140 0.008116062607698442 0.00232261566030023 0.003310367128525356
254 0.008049650823474397 -0.0037612044946282604 -0.006273333040191463
258 -0.03556855912633473 0.01062443448249733 0.013848937384836444
540 -0.00790406152456016 0.010508013443210399 0.008342405785946045
547 -0.01955121916845994 -0.00014289893459629036 0.007125754991062097
151 0.01009989413886652 0.00035033014402398104 0.00901769934932025
152 -0.0012642815888683002 0.0008638944526158127 0.0022577825046743356
156 0.002310319022051909 -0.005664760085641207 -0.0056562015275637804
65 -0.00016244490766908532 0.00033072962506418936 0.0001914898698398913
542 -0.0027623955443256015 0.008159030580022833 0.0013029920994891858
46 0.020950785239144887 0.03894427282787155 0.020105332948062358
64 -0.007642686832574987 0.0023154898212871034 -0.002760539186951375
48 -0.032257880462928296 -0.022066956642936897 0.023681868014860094
67 -0.0031357111337811153 0.003216469022577501 0.00643491450605745
69 -0.0003777055407520424 -0.0005192134571503696 -0.00013073578444068156
44 -0.012561672341987658 -0.006189397162270555 -0.005596349943624423
70 -0.007544997282553723 0.0013593167123476108 0.0026483781118023632
63 0.0041323801604348336 -0.0016182682329009144 0.0015880174285288773
66 0.005274444810893123 0.0066331276590908435 0.0008104173225189943
72 0.0029591188364919366 0.005158480565364147 -0.004465009717406624
68 0.0035318387882853045 0.0013274831497921723 -0.003774475326049307
74 -0.0003648165089523006 -0.028643048212494124 0.0013043807617679557
257 -0.006088183463747626 -0.004079179563898179 0.0008108052762547714
100 -0.0021887611797697776 0.02075848359376997 -0.0031092608459215177
150 0.012356724643574202 -0.0035403786765582632 0.021393902976855336
71 0.0017732000612491053 0.004275946288271228 0.0022871874469726932
327 -0.004365354775086943 -0.00044339662540895095 0.0001532952254852847
322 0.004260320452027058 -0.0011390441214974183 0.000620830384554674
139 0.00034262018357397576 0.006890937622366094 0.00024281697909613322
143 -0.009840299178678853 -0.0027455185280390345 -0.004529203492936981
459 -0.026404398585145636 0.02397171106696272 0.0002620663589964177
420 0.008646071278525043 -0.0006164839958729841 0.00628618578510411
320 0.007882629362762218 -0.0005687742675537727 -0.0008434917605646074
325 0.007530444853677507 0.0016782358449242702 -0.001278694752928737
245 0.007348694261091125 0.0031390898410317745 0.02490124393121549
101 -0.016618493346287583 0.009604583605585016 -0.015058161837284392
317 -0.002025439639834706 0.005765806226219201 -0.0030582379889140697
253 0.0015125199864890152 -0.009426873542728576 -0.0162184699656521
146 -0.0009963514861679858 0.0023451774086653988 0.0015443606628772052
318 0.006889704185156027 -0.018373572251442784 -0.0001449012786720011
462 0.004498008807322405 -0.004611948681671627 0.003484085983078557
242 -0.0021610827968389884 -0.009706017938523808 -0.0008371291664236186
144 -0.021248264209350203 0.01736865680464986 0.0027860517143745113
154 -0.007849108654858203 -0.0021709162903465057 -0.019979608372873076
289 -0.012620690714861202 -0.005101135413052373 0.014568177622306108
75 -0.006231004462263171 0.023632084735923646 -0.010134068253277976
564 -0.0001700394684353729 -0.007926406113166385 0.0039391334353521485
329 -0.0036222501649556334 -0.03218026726412621 -0.012792915151151258
267 -0.003024542861399963 -0.00676695171183321 0.0045788614469903
204 0.0010604808021312368 -0.0043053595911992535 -0.0019675492218700513
202 0.02210334072298387 -0.01012063206254635 0.009286043859052321
148 -0.0009399945345462407 0.003301101700842863 0.0037156152036525313
381 -0.0005312297776371973 0.01728375259492579 -0.0014793222984526837
145 -0.015414763765619809 -0.017661718339293076 0.02026226123197309
512 0.02642205686181612 0.009564140742740647 -0.018025755244159503
383 -0.01317936874655729 -0.005872426744507118 -0.0004218641950436462
574 0.015225797024501369 -0.0045488574024706565 0.022496666315444527
451 0.005181219346054452 -0.0421465379465714 -0.02017044745960437
89 -0.004104401074475928 -0.005452416093810763 -0.001717387828123105
279 0.0055679049908243525 -0.02136281047514703 -0.003606835797974169
282 -0.0035654848737142085 -0.0023704149430166014 -0.003425283253601277
2 -0.03458479845077027 -0.0040196548391088615 0.0021100380006925813
94 -0.02357058702915154 0.004534909304912751 0.014437245384284541
37 -0.03103111040999609 -0.0024278254398537344 -0.034419535460692416
370 0.00018524229881614903 -0.002176157104734549 0.0007861441830942198
107 0.002643751580825597 -0.004647207659103181 0.0027569819324092114
91 -0.0020394072808413263 -0.005179440434850501 -0.002202291029751018
218 0.003083056010830773 0.0034595649273916934 0.009085017588808357
32 0.0014727721911038112 -0.0038404096375286374 0.0002621386518233353
288 -0.025874241990875724 -0.0023031967383710626 -0.012380344757272435
559 1.4653024317447095e-05 -0.0009871853715141647 -0.005612157585973459
28 -0.0020298786113571933 0.0047312352415331506 0.020787722702872213
99 0.00035520083659046353 0.0004451434916833569 0.011002147993864187
571 -0.0020362534307374705 -0.00039192051415328215 0.0045828770409660265
188 0.008736542154337714 0.00787437919465305 0.001134346016674814
577 0.006663375797221156 0.006969651884365171 0.007171722988511116
105 0.0011860439360330069 -0.0029464776235164016 0.00406438429592248
4 0.011807050141819073 -0.0077853123883345945 -0.003692794477686078
7 -0.00026681404792120204 0.0007063796454329397 -0.013828533027138785
8 0.0016496697888802709 0.005972920708989049 -0.00796089199284559
3 -0.00850505566175638 -0.00048160583555303087 -0.0016169490343281025
424 0.007402808874056623 -0.002536420304072001 -0.006690544730150593
422 0.010721449836904599 -0.00532123713182056 -0.005020679624608535
506 -0.03210976903414978 -0.014896407610307931 -0.017215172705412306
205 0.00824382298688579 -0.00630198266004021 -0.017435079022239414
287 -0.0017031536462179151 -0.006289030480061142 0.0005163864057200255
425 -0.00031894790791400616 -0.0013747902887868368 0.000603135493976237
582 0.023798559027184845 0.0016032273094751031 0.007364651099757642
508 -0.019261228162104793 0.011202231179635551 -0.01973252277599373
374 0.0016767408056483208 -0.007399759441591425 -0.0003964728713615616
369 -0.00675917745937279 -0.0026393512534405614 0.0006403856619292348
367 0.003811450178572967 0.006192497498120913 -0.0023865265745057415
1 0.00950968304669881 -0.001391763511516608 0.0001167579084103068
569 -0.002055110376298132 -0.001800806623007579 0.0007696325169063788
568 -0.004504178624959232 -0.004473009816305259 0.007805348075803685
567 0.0052806865219016735 0.013659101290993349 -0.0026254752511087383
203 -0.006052605024441547 0.008254486432025995 -0.027055010570612464
534 -0.0026232425504943923 -0.002444001924223087 0.004747209512724686
33 -0.006108738226434156 -0.0008590383266575919 -0.0032321674331150887
426 -0.005989478164584022 -0.018957697806302676 -0.014024043972370817
111 -0.008575659039599675 0.0026215164521379017 0.0028560791803979154
489 -0.015858178013436447 -0.005876085607814646 -0.018452375162918824
184 -0.019665313665048072 -0.021893696176327748 0.011765078443327411
96 0.010372627255119412 -0.010093381161804048 -0.013597344604301443
504 -0.006464734479552866 -9.641222416744929e-05 -0.0017363797881540244
155 0.0003902715545575961 0.005546304852793771 0.00864160808628167
109 0.003249234543278077 0.002852516444355549 0.004547135614605703
573 -0.0010148958317656867 -0.004923690697299542 0.005017590129905024
153 -0.011156735617109632 -0.00915386199321811 -0.004051302606217383
92 0.0002705533303777575 -0.008336032199755351 -0.0059558659715181995
535 -0.017555964845103335 0.011479984403012063 -0.0041336318831306515
565 0.007036260229606393 0.013440889205477355 0.021448569238937606
376 0.005431573335754776 0.0063017571393150255 0.01109195777293151
427 -0.006292219475512692 0.00826408520174007 0.006183095105517654
364 0.040906126791639956 -0.02210401017822297 0.008296190054170509
423 0.0034771392607693317 0.001235144955841584 -0.0038209769361483435
219 0.007485217322486941 -0.0025502817745917034 0.006092299328526499
93 0.018616278376172538 0.01896264681296173 0.018499533965740972
6 -0.005860154315931545 0.0057372377624340795 0.005122119116886651
36 -0.01292436129762669 0.01785311805188005 -0.0010093877478935408
95 0.0020672586467441593 0.00433046323870532 -0.0030807110870528375
217 0.005895935289471419 -0.0033917097417062434 0.00015042227278623193
221 -0.028724440454006288 -0.01169194806776447 -0.02496509225048226
389 -0.009731042097815768 0.01053811851412383 -0.014971525504411224
112 0.00170899942480263 0.0024652447790204307 -0.0034564334591230157
216 0.007679799126803096 -0.00589305277376152 0.004393450055222457
108 0.007327316211978382 0.00046158858763305585 0.0022735941968029176
26 0.002664774655302792 0.0022876493322435943 -0.009404992868633257
38 -0.009636603271197506 -0.012466369363612036 -0.004040973055156567
349 -0.0007961491407639355 0.001092343795110976 -0.0028530872273937746
284 -0.0046869172045689534 0.007329571011124153 0.00043268501001119726
110 0.009331860233221998 0.007973742744898635 0.011940141993128782
584 -0.016322013409617413 0.023818403803192244 0.014508085311316098
470 0.00634087861382638 -0.004201666793178448 -0.002501405802717307
585 0.005837450589651071 0.002166459550852835 -0.0004222129913001302
516 0.005850706538620419 8.337952596911665e-05 0.0019616170879611134
468 -0.03728293718003734 0.003650363706647257 0.022886591362646362
562 -0.00867680281070498 -0.01736216663207724 0.012199434435125322
469 -0.0003512637431458296 -0.0008886409761565148 -0.00048389182936033694
331 0.009767450308897436 -0.004136660949609493 -0.0058472211084365875
523 -0.002925672314679203 -0.007205893680001533 -0.004881458205176664
120 0.00465579939906238 0.037361023940048664 -0.003230122294708145
127 0.017484692439434003 -0.0027325910928066143 0.018601306483826383
522 0.015886586443630203 -0.016770650948578082 -0.02729437462647116
477 0.0037527314482850176 -0.008748176854175936 -0.00042738341229008487
176 0.0005784920075321869 -0.0029010587694980336 0.005383680993927254
475 -0.0018524131347967797 0.0055529578957404825 0.0011882027533110127
513 0.016059760544242657 -0.003404960575769722 0.005099884946882089
515 -0.0012291231873888878 0.0046234697148007 -0.0077672874894284
170 -0.011675353001422343 0.01903134179900289 -0.009331563019366294
61 0.014581372360330188 9.439330629155129e-05 0.011371176143043992
60 0.0011388770456223286 0.001128229143493462 -0.00014093269149225535
333 0.0008234578609466108 -0.003293574197412241 -0.0016709391744985042
479 -0.0031502646054234903 0.0017937428219112572 0.005461848033956232
192 0.011305067474116935 -0.009967459846497913 0.004544562887420332
190 0.009150933147505936 0.0011668743208889944 0.0015021905731441951
341 0.009529033658054525 0.03441877042995283 0.009826954066196318
478 -0.002167853444328836 -0.003485537392619138 0.004528270371080567
526 0.003687070608331787 -0.004601934842156828 -0.003591292676667789
314 -0.007080106287625912 -0.016071848587398845 -0.0008684857962293274
311 -0.004898214630239646 -0.0003133267269226708 -0.0005400048868661874
330 0.01988486073115951 -0.011667153758373789 8.294823395263825e-05
480 -0.0044075381879982445 -0.004321077904732014 -0.0032822836297440104
186 -0.0032210728507683366 -0.0019380371038535053 0.002297498763595441
172 -0.0114635989360817 0.0099689929310842 0.006639271937849325
345 -0.008322287774247284 0.0004469638255480767 -0.000583004061209769
340 0.006778142226234039 0.002641490202332367 -0.00908079868963227
54 0.005622639075844781 0.0016062670895952659 -0.002643369069856345
521 -0.0011148614017256466 -0.0009608103243783663 -0.001444839613551313
519 -0.000545420206472511 0.006793302013789015 -0.006366400810910498
344 -0.005819555832598714 -0.0018503449063161145 0.010079935426160522
401 -0.003041284318371446 -0.014263996199210299 0.026602969716888535
346 0.01423136355425256 -0.03549560588343202 0.006981170899220218
43 0.009044862515542627 -0.0018096134860721854 0.00680312911329024
514 0.009126290456041962 0.0360222591511923 -0.0007264318187041074
563 0.015328759439108303 0.00344315144682057 -0.002678877053224299
226 -0.02474989518694814 -0.005029117731540039 0.014894427851500157
229 0.000234364251919484 0.005102710245261557 0.004498666888587152
403 0.005577645708142161 -0.0037929253288346504 -0.0012866408816102769
399 0.003797209173079769 0.0011483382498451225 -0.009890732796705754
228 0.010500329854469996 0.02193122242552393 -0.0222068390316913
166 0.00543287808572991 0.009849263761530745 -0.018305152141163333
465 0.002032211161181358 0.009108424934474483 -0.008866359783259819
518 -0.019997905914374874 -0.0008478325435780803 -0.017999583117098462
161 0.004439854180327221 0.0002112028120248718 0.011012994631962033
460 -0.01700870720865891 -0.009943350542020526 0.02806052723394
482 0.005384934204298341 0.000644468276536438 -0.0018237391570919501
272 0.009947541622621882 -0.012412274157801951 -0.01888282003888999
52 -0.010985729944997599 -0.014932277631091345 0.018833296281087927
162 0.0029337422452893162 0.0006294568217814584 -0.002816770029491592
520 0.0026985736781457575 -0.001512477250833093 0.008170700393265812
168 -0.00825543863784214 0.004160139153899469 -0.00010687638582341307
312 0.00908426116156785 0.0031797722380177943 0.004851772341494794
315 -0.014325052420085232 0.00624749226743973 0.006511883334546305
175 -0.004626040567013552 -0.024202426744859742 0.0035520516222322888
165 0.00045508097391290785 0.0020484987124882105 -0.0006890670346228702
124 0.0023429441665378 -0.003956738088534108 -0.0029722704854207513
81 0.0015355478473036478 -0.008209288077352132 0.007420143351716882
39 -0.0017190225228683952 -0.0025459887822191145 -0.004939520610830673
449 0.0255163462530251 -0.00011015586687637116 0.007239068398497966
467 -0.001087291328982169 -0.0030295584583962727 8.183593028778008e-05
132 0.018576768555843514 0.018153331936407266 0.001662317025030281
42 0.01549307444913225 -0.003125840412072716 0.010311261864217103
313 -0.007224316911808675 0.001077515352728236 0.0006629482027691627
308 -4.1829596875877346e-05 0.006668694686865989 -0.014930897237049153
549 -0.0003865143719234778 -0.0015672470388135833 -0.012527366417938097
212 -0.008979110764180549 -0.012892983749735505 -0.023989496748730674
580 -0.003781357868355655 0.0029639724509207045 0.00010841814951170182
581 1.0659521275161007e-05 -0.003313074466267056 0.0012679969848716753
358 0.003855455854964798 0.0012104869814867376 0.002049816260176284
484 0.0026527050508514116 0.004810427673796615 0.0033084527318051377
121 -0.00011165626329807398 -0.005863746213119894 -0.0020384482208029653
290 -0.0033324702393577096 0.0037837489851101033 0.0022643049921573645
241 -0.004495563627228283 -0.00247372851196553 7.422562822707078e-05
353 -0.0006222828345741793 -0.0028416508280217517 -0.004176890620045247
214 -0.011356980469852397 0.013445023898894074 0.007013755190823569
236 -0.02535269367793038 -0.008808570162688656 0.007241395459662867
239 -0.00037297214652254475 0.0005150816599592796 -0.001937352392935611
493 0.013067040866611042 0.027721255461881006 0.012101483684869505
492 0.005703552509216693 0.0004829188053934408 4.2643162969768e-05
235 -0.008598176638132109 -0.0020952436931055887 -0.0048691707912352075
208 -0.000814602489074404 -0.0006595940429279923 0.0034657877613253887
487 0.0027358746695924758 -0.004587459065927986 -0.0021391244862479807
419 -0.0028882812480276582 0.0040673187826485244 -0.019873781210086296
418 -0.004528347498304143 -0.006476289205120206 -0.005313459820530392
414 0.0043444861032402304 -0.005080014795521232 0.009685084473735629
417 -0.0033345800833855157 0.0010523706487379056 -0.006259475434156285
416 0.02182537564742865 -0.013545159815611323 0.001331877299421974
415 -0.004601912744548227 0.0014938259435473345 0.008941150129455733
413 -0.002263192450896488 -0.005561322091873469 0.0008733892142132507
455 0.0007509408660428369 0.003206497393942684 0.010838307402441363
412 -0.0001815129153695834 0.0008853826419412755 0.0013308370694858473
238 0.015721724350385487 0.0016634538959041437 0.002887747881832222
454 0.01432736959189199 -0.0044389293790831705 -0.020701651341672435
411 0.013446125011129666 0.026797103538986934 -0.006418256322270057
206 0.010943795781271417 0.00038361379889022566 -0.01351387301953653
352 -0.001345122361151453 0.005177427816739564 -0.003386674653750198
233 0.0007955322804961722 -1.0472472159405258e-05 0.0034270853989894715
490 -0.007383296800503042 0.003990032274842595 0.003176326284725241
494 -0.011821137559896111 -0.012419152390099043 0.0009215496083870282
211 0.00014837345659404508 0.0018175823849279765 0.005728828918967106
209 0.02212653558495175 0.006946358509096537 0.005112437882890066
491 -0.0062753550035139945 0.0378259990438131 0.01233115206102298
486 0.0018668338814139122 0.0040042145559241625 0.0040831717151048495
240 -0.006603550401778271 0.01069204013178922 0.012636234615006913
210 -0.0021574882327063684 0.0035451159751909026 -0.006534832698012921
350 0.00440956135818575 0.003850235100665544 0.0005541392827985925
213 -0.008171115093661755 0.0029750023633383707 0.002268999232946336
485 0.023949119154716047 -0.01044919684093188 -0.005412011805044102
122 0.007403158260574685 -0.035762372650782734 -0.011304764224144092
488 -0.023652575643232476 -0.026632327715512258 -0.020133333318586393
578 -0.0002908473716204361 -0.00456137579659391 0.0019363777330725191
579 -0.01727450681756775 0.018591574352821362 0.010726308933729833
207 -0.005445229521527967 -0.02087305838559974 -0.008731755986444186
119 0.012759551474463183 0.012248470884888204 -0.029482061634837547
496 -0.010316719558788186 -0.0006219946160552355 -0.00546058251981348
429 -0.01404470414973389 -0.016283254252966343 -0.022853849970718147
517 0.005926150839056459 0.031331019424855604 -0.010858374103898808
103 0.00024984035524587225 0.020640949916601 0.0010358940779349166
125 0.005695622470483591 0.0032352726449163417 0.0009319283574111625
87 0.006735499871920315 0.03165179338786438 0.033292385343681404
160 0.004250279731252498 -0.027311330747731073 -0.0027071975627578626
102 0.012584937657080636 0.002186823703632302 0.026362697139650348
250 0.00584640745822598 0.007685337824865991 -0.001470774884353928
461 0.0004717621885715719 0.004344099424631424 0.004218726754301641
524 0.011236578632709535 -0.01919523879345294 0.011001750133384771
234 -0.0027949075050825454 0.007414348403184949 -0.004758499002003811
232 -0.0023861208015201548 0.005860046320163627 0.0020026168043858583
309 0.030967642211624517 0.006618816076874438 0.005429552236976559
348 -0.007261677389970734 0.0008951424309373161 -0.0043630965404733825
220 0.012992292988732947 -0.03062554672701272 0.0015756031413634935
481 0.034614810140236 0.009521748874872378 0.03293891339953098
525 0.014845288581432324 -0.003983394248887573 -0.016893023171141316
332 -0.002738738761119922 -0.002227489477395671 0.007775725041185215
323 -0.003837458957829968 0.0007020645712207363 -0.0025163930615316812
476 -0.003092469466355458 -0.009362350608938814 0.016927613037783073
444 -0.0380926178758836 0.004152706868679898 -0.007823275815558233
231 3.6503884635312215e-05 0.012190319917221885 0.0007710691251292209
55 -0.0005481437697521798 0.0018069168138364225 -0.007609104628743088
243 0.005586174390089483 0.0005231655324911754 -0.0018955481825995036
58 0.007486259686737699 -0.0015954137351342774 -0.0018212056110927274
178 0.018921462255741022 0.009725983760206409 -0.022344025726849525
256 0.04199341120849937 0.005300583953599251 0.01727115141681568
182 -0.005822051676676514 -0.0030122666804510696 -0.0004898408773861574
445 -0.0019215668784364015 0.0019591640770207914 0.005509499990150496
59 -0.002947589274827227 -0.004499989076659458 -9.239828843416199e-05
319 -0.0017647113901903535 -0.001236445246911408 -0.0028305074027001084
149 0.0029113693552747584 0.005313217842853514 -0.007018112458345958
201 0.0011055895512493722 -8.788249846791534e-05 0.00026171847558128895
79 -0.003294167355408814 -0.0016549425653201331 -0.007267552125973966
181 -0.0007325430430573186 -0.015013133325846752 0.00046456128282333653
147 -0.006045086613020482 0.013231865727931695 -0.027858022590361624
77 -0.0002773334323313102 -0.002572932233028653 0.002454919957203644
78 -0.0009296850771330625 0.0027961313527008393 -0.012428677550145827
76 -0.0029492284939031696 -0.00825462490908035 0.009534179191210603
404 -0.005165955377062871 0.0008885132692127036 0.005939525062732244
541 -0.02640439517410693 -0.0016281302217920762 0.004158370557647242
51 0.014336542603961252 -0.011342027854501223 0.012410893930442644
583 0.012046931127516407 -0.009736323078719616 0.021245335925042592
548 -0.007668050221743761 0.01521651444385159 -0.026798728288693462
406 0.009158826843145841 -0.000864886567972588 0.006456166338197452
405 -0.005825169077282174 -0.004142528320335369 -0.007891013183738513
544 -0.0017208975491698694 0.0005737919808402702 0.005244209230999437
543 -0.0024888253861095285 0.002195994466015305 -0.0017084536661688054
402 0.004513135837953108 -0.0014923300707595064 -0.004762444463502536
510 -0.0027918343958930752 -0.0004664454444337606 0.000709075175053282
199 -0.0027028282333069614 -0.002793074299764718 -0.00826626669213848
82 -0.006429249063925727 -0.005260092948913988 0.0003996261649815437
511 0.0325172037417035 -0.0020121109315373847 -0.010543154009703272
408 -0.009155752089963292 0.001733643133799939 -0.008508596547440985
400 0.00041726805398842353 -0.0007959773929287293 0.0007529208627416503
509 -0.0023708701855409053 0.007397574748266545 -0.01710963682795721
538 0.013205644720224705 0.010580286229278257 -0.0031071990215722585
410 -0.014354032956152821 0.006810260861769851 0.02332157739233501
561 0.011127714299191469 0.0017250305190933154 -0.005016453167593722
537 -0.01211527413746505 -0.006702080194672762 0.0036184452311999915
552 0.025525074604170264 0.028865364567839207 0.003763624509482962
397 -0.003514769677865498 -0.004799940812019907 0.0064528704007644384
396 0.010793961999119136 0.018653890430901744 0.0022236809301344274
198 0.005498123899126736 0.021862839076415695 -0.008374231365240124
196 -0.0030216813501907033 -0.0033453221074991974 -0.0018108484698842195
197 -0.0005938832811108784 0.0009428208740807326 0.0022941680922885536
194 -0.02230434594175643 -0.002716789500711115 -0.00966191142104075
409 -0.006117987750456556 -0.015810304678343556 -0.019570198146841095
84 -0.007113057452925162 0.0015097576019787952 0.01263818077358551
25 0.002828437378161027 0.0054301018573246086 -0.0001401647578325529
27 -0.0043472359250101384 -0.02514351528017679 -0.010288814896515711
200 0.0032394260624761667 0.01618312082931951 6.41516797100667e-05
299 -0.003028022786718704 -0.002401103911753089 0.004091063231461481
324 2.5671603962026667e-05 0.0016541985046327173 0.005300629779450694
377 0.00987700545703427 -0.022735306824383874 0.00396639853902185
21 0.01352967982460678 -0.011472954331493868 0.0038237538197598052
385 -0.002462769212613687 0.0026158294504950203 0.005575664590992094
398 -0.004607289993926957 -0.0005278998410233235 0.015378259575040888
80 -0.0032649610823117666 -0.009544710528178003 0.00391050337091278
20 0.019445992251171267 0.01806939881122372 0.021268803087338403
195 0.0032757208251246632 -0.005551562028640265 0.0002708166608115777
328 0.006204925260792718 0.001319179543986441 0.00508154783877287
321 0.004889959822073121 0.00019918491413248462 -0.006007375784678452
442 -0.0002984561557706831 0.0018990364305981585 0.0012126520034933927
246 0.007394521911074896 -0.020999186133963132 0.03570521732951147
215 -0.012016397397225254 -0.009804576017286239 0.03000678531658832
550 0.0006159118708609837 0.002532184245098383 0.004716998628131012
264 0.03551746206847533 0.01081808588454678 -0.005655002776946799
22 -0.009996677642948534 -0.009508035920991822 -0.0023734837155886903
90 0.010647839962953418 0.011400001685793519 0.009845459968517357
310 0.008724514106938926 0.0007231525551985597 -0.005844483987710936
30 -0.0001822821180536762 0.005159487619572204 0.00324670129573164
263 -0.003370799465250569 -0.0013007992253945163 0.005866074263397431
23 0.0011620773865079587 -0.0008909343834025374 -0.0017533156490157015
265 -0.02545354950417578 -0.01633824764650094 -0.007523342705670033
301 -0.000894032162854548 -0.007417439087960253 -0.0028473411089303445
237 -0.0041506265626536035 -0.0012841236647109142 0.02823531624380369
83 -0.01201494407866467 0.014182345110660346 0.013281643881644212
438 0.0029351564441773247 0.002644851906847344 -0.00583109766781828
298 -0.0013481804165306882 -0.0015368959224692396 -0.0026607241298526076
305 -0.007210591034683451 0.004649441085121957 0.00720831876990526
555 -0.003437209304963408 0.009663384073885666 -0.004123025147169832
300 -0.013297994643013582 0.01020113567177527 0.002744969542496268
560 -0.0029715135249736495 0.000795840764300096 -0.0007836481040235284
34 0.01855906084174601 -0.008871131762432432 0.02875823121265201
261 -0.0043522501196699035 0.009396302175187523 0.018728398096142983
436 -0.0014546549121755425 0.0008975722386142949 -0.0032569913386911653
439 -0.0004549217464525479 0.0008521335343858333 -0.0034241216936934833
395 -0.007539204690703347 0.005734269542149215 0.015713045851736385
29 0.00017478441557818245 0.008908854950354459 -0.002195447541315821
431 0.02338909552231411 -0.04510045499955354 -0.010718910102188436
262 -0.007391770100360038 -0.0026222661917390225 0.0014099824779395024
35 -0.0207441541556355 0.017430159924647463 -0.015104903691885609
304 -0.0001991022071922965 0.0026260079457572343 0.008375062189243783
394 -0.003865353176660402 0.0013973957940142164 0.0009069716427107828
303 -0.02851371773510109 0.0160662818658894 0.0003995307403585079
62 -0.0029931097887633826 0.010463140913998175 0.008494444148697565
501 0.0015300576842287308 -0.0023452994452729465 -0.001979837880552138
557 -0.008763790811010775 0.000931074908005653 0.0011947396341520163
31 0.0023495422796348544 0.003969864240676488 0.00422093257339244
553 -0.0017015752458479387 -0.0003754129115319689 -0.001768903376902472
306 -0.0030056671439362297 -0.004859036717725409 -0.003051487970972119
435 -0.0012669174568564134 -0.0025076439007818392 0.005505798516320091
536 -0.0342402326586126 0.020199066085985543 -0.0022794097581596835
118 -0.000784385693661688 -0.042274185544792224 -0.0006563129499934268
441 0.0010208834623659636 -0.012346427970880246 0.012887385289067915
437 0.013614216570617309 -0.011931126855658444 0.027721717748667513
440 -0.0007811724558781721 0.024023721138533936 -0.01616300554505726
558 -0.005993061474001063 0.0015396781102928368 -1.2295633659393974e-05
505 0.024716172764302234 -0.0038662214915551668 0.01689025647177189
495 -0.014737395963694182 -0.021306681294764478 -0.004441696268451732
463 0.014480426923176106 0.0069363101017304645 0.0029326696035215246
268 0.00626920637867128 0.003785959583749701 0.005539174663417584
498 0.005267582197261853 -0.0016499285510781512 0.0037793204498798223
230 -0.007693819036546122 0.03463952110532606 -0.022693155982333867
500 0.001883338618761175 0.002610920177048102 -0.002878905821326934
85 0.002241018230163441 -0.0035569078229865875 0.007041599049703203
433 0.01029745692425042 -0.017500579455999383 0.012149397898450447
458 -0.021666814566688477 -0.006284537012387902 -0.0016403422146485745
497 0.0020127219059341305 0.0016223709607796303 -0.00044557018788188285
260 -0.006163206369780006 0.004058464851131888 -0.010513103253271004
296 0.007892209664218686 0.0003063014072386057 -0.0076907178842261495
163 0.013484722083291312 -0.023434947487835003 -0.02766136567333594
302 0.0016786247029701824 0.004402130411272321 -0.0003957747841703249
503 0.001479358356375062 0.0028553735425419185 0.001771646875527144
295 0.0038753655179664423 -0.0023238895374058472 0.00464419911452815
393 -0.0020335863035166302 -0.0024684668292120878 0.004398810863010006
551 -0.01698267255569859 -0.013904886843700328 0.0068397400508451184
293 -0.018983935382831666 -0.0066194775201167564 0.013692984800755514
554 -0.009154257404074311 -0.00027276538832841083 -0.0012222272230394907
434 0.0021047306682223923 0.004055893741109812 -0.0013689190850319306
266 -0.02131305325221165 -0.021981497040883667 0.032863523217225514
556 -0.002616432774794172 -0.0049275056528457276 -0.0005844879211159225
499 -0.0026742045674879728 0.002154093641099732 0.01088650159771432
307 0.0006172121009075946 -0.017281645127449393 -0.013716752568613893
502 0.0008711357244013194 -0.0018904598560719392 -0.010379849596290973
167 -0.01732431872256816 0.01837867729344614 -0.02360984300437487
255 0.004583801270562281 -0.002371706471289419 0.005752782948253732
86 -0.001190910959663055 0.00080796125461545 -0.0030451018783588845
169 -0.004298098283244081 0.0031664403776852723 0.0014609390426205023
326 -0.00034170091663578075 0.0009776270920572596 -0.0052174108213668404
457 -2.4710690880347752e-05 0.04722572159051335 -0.00599675713976344

Bonds

1 13 283 281
2 15 283 285
3 15 278 116
4 13 277 280
5 14 277 275
6 13 280 283
7 13 276 277
8 13 276 278
9 4 274 276
10 5 274 117
11 5 274 273
12 17 114 116
13 13 49 47
14 14 49 50
15 13 15 13
16 13 281 278
17 17 227 116
18 4 361 356
19 5 361 363
20 5 361 360
21 5 361 362
22 13 356 351
23 17 359 357
24 1 113 274
25 5 113 115
26 5 113 158
27 5 113 157
28 15 354 357
29 13 354 356
30 4 447 281
31 5 447 446
32 5 447 450
33 5 447 448
34 15 351 173
35 3 223 379
36 7 223 193
37 5 223 222
38 5 223 224
39 13 47 174
40 14 47 45
41 4 56 15
42 4 56 177
43 5 56 132
44 5 56 57
45 13 177 49
46 13 177 124
47 6 41 285
48 2 41 43
49 5 41 40
50 5 41 42
51 13 17 15
52 14 17 18
53 13 14 17
54 14 14 16
55 17 171 173
56 3 473 472
57 8 473 467
58 5 473 471
59 5 473 443
60 13 13 11
61 14 13 53
62 16 174 169
63 13 174 176
64 16 371 369
65 13 371 188
66 12 379 193
67 11 379 378
68 13 347 344
69 13 347 351
70 17 286 285
71 4 187 186
72 4 187 185
73 5 187 189
74 5 187 183
75 17 355 357
76 13 24 148
77 14 24 28
78 5 545 576
79 5 545 572
80 5 545 546
81 13 453 575
82 14 453 452
83 13 185 136
84 13 185 180
85 13 456 453
86 14 456 457
87 13 128 180
88 14 128 126
89 12 472 466
90 11 472 474
91 16 575 573
92 13 575 577
93 7 269 466
94 3 269 472
95 5 269 271
96 5 269 270
97 12 251 125
98 11 251 248
99 7 528 527
100 3 528 531
101 5 528 507
102 5 528 529
103 13 342 348
104 14 11 10
105 16 12 9
106 13 12 14
107 13 12 11
108 12 531 527
109 11 531 533
110 13 390 386
111 14 390 391
112 8 430 380
113 3 430 379
114 5 430 432
115 5 430 428
116 16 384 380
117 13 384 388
118 13 388 392
119 14 388 387
120 14 392 335
121 13 334 390
122 13 334 392
123 13 386 384
124 14 386 382
125 4 337 342
126 4 337 334
127 5 337 338
128 5 337 336
129 7 294 291
130 3 294 123
131 5 294 297
132 5 294 249
133 13 343 342
134 14 343 339
135 8 131 129
136 3 131 251
137 5 131 134
138 5 131 133
139 3 532 531
140 8 532 534
141 5 532 508
142 5 532 530
143 3 372 368
144 7 372 370
145 5 372 375
146 5 372 373
147 12 368 370
148 11 368 366
149 18 97 1
150 12 123 291
151 11 123 292
152 14 180 179
153 16 130 129
154 13 130 128
155 13 136 135
156 14 136 191
157 13 135 130
158 14 135 137
159 18 73 139
160 10 247 243
161 9 247 246
162 6 244 173
163 2 244 247
164 5 244 245
165 5 244 242
166 8 252 461
167 2 252 247
168 5 252 459
169 5 252 253
170 17 464 317
171 8 142 143
172 2 142 140
173 5 142 144
174 5 142 141
175 14 421 420
176 10 140 139
177 9 140 138
178 17 540 542
179 17 547 542
180 4 152 322
181 5 152 154
182 5 152 151
183 5 152 150
184 17 156 327
185 15 65 542
186 13 65 67
187 13 64 65
188 13 67 70
189 4 69 67
190 5 69 46
191 5 69 44
192 5 69 48
193 15 70 72
194 4 63 64
195 1 63 545
196 5 63 98
197 5 63 539
198 13 66 64
199 14 66 100
200 13 68 66
201 13 68 70
202 17 74 72
203 6 257 72
204 2 257 140
205 5 257 254
206 5 257 258
207 4 71 68
208 5 71 75
209 5 71 101
210 13 322 325
211 13 320 322
212 15 320 317
213 15 325 327
214 16 146 143
215 13 146 149
216 18 318 559
217 16 462 461
218 13 462 255
219 13 462 421
220 17 329 327
221 13 267 109
222 1 204 71
223 5 204 203
224 5 204 202
225 5 204 205
226 13 148 146
227 14 148 145
228 1 383 328
229 5 383 512
230 5 383 381
231 5 383 389
232 4 89 111
233 5 89 225
234 5 89 62
235 4 282 280
236 1 282 287
237 5 282 279
238 5 282 483
239 17 37 155
240 15 91 95
241 13 218 425
242 13 218 216
243 14 32 535
244 8 571 573
245 3 571 568
246 5 571 566
247 5 571 570
248 13 188 216
249 14 188 184
250 13 577 578
251 14 577 574
252 6 105 95
253 2 105 108
254 5 105 106
255 5 105 104
256 10 4 1
257 9 4 5
258 8 8 9
259 2 8 4
260 5 8 7
261 5 8 6
262 2 3 4
263 6 3 95
264 5 3 99
265 5 3 2
266 13 424 423
267 5 287 289
268 5 287 288
269 5 287 489
270 13 425 374
271 14 425 426
272 13 374 371
273 14 374 376
274 8 367 369
275 3 367 368
276 5 367 364
277 5 367 365
278 3 569 568
279 7 569 564
280 5 569 451
281 5 569 567
282 12 568 564
283 11 568 565
284 13 33 32
285 14 33 36
286 13 111 268
287 13 111 91
288 18 96 107
289 8 504 501
290 2 504 108
291 5 504 506
292 5 504 582
293 15 109 155
294 13 109 112
295 17 153 155
296 4 92 112
297 5 92 93
298 5 92 94
299 5 92 38
300 13 423 421
301 14 423 422
302 4 219 424
303 4 219 218
304 5 219 221
305 5 219 427
306 13 217 424
307 14 217 220
308 13 112 91
309 14 216 215
310 10 108 107
311 9 108 19
312 16 26 534
313 13 26 22
314 13 26 32
315 13 349 354
316 13 470 585
317 14 470 468
318 13 585 516
319 14 585 584
320 13 516 333
321 16 469 467
322 13 469 470
323 13 469 331
324 14 331 330
325 7 523 519
326 3 523 521
327 5 523 522
328 5 523 526
329 13 477 479
330 14 477 562
331 13 176 124
332 14 176 120
333 13 475 477
334 13 475 478
335 4 515 516
336 4 515 475
337 5 515 513
338 5 515 514
339 13 60 190
340 14 60 61
341 13 333 331
342 14 333 272
343 13 479 482
344 14 479 563
345 13 190 186
346 14 190 192
347 14 478 476
348 7 311 313
349 3 311 312
350 5 311 308
351 5 311 314
352 13 480 478
353 14 480 481
354 13 186 182
355 4 345 349
356 1 345 403
357 5 345 346
358 5 345 340
359 12 521 519
360 11 521 525
361 13 344 349
362 14 344 341
363 10 43 39
364 9 43 170
365 4 229 233
366 4 229 231
367 5 229 228
368 5 229 226
369 5 403 401
370 5 403 407
371 5 403 399
372 16 482 484
373 13 482 480
374 1 162 165
375 5 162 160
376 5 162 161
377 5 162 159
378 3 520 521
379 8 520 358
380 5 520 518
381 5 520 524
382 8 168 169
383 2 168 43
384 5 168 172
385 5 168 167
386 12 312 313
387 11 312 315
388 18 175 243
389 4 165 347
390 5 165 164
391 5 165 166
392 14 124 127
393 18 449 39
394 13 580 456
395 13 580 578
396 4 581 417
397 4 581 580
398 5 581 460
399 5 581 549
400 3 121 123
401 8 121 241
402 5 121 119
403 5 121 122
404 16 353 358
405 13 353 350
406 13 353 352
407 14 239 240
408 3 492 490
409 7 492 486
410 5 492 493
411 5 492 494
412 13 235 239
413 14 235 236
414 3 208 211
415 8 208 413
416 5 208 206
417 5 208 209
418 8 487 484
419 3 487 490
420 5 487 485
421 5 487 491
422 13 418 417
423 14 418 419
424 16 414 413
425 13 414 415
426 13 414 412
427 13 417 455
428 13 415 418
429 14 415 416
430 13 455 412
431 14 455 454
432 14 412 411
433 16 238 241
434 13 238 234
435 13 238 239
436 14 352 290
437 13 233 235
438 12 490 486
439 11 490 488
440 12 211 213
441 11 211 214
442 7 210 213
443 3 210 211
444 5 210 207
445 5 210 212
446 13 350 343
447 14 350 517
448 14 578 579
449 3 250 251
450 7 250 125
451 5 250 103
452 5 250 102
453 13 234 232
454 14 234 118
455 13 232 233
456 14 232 230
457 13 348 352
458 14 348 284
459 13 323 321
460 14 323 324
461 13 231 201
462 13 231 445
463 3 55 79
464 8 55 59
465 5 55 54
466 5 55 52
467 16 58 59
468 13 58 60
469 13 58 181
470 13 182 181
471 14 182 178
472 14 445 444
473 4 319 321
474 1 319 510
475 5 319 316
476 5 319 465
477 13 149 25
478 14 149 147
479 13 201 404
480 14 201 237
481 12 79 77
482 11 79 81
483 14 181 51
484 7 78 77
485 3 78 79
486 5 78 80
487 5 78 76
488 13 404 400
489 14 404 409
490 8 406 402
491 3 406 405
492 5 406 410
493 5 406 408
494 12 405 543
495 11 405 538
496 3 544 405
497 7 544 543
498 5 544 548
499 5 544 541
500 5 510 583
501 5 510 509
502 5 510 511
503 16 400 402
504 13 400 397
505 8 561 558
506 2 561 86
507 5 561 90
508 5 561 537
509 13 397 445
510 14 397 396
511 7 196 199
512 3 196 197
513 5 196 198
514 5 196 194
515 12 197 199
516 11 197 200
517 6 84 317
518 2 84 86
519 5 84 82
520 5 84 552
521 14 25 27
522 13 299 302
523 3 195 197
524 8 195 394
525 5 195 163
526 5 195 398
527 4 328 326
528 5 328 385
529 5 328 332
530 13 321 320
531 16 442 394
532 13 442 438
533 13 442 393
534 13 22 23
535 14 22 20
536 3 310 312
537 8 310 306
538 5 310 309
539 5 310 377
540 13 30 33
541 5 263 264
542 5 263 259
543 5 263 265
544 13 23 30
545 14 23 21
546 13 301 298
547 14 301 300
548 13 438 435
549 14 438 437
550 13 298 299
551 14 298 296
552 14 305 307
553 13 555 553
554 13 555 557
555 13 560 557
556 14 560 536
557 13 436 439
558 13 439 393
559 14 439 441
560 13 29 24
561 13 29 25
562 4 262 267
563 1 262 263
564 5 262 261
565 5 262 260
566 16 304 306
567 13 304 301
568 13 304 305
569 14 557 440
570 4 31 30
571 4 31 29
572 5 31 35
573 5 31 34
574 13 553 554
575 14 553 550
576 13 435 436
577 14 435 433
578 13 268 267
579 14 268 266
580 13 498 497
581 14 498 496
582 16 500 501
583 13 500 498
584 1 85 89
585 5 85 110
586 5 85 83
587 5 85 87
588 14 497 495
589 13 302 305
590 14 302 303
591 13 503 500
592 14 503 505
593 4 295 299
594 4 295 499
595 5 295 293
596 5 295 458
597 14 393 395
598 13 554 556
599 14 554 551
600 4 434 436
601 4 434 555
602 5 434 431
603 5 434 429
604 16 556 558
605 13 556 560
606 13 499 502
607 13 499 497
608 13 502 503
609 14 502 463
610 13 255 217
611 14 255 256
612 10 86 559
613 9 86 88
614 13 326 323
615 13 326 325

Angles

1 24 280 283 281
2 26 281 283 285
3 26 280 283 285
4 24 276 278 281
5 26 276 278 116
6 26 281 278 116
7 24 276 277 280
8 25 276 277 275
9 25 280 277 275
10 9 282 280 277
11 24 277 280 283
12 9 282 280 283
13 9 274 276 277
14 9 274 276 278
15 24 277 276 278
16 1 113 274 276
17 2 113 274 117
18 2 113 274 273
19 23 276 274 117
20 29 117 274 273
21 23 276 274 273
22 28 278 116 227
23 28 278 116 114
24 35 227 116 114
25 24 177 49 47
26 25 177 49 50
27 25 47 49 50
28 9 56 15 17
29 24 17 15 13
30 9 56 15 13
31 9 447 281 283
32 24 283 281 278
33 9 447 281 278
34 23 356 361 363
35 23 356 361 360
36 23 356 361 362
37 29 363 361 360
38 29 363 361 362
39 29 360 361 362
40 9 361 356 354
41 24 354 356 351
42 9 361 356 351
43 2 274 113 115
44 29 115 113 158
45 29 115 113 157
46 2 274 113 158
47 29 158 113 157
48 2 274 113 157
49 28 354 357 359
50 28 354 357 355
51 35 359 357 355
52 26 349 354 357
53 24 349 354 356
54 26 356 354 357
55 23 281 447 446
56 23 281 447 450
57 23 281 447 448
58 29 446 447 450
59 29 446 447 448
60 29 450 447 448
61 24 347 351 356
62 26 356 351 173
63 26 347 351 173
64 13 223 193 379
65 20 379 223 193
66 19 379 223 222
67 19 379 223 224
68 31 222 223 193
69 29 222 223 224
70 31 224 223 193
71 24 49 47 174
72 25 49 47 45
73 25 174 47 45
74 22 15 56 177
75 23 15 56 132
76 23 15 56 57
77 23 177 56 132
78 29 132 56 57
79 23 177 56 57
80 9 56 177 49
81 9 56 177 124
82 24 49 177 124
83 11 244 173 351
84 28 351 173 171
85 12 244 173 171
86 16 43 41 285
87 30 40 41 285
88 30 42 41 285
89 15 43 41 40
90 29 40 41 42
91 15 43 41 42
92 24 14 17 15
93 25 14 17 18
94 25 15 17 18
95 24 12 14 17
96 25 12 14 16
97 25 17 14 16
98 21 472 473 467
99 19 472 473 471
100 19 472 473 443
101 32 471 473 467
102 29 471 473 443
103 32 443 473 467
104 24 15 13 11
105 25 15 13 53
106 25 11 13 53
107 27 47 174 169
108 24 47 174 176
109 27 176 174 169
110 27 374 371 369
111 24 374 371 188
112 27 188 371 369
113 6 430 379 223
114 8 430 379 193
115 7 430 379 378
116 7 223 379 378
117 34 378 379 193
118 8 223 379 193
119 9 165 347 344
120 9 165 347 351
121 24 344 347 351
122 11 41 285 283
123 28 283 285 286
124 12 41 285 286
125 22 186 187 185
126 23 186 187 189
127 23 186 187 183
128 23 185 187 189
129 29 189 187 183
130 23 185 187 183
131 24 29 24 148
132 25 29 24 28
133 25 148 24 28
134 13 269 466 472
135 2 63 545 576
136 2 63 545 572
137 2 63 545 546
138 29 576 545 572
139 29 576 545 546
140 29 572 545 546
141 24 456 453 575
142 25 456 453 452
143 25 575 453 452
144 9 187 185 136
145 9 187 185 180
146 24 136 185 180
147 24 580 456 453
148 25 580 456 457
149 25 453 456 457
150 24 130 128 180
151 25 130 128 126
152 25 180 128 126
153 6 269 472 473
154 8 269 472 466
155 7 269 472 474
156 7 473 472 474
157 34 474 472 466
158 8 473 472 466
159 27 453 575 573
160 24 453 575 577
161 27 577 575 573
162 31 271 269 466
163 19 472 269 271
164 29 271 269 270
165 31 270 269 466
166 19 472 269 270
167 20 472 269 466
168 6 131 251 250
169 8 131 251 125
170 7 131 251 248
171 7 250 251 248
172 34 248 251 125
173 8 250 251 125
174 31 507 528 527
175 19 531 528 507
176 29 507 528 529
177 31 529 528 527
178 19 531 528 529
179 20 531 528 527
180 13 528 527 531
181 9 337 342 343
182 24 343 342 348
183 9 337 342 348
184 24 12 11 13
185 25 12 11 10
186 25 13 11 10
187 27 14 12 9
188 27 11 12 9
189 24 14 12 11
190 6 528 531 532
191 8 528 531 527
192 7 528 531 533
193 7 532 531 533
194 34 533 531 527
195 8 532 531 527
196 24 334 390 386
197 25 334 390 391
198 25 386 390 391
199 21 379 430 380
200 32 432 430 380
201 32 428 430 380
202 19 379 430 432
203 29 432 430 428
204 19 379 430 428
205 14 430 380 384
206 27 386 384 380
207 24 386 384 388
208 27 388 384 380
209 24 384 388 392
210 25 384 388 387
211 25 392 388 387
212 24 334 392 388
213 25 334 392 335
214 25 388 392 335
215 13 294 291 123
216 9 337 334 390
217 9 337 334 392
218 24 390 334 392
219 24 390 386 384
220 25 390 386 382
221 25 384 386 382
222 22 342 337 334
223 23 342 337 338
224 23 342 337 336
225 23 334 337 338
226 29 338 337 336
227 23 334 337 336
228 31 297 294 291
229 19 123 294 297
230 29 297 294 249
231 31 249 294 291
232 19 123 294 249
233 20 123 294 291
234 14 8 9 12
235 24 350 343 342
236 25 350 343 339
237 25 342 343 339
238 21 251 131 129
239 32 134 131 129
240 32 133 131 129
241 19 251 131 134
242 29 134 131 133
243 19 251 131 133
244 21 531 532 534
245 19 531 532 508
246 19 531 532 530
247 32 508 532 534
248 29 508 532 530
249 32 530 532 534
250 20 368 372 370
251 19 368 372 375
252 19 368 372 373
253 31 375 372 370
254 29 375 372 373
255 31 373 372 370
256 6 367 368 372
257 8 367 368 370
258 7 367 368 366
259 7 372 368 366
260 34 366 368 370
261 8 372 368 370
262 6 294 123 121
263 8 294 123 291
264 7 294 123 292
265 7 121 123 292
266 34 292 123 291
267 8 121 123 291
268 24 185 180 128
269 25 185 180 179
270 25 128 180 179
271 27 135 130 129
272 24 135 130 128
273 27 128 130 129
274 14 131 129 130
275 24 185 136 135
276 25 185 136 191
277 25 135 136 191
278 24 136 135 130
279 25 136 135 137
280 25 130 135 137
281 3 244 247 252
282 5 244 247 243
283 4 244 247 246
284 4 252 247 246
285 33 246 247 243
286 5 252 247 243
287 16 247 244 173
288 30 245 244 173
289 30 242 244 173
290 15 247 244 245
291 29 245 244 242
292 15 247 244 242
293 17 247 252 461
294 15 247 252 459
295 15 247 252 253
296 32 459 252 461
297 29 459 252 253
298 32 253 252 461
299 17 140 142 143
300 15 140 142 144
301 15 140 142 141
302 32 144 142 143
303 29 144 142 141
304 32 141 142 143
305 24 462 421 423
306 25 462 421 420
307 25 423 421 420
308 3 257 140 142
309 5 257 140 139
310 4 257 140 138
311 4 142 140 138
312 33 138 140 139
313 5 142 140 139
314 23 322 152 154
315 23 322 152 151
316 23 322 152 150
317 29 154 152 151
318 29 154 152 150
319 29 151 152 150
320 26 64 65 542
321 24 64 65 67
322 26 67 65 542
323 28 65 542 547
324 28 65 542 540
325 35 547 542 540
326 9 63 64 66
327 24 66 64 65
328 9 63 64 65
329 9 69 67 65
330 24 65 67 70
331 9 69 67 70
332 23 67 69 46
333 23 67 69 44
334 23 67 69 48
335 29 46 69 44
336 29 46 69 48
337 29 44 69 48
338 24 68 70 67
339 26 68 70 72
340 26 67 70 72
341 1 545 63 64
342 23 64 63 98
343 23 64 63 539
344 2 545 63 98
345 29 98 63 539
346 2 545 63 539
347 24 68 66 64
348 25 68 66 100
349 25 64 66 100
350 11 257 72 70
351 28 70 72 74
352 12 257 72 74
353 9 71 68 66
354 9 71 68 70
355 24 66 68 70
356 16 140 257 72
357 30 254 257 72
358 30 258 257 72
359 15 140 257 254
360 29 254 257 258
361 15 140 257 258
362 1 204 71 68
363 2 204 71 75
364 2 204 71 101
365 23 68 71 75
366 29 75 71 101
367 23 68 71 101
368 28 325 327 156
369 28 325 327 329
370 35 156 327 329
371 9 152 322 320
372 24 320 322 325
373 9 152 322 325
374 18 140 139 73
375 14 142 143 146
376 24 321 320 322
377 26 322 320 317
378 26 321 320 317
379 24 326 325 322
380 26 326 325 327
381 26 322 325 327
382 11 84 317 320
383 28 320 317 464
384 12 84 317 464
385 27 148 146 143
386 24 148 146 149
387 27 149 146 143
388 27 255 462 461
389 27 421 462 461
390 24 255 462 421
391 13 569 564 568
392 9 262 267 268
393 24 268 267 109
394 9 262 267 109
395 2 71 204 203
396 29 203 204 202
397 29 203 204 205
398 2 71 204 202
399 29 202 204 205
400 2 71 204 205
401 24 24 148 146
402 25 24 148 145
403 25 146 148 145
404 2 328 383 512
405 29 512 383 381
406 29 512 383 389
407 2 328 383 381
408 29 381 383 389
409 2 328 383 389
410 1 85 89 111
411 2 85 89 225
412 2 85 89 62
413 23 111 89 225
414 29 225 89 62
415 23 111 89 62
416 1 287 282 280
417 23 280 282 279
418 23 280 282 483
419 2 287 282 279
420 29 279 282 483
421 2 287 282 483
422 13 372 370 368
423 18 108 107 96
424 24 111 91 112
425 26 111 91 95
426 26 112 91 95
427 9 219 218 425
428 9 219 218 216
429 24 425 218 216
430 24 26 32 33
431 25 26 32 535
432 25 33 32 535
433 18 86 559 318
434 21 568 571 573
435 32 566 571 573
436 32 570 571 573
437 19 568 571 566
438 29 566 571 570
439 19 568 571 570
440 24 371 188 216
441 25 371 188 184
442 25 216 188 184
443 24 575 577 578
444 25 575 577 574
445 25 578 577 574
446 16 108 105 95
447 30 106 105 95
448 30 104 105 95
449 15 108 105 106
450 29 106 105 104
451 15 108 105 104
452 3 3 4 8
453 5 3 4 1
454 4 3 4 5
455 4 8 4 5
456 33 5 4 1
457 5 8 4 1
458 17 4 8 9
459 15 4 8 7
460 15 4 8 6
461 32 7 8 9
462 29 7 8 6
463 32 6 8 9
464 16 4 3 95
465 30 99 3 95
466 30 2 3 95
467 15 4 3 99
468 29 99 3 2
469 15 4 3 2
470 9 219 424 217
471 24 217 424 423
472 9 219 424 423
473 2 282 287 289
474 2 282 287 288
475 2 282 287 489
476 29 289 287 288
477 29 289 287 489
478 29 288 287 489
479 24 218 425 374
480 25 218 425 426
481 25 374 425 426
482 24 425 374 371
483 25 425 374 376
484 25 371 374 376
485 14 367 369 371
486 21 368 367 369
487 32 364 367 369
488 32 365 367 369
489 19 368 367 364
490 29 364 367 365
491 19 368 367 365
492 18 4 1 97
493 20 568 569 564
494 19 568 569 451
495 19 568 569 567
496 31 451 569 564
497 29 451 569 567
498 31 567 569 564
499 6 571 568 569
500 8 571 568 564
501 7 571 568 565
502 7 569 568 565
503 34 565 568 564
504 8 569 568 564
505 14 532 534 26
506 24 30 33 32
507 25 30 33 36
508 25 32 33 36
509 9 89 111 268
510 9 89 111 91
511 24 268 111 91
512 17 108 504 501
513 15 108 504 506
514 15 108 504 582
515 32 506 504 501
516 29 506 504 582
517 32 582 504 501
518 28 109 155 153
519 28 109 155 37
520 35 153 155 37
521 26 267 109 155
522 24 267 109 112
523 26 112 109 155
524 14 571 573 575
525 23 112 92 93
526 23 112 92 94
527 23 112 92 38
528 29 93 92 94
529 29 93 92 38
530 29 94 92 38
531 24 424 423 421
532 25 424 423 422
533 25 421 423 422
534 22 424 219 218
535 23 424 219 221
536 23 424 219 427
537 23 218 219 221
538 29 221 219 427
539 23 218 219 427
540 11 3 95 91
541 11 105 95 91
542 10 3 95 105
543 24 255 217 424
544 25 255 217 220
545 25 424 217 220
546 9 92 112 109
547 24 109 112 91
548 9 92 112 91
549 24 218 216 188
550 25 218 216 215
551 25 188 216 215
552 3 105 108 504
553 5 105 108 107
554 4 105 108 19
555 4 504 108 19
556 33 19 108 107
557 5 504 108 107
558 27 22 26 534
559 27 32 26 534
560 24 22 26 32
561 9 345 349 344
562 24 344 349 354
563 9 345 349 354
564 24 469 470 585
565 25 469 470 468
566 25 585 470 468
567 24 470 585 516
568 25 470 585 584
569 25 516 585 584
570 9 515 516 585
571 24 585 516 333
572 9 515 516 333
573 27 470 469 467
574 27 331 469 467
575 24 470 469 331
576 24 469 331 333
577 25 469 331 330
578 25 333 331 330
579 31 522 523 519
580 19 521 523 522
581 29 522 523 526
582 31 526 523 519
583 19 521 523 526
584 20 521 523 519
585 24 475 477 479
586 25 475 477 562
587 25 479 477 562
588 24 174 176 124
589 25 174 176 120
590 25 124 176 120
591 9 515 475 477
592 9 515 475 478
593 24 477 475 478
594 22 516 515 475
595 23 516 515 513
596 23 516 515 514
597 23 475 515 513
598 29 513 515 514
599 23 475 515 514
600 24 58 60 190
601 25 58 60 61
602 25 190 60 61
603 24 516 333 331
604 25 516 333 272
605 25 331 333 272
606 24 477 479 482
607 25 477 479 563
608 25 482 479 563
609 24 60 190 186
610 25 60 190 192
611 25 186 190 192
612 24 475 478 480
613 25 475 478 476
614 25 480 478 476
615 31 308 311 313
616 19 312 311 308
617 29 308 311 314
618 31 314 311 313
619 19 312 311 314
620 20 312 311 313
621 24 482 480 478
622 25 482 480 481
623 25 478 480 481
624 9 187 186 190
625 24 190 186 182
626 9 187 186 182
627 1 403 345 349
628 23 349 345 346
629 23 349 345 340
630 2 403 345 346
631 29 346 345 340
632 2 403 345 340
633 6 523 521 520
634 8 523 521 519
635 7 523 521 525
636 7 520 521 525
637 34 525 521 519
638 8 520 521 519
639 13 523 519 521
640 24 347 344 349
641 25 347 344 341
642 25 349 344 341
643 3 41 43 168
644 5 41 43 39
645 4 41 43 170
646 4 168 43 170
647 33 170 43 39
648 5 168 43 39
649 22 233 229 231
650 23 233 229 228
651 23 233 229 226
652 23 231 229 228
653 29 228 229 226
654 23 231 229 226
655 2 345 403 401
656 2 345 403 407
657 2 345 403 399
658 29 401 403 407
659 29 401 403 399
660 29 407 403 399
661 27 479 482 484
662 24 479 482 480
663 27 480 482 484
664 2 165 162 160
665 29 160 162 161
666 29 160 162 159
667 2 165 162 161
668 29 161 162 159
669 2 165 162 159
670 21 521 520 358
671 19 521 520 518
672 19 521 520 524
673 32 518 520 358
674 29 518 520 524
675 32 524 520 358
676 17 43 168 169
677 15 43 168 172
678 15 43 168 167
679 32 172 168 169
680 29 172 168 167
681 32 167 168 169
682 6 311 312 310
683 8 311 312 313
684 7 311 312 315
685 7 310 312 315
686 34 315 312 313
687 8 310 312 313
688 1 162 165 347
689 2 162 165 164
690 2 162 165 166
691 23 347 165 164
692 29 164 165 166
693 23 347 165 166
694 24 177 124 176
695 25 177 124 127
696 25 176 124 127
697 18 43 39 449
698 14 473 467 469
699 13 311 313 312
700 9 581 580 456
701 9 581 580 578
702 24 456 580 578
703 22 417 581 580
704 23 417 581 460
705 23 417 581 549
706 23 580 581 460
707 29 460 581 549
708 23 580 581 549
709 14 520 358 353
710 14 487 484 482
711 21 123 121 241
712 19 123 121 119
713 19 123 121 122
714 32 119 121 241
715 29 119 121 122
716 32 122 121 241
717 14 121 241 238
718 27 350 353 358
719 27 352 353 358
720 24 350 353 352
721 24 238 239 235
722 25 238 239 240
723 25 235 239 240
724 20 490 492 486
725 19 490 492 493
726 19 490 492 494
727 31 493 492 486
728 29 493 492 494
729 31 494 492 486
730 24 233 235 239
731 25 233 235 236
732 25 239 235 236
733 21 211 208 413
734 19 211 208 206
735 19 211 208 209
736 32 206 208 413
737 29 206 208 209
738 32 209 208 413
739 21 490 487 484
740 32 485 487 484
741 32 491 487 484
742 19 490 487 485
743 29 485 487 491
744 19 490 487 491
745 24 415 418 417
746 25 415 418 419
747 25 417 418 419
748 27 415 414 413
749 27 412 414 413
750 24 415 414 412
751 9 581 417 418
752 24 418 417 455
753 9 581 417 455
754 24 414 415 418
755 25 414 415 416
756 25 418 415 416
757 14 208 413 414
758 24 417 455 412
759 25 417 455 454
760 25 412 455 454
761 24 414 412 455
762 25 414 412 411
763 25 455 412 411
764 27 234 238 241
765 27 239 238 241
766 24 234 238 239
767 24 353 352 348
768 25 353 352 290
769 25 348 352 290
770 9 229 233 232
771 24 232 233 235
772 9 229 233 235
773 6 487 490 492
774 8 487 490 486
775 7 487 490 488
776 7 492 490 488
777 34 488 490 486
778 8 492 490 486
779 6 210 211 208
780 8 210 211 213
781 7 210 211 214
782 7 208 211 214
783 34 214 211 213
784 8 208 211 213
785 13 492 486 490
786 31 207 210 213
787 19 211 210 207
788 29 207 210 212
789 31 212 210 213
790 19 211 210 212
791 20 211 210 213
792 24 353 350 343
793 25 353 350 517
794 25 343 350 517
795 13 210 213 211
796 24 580 578 577
797 25 580 578 579
798 25 577 578 579
799 13 250 125 251
800 20 251 250 125
801 19 251 250 103
802 19 251 250 102
803 31 103 250 125
804 29 103 250 102
805 31 102 250 125
806 14 252 461 462
807 24 238 234 232
808 25 238 234 118
809 25 232 234 118
810 24 234 232 233
811 25 234 232 230
812 25 233 232 230
813 24 342 348 352
814 25 342 348 284
815 25 352 348 284
816 24 326 323 321
817 25 326 323 324
818 25 321 323 324
819 9 229 231 201
820 9 229 231 445
821 24 201 231 445
822 21 79 55 59
823 19 79 55 54
824 19 79 55 52
825 32 54 55 59
826 29 54 55 52
827 32 52 55 59
828 18 247 243 175
829 27 60 58 59
830 27 181 58 59
831 24 60 58 181
832 24 186 182 181
833 25 186 182 178
834 25 181 182 178
835 24 231 445 397
836 25 231 445 444
837 25 397 445 444
838 14 55 59 58
839 1 510 319 321
840 23 321 319 316
841 23 321 319 465
842 2 510 319 316
843 29 316 319 465
844 2 510 319 465
845 24 146 149 25
846 25 146 149 147
847 25 25 149 147
848 24 231 201 404
849 25 231 201 237
850 25 404 201 237
851 6 78 79 55
852 8 78 79 77
853 7 78 79 81
854 7 55 79 81
855 34 81 79 77
856 8 55 79 77
857 24 58 181 182
858 25 58 181 51
859 25 182 181 51
860 13 78 77 79
861 31 80 78 77
862 19 79 78 80
863 29 80 78 76
864 31 76 78 77
865 19 79 78 76
866 20 79 78 77
867 24 201 404 400
868 25 201 404 409
869 25 400 404 409
870 21 405 406 402
871 32 410 406 402
872 32 408 406 402
873 19 405 406 410
874 29 410 406 408
875 19 405 406 408
876 6 406 405 544
877 8 406 405 543
878 7 406 405 538
879 7 544 405 538
880 34 538 405 543
881 8 544 405 543
882 20 405 544 543
883 19 405 544 548
884 19 405 544 541
885 31 548 544 543
886 29 548 544 541
887 31 541 544 543
888 13 544 543 405
889 14 406 402 400
890 2 319 510 583
891 2 319 510 509
892 2 319 510 511
893 29 583 510 509
894 29 583 510 511
895 29 509 510 511
896 13 196 199 197
897 27 404 400 402
898 24 404 400 397
899 27 397 400 402
900 17 86 561 558
901 15 86 561 90
902 15 86 561 537
903 32 90 561 558
904 29 90 561 537
905 32 537 561 558
906 24 400 397 445
907 25 400 397 396
908 25 445 397 396
909 31 198 196 199
910 19 197 196 198
911 29 198 196 194
912 31 194 196 199
913 19 197 196 194
914 20 197 196 199
915 6 196 197 195
916 8 196 197 199
917 7 196 197 200
918 7 195 197 200
919 34 200 197 199
920 8 195 197 199
921 16 86 84 317
922 30 82 84 317
923 30 552 84 317
924 15 86 84 82
925 29 82 84 552
926 15 86 84 552
927 24 29 25 149
928 25 29 25 27
929 25 149 25 27
930 9 295 299 298
931 24 298 299 302
932 9 295 299 302
933 21 197 195 394
934 19 197 195 163
935 19 197 195 398
936 32 163 195 394
937 29 163 195 398
938 32 398 195 394
939 1 383 328 326
940 2 383 328 385
941 2 383 328 332
942 23 326 328 385
943 29 385 328 332
944 23 326 328 332
945 9 319 321 323
946 24 323 321 320
947 9 319 321 320
948 27 438 442 394
949 27 393 442 394
950 24 438 442 393
951 24 26 22 23
952 25 26 22 20
953 25 23 22 20
954 21 312 310 306
955 19 312 310 309
956 19 312 310 377
957 32 309 310 306
958 29 309 310 377
959 32 377 310 306
960 9 31 30 23
961 24 23 30 33
962 9 31 30 33
963 2 262 263 264
964 2 262 263 259
965 2 262 263 265
966 29 264 263 259
967 29 264 263 265
968 29 259 263 265
969 24 22 23 30
970 25 22 23 21
971 25 30 23 21
972 24 304 301 298
973 25 304 301 300
974 25 298 301 300
975 24 442 438 435
976 25 442 438 437
977 25 435 438 437
978 24 301 298 299
979 25 301 298 296
980 25 299 298 296
981 24 304 305 302
982 25 304 305 307
983 25 302 305 307
984 9 434 555 553
985 9 434 555 557
986 24 553 555 557
987 24 556 560 557
988 25 556 560 536
989 25 557 560 536
990 9 434 436 435
991 24 435 436 439
992 9 434 436 439
993 24 436 439 393
994 25 436 439 441
995 25 393 439 441
996 9 31 29 24
997 9 31 29 25
998 24 24 29 25
999 1 263 262 267
1000 23 267 262 261
1001 23 267 262 260
1002 2 263 262 261
1003 29 261 262 260
1004 2 263 262 260
1005 27 301 304 306
1006 27 305 304 306
1007 24 301 304 305
1008 14 195 394 442
1009 14 504 501 500
1010 24 555 557 560
1011 25 555 557 440
1012 25 560 557 440
1013 22 30 31 29
1014 23 30 31 35
1015 23 30 31 34
1016 23 29 31 35
1017 29 35 31 34
1018 23 29 31 34
1019 24 555 553 554
1020 25 555 553 550
1021 25 554 553 550
1022 14 310 306 304
1023 24 438 435 436
1024 25 438 435 433
1025 25 436 435 433
1026 14 561 558 556
1027 24 111 268 267
1028 25 111 268 266
1029 25 267 268 266
1030 24 500 498 497
1031 25 500 498 496
1032 25 497 498 496
1033 27 503 500 501
1034 24 503 500 498
1035 27 498 500 501
1036 2 89 85 110
1037 29 110 85 83
1038 29 110 85 87
1039 2 89 85 83
1040 29 83 85 87
1041 2 89 85 87
1042 24 499 497 498
1043 25 499 497 495
1044 25 498 497 495
1045 24 299 302 305
1046 25 299 302 303
1047 25 305 302 303
1048 24 502 503 500
1049 25 502 503 505
1050 25 500 503 505
1051 22 299 295 499
1052 23 299 295 293
1053 23 299 295 458
1054 23 499 295 293
1055 29 293 295 458
1056 23 499 295 458
1057 24 442 393 439
1058 25 442 393 395
1059 25 439 393 395
1060 24 553 554 556
1061 25 553 554 551
1062 25 556 554 551
1063 22 436 434 555
1064 23 436 434 431
1065 23 436 434 429
1066 23 555 434 431
1067 29 431 434 429
1068 23 555 434 429
1069 27 554 556 558
1070 24 554 556 560
1071 27 560 556 558
1072 9 295 499 502
1073 9 295 499 497
1074 24 502 499 497
1075 24 499 502 503
1076 25 499 502 463
1077 25 503 502 463
1078 24 462 255 217
1079 25 462 255 256
1080 25 217 255 256
1081 3 84 86 561
1082 5 84 86 559
1083 4 84 86 88
1084 4 561 86 88
1085 33 88 86 559
1086 5 561 86 559
1087 14 168 169 174
1088 9 328 326 323
1089 9 328 326 325
1090 24 323 326 325

Dihedrals

1 26 280 283 281 278
2 30 281 283 285 286
3 30 280 283 285 286
4 26 276 278 281 283
5 30 276 278 116 227
6 30 276 278 116 114
7 30 281 278 116 227
8 30 281 278 116 114
9 26 276 277 280 283
10 26 280 277 276 278
11 10 282 280 277 276
12 25 277 280 282 279
13 25 277 280 282 483
14 26 277 280 283 281
15 11 282 280 277 275
16 27 283 280 277 275
17 25 283 280 282 279
18 25 283 280 282 483
19 10 282 280 283 281
20 12 282 280 283 285
21 28 277 280 283 285
22 10 274 276 277 280
23 11 274 276 277 275
24 10 274 276 278 281
25 12 274 276 278 116
26 25 277 276 274 117
27 25 278 276 274 117
28 25 277 276 274 273
29 25 278 276 274 273
30 26 277 276 278 281
31 28 277 276 278 116
32 27 278 276 277 275
33 1 113 274 276 277
34 1 113 274 276 278
35 23 276 274 113 115
36 23 276 274 113 158
37 23 276 274 113 157
38 26 177 49 47 174
39 27 177 49 47 45
40 44 50 49 47 45
41 26 47 49 177 124
42 10 56 15 17 14
43 25 17 15 56 132
44 25 17 15 56 57
45 26 17 15 13 11
46 27 17 15 13 53
47 11 56 15 17 18
48 27 13 15 17 18
49 25 13 15 56 132
50 25 13 15 56 57
51 11 56 15 13 53
52 10 56 15 13 11
53 10 447 281 278 276
54 10 447 281 283 280
55 25 283 281 447 446
56 25 283 281 447 450
57 25 283 281 447 448
58 28 283 281 278 116
59 25 278 281 447 446
60 25 278 281 447 450
61 25 278 281 447 448
62 12 447 281 278 116
63 12 447 281 283 285
64 28 278 281 283 285
65 10 361 356 351 347
66 10 361 356 354 349
67 25 354 356 361 363
68 25 354 356 361 360
69 25 354 356 361 362
70 28 351 356 354 357
71 25 351 356 361 363
72 25 351 356 361 360
73 25 351 356 361 362
74 12 361 356 354 357
75 12 361 356 351 173
76 28 354 356 351 173
77 33 115 113 274 117
78 33 115 113 274 273
79 33 158 113 274 117
80 33 158 113 274 273
81 33 157 113 274 117
82 33 157 113 274 273
83 30 349 354 357 359
84 30 349 354 357 355
85 26 349 354 356 351
86 30 356 354 357 359
87 30 356 354 357 355
88 26 347 351 356 354
89 30 356 351 173 171
90 30 347 351 173 171
91 22 379 193 223 222
92 22 379 193 223 224
93 16 223 193 379 378
94 36 222 223 379 378
95 36 224 223 379 378
96 37 222 223 379 193
97 37 224 223 379 193
98 29 49 47 174 169
99 26 49 47 174 176
100 27 174 47 49 50
101 45 45 47 174 169
102 24 177 56 15 17
103 24 15 56 177 49
104 24 15 56 177 124
105 24 177 56 15 13
106 10 56 177 49 47
107 11 56 177 49 50
108 10 56 177 124 176
109 11 56 177 124 127
110 25 49 177 56 132
111 25 124 177 56 132
112 25 49 177 56 57
113 25 124 177 56 57
114 26 49 177 124 176
115 27 49 177 124 127
116 27 124 177 49 50
117 15 244 173 351 356
118 31 351 173 244 245
119 31 351 173 244 242
120 15 244 173 351 347
121 18 43 41 285 283
122 46 285 41 43 39
123 19 43 41 285 286
124 38 40 41 285 286
125 38 42 41 285 286
126 35 40 41 43 39
127 34 40 41 43 170
128 35 42 41 43 39
129 34 42 41 43 170
130 26 14 17 15 13
131 27 15 17 14 16
132 29 17 14 12 9
133 45 16 14 12 9
134 26 12 14 17 15
135 27 12 14 17 18
136 44 16 14 17 18
137 26 17 14 12 11
138 21 472 473 467 469
139 36 471 473 472 474
140 36 443 473 472 474
141 37 471 473 472 466
142 37 443 473 472 466
143 27 15 13 11 10
144 44 53 13 11 10
145 26 47 174 176 124
146 27 47 174 176 120
147 27 176 174 47 45
148 26 374 371 188 216
149 27 374 371 188 184
150 27 188 371 374 376
151 8 223 379 430 380
152 47 193 379 430 380
153 43 378 379 430 380
154 7 430 379 223 193
155 6 430 379 223 222
156 6 430 379 223 224
157 9 430 379 193 223
158 6 223 379 430 432
159 6 223 379 430 428
160 42 378 379 223 193
161 10 165 347 344 349
162 11 165 347 344 341
163 10 165 347 351 356
164 25 344 347 165 164
165 25 351 347 165 164
166 25 344 347 165 166
167 25 351 347 165 166
168 26 344 347 351 356
169 27 351 347 344 341
170 12 165 347 351 173
171 28 344 347 351 173
172 15 41 285 283 281
173 31 283 285 41 40
174 31 283 285 41 42
175 15 41 285 283 280
176 24 185 187 186 190
177 24 186 187 185 136
178 24 186 187 185 180
179 24 185 187 186 182
180 26 29 24 148 146
181 27 29 24 148 145
182 44 28 24 148 145
183 26 148 24 29 25
184 16 269 466 472 474
185 22 472 466 269 271
186 22 472 466 269 270
187 29 456 453 575 573
188 26 456 453 575 577
189 27 575 453 456 457
190 45 452 453 575 573
191 10 187 185 136 135
192 11 187 185 136 191
193 10 187 185 180 128
194 11 187 185 180 179
195 25 136 185 187 189
196 25 180 185 187 189
197 25 136 185 187 183
198 25 180 185 187 183
199 26 136 185 180 128
200 27 136 185 180 179
201 27 180 185 136 191
202 26 580 456 453 575
203 27 580 456 453 452
204 44 457 456 453 452
205 26 453 456 580 578
206 27 130 128 180 179
207 45 126 128 130 129
208 44 126 128 180 179
209 29 180 128 130 129
210 9 473 472 466 269
211 8 269 472 473 467
212 6 269 472 473 471
213 6 269 472 473 443
214 6 473 472 269 271
215 6 473 472 269 270
216 42 474 472 269 466
217 43 474 472 473 467
218 47 466 472 473 467
219 7 473 472 269 466
220 26 453 575 577 578
221 27 453 575 577 574
222 27 577 575 453 452
223 37 271 269 472 466
224 36 271 269 472 474
225 37 270 269 472 466
226 36 270 269 472 474
227 8 250 251 131 129
228 47 125 251 131 129
229 43 248 251 131 129
230 7 131 251 250 125
231 6 131 251 250 103
232 6 131 251 250 102
233 9 131 251 125 250
234 6 250 251 131 134
235 6 250 251 131 133
236 42 248 251 250 125
237 37 507 528 531 527
238 36 507 528 531 533
239 37 529 528 531 527
240 36 529 528 531 533
241 16 528 527 531 533
242 22 531 527 528 507
243 22 531 527 528 529
244 10 337 342 343 350
245 25 343 342 337 338
246 25 343 342 337 336
247 26 343 342 348 352
248 27 343 342 348 284
249 11 337 342 343 339
250 27 348 342 343 339
251 25 348 342 337 338
252 25 348 342 337 336
253 11 337 342 348 284
254 10 337 342 348 352
255 29 13 11 12 9
256 45 10 11 12 9
257 26 12 11 13 15
258 27 12 11 13 53
259 26 14 12 11 13
260 27 14 12 11 10
261 27 11 12 14 16
262 9 532 531 527 528
263 8 528 531 532 534
264 6 528 531 532 508
265 6 528 531 532 530
266 6 532 531 528 507
267 6 532 531 528 529
268 42 533 531 528 527
269 43 533 531 532 534
270 47 527 531 532 534
271 7 532 531 528 527
272 26 334 390 386 384
273 27 334 390 386 382
274 44 391 390 386 382
275 26 386 390 334 392
276 21 379 430 380 384
277 37 432 430 379 193
278 36 432 430 379 378
279 37 428 430 379 193
280 36 428 430 379 378
281 17 430 380 384 386
282 32 384 380 430 432
283 32 384 380 430 428
284 17 430 380 384 388
285 26 386 384 388 392
286 27 386 384 388 387
287 27 388 384 386 382
288 27 384 388 392 335
289 45 387 388 384 380
290 44 387 388 392 335
291 29 392 388 384 380
292 26 334 392 388 384
293 27 334 392 388 387
294 16 294 291 123 292
295 22 123 291 294 297
296 22 123 291 294 249
297 10 337 334 390 386
298 11 337 334 390 391
299 10 337 334 392 388
300 11 337 334 392 335
301 25 390 334 337 338
302 25 392 334 337 338
303 25 390 334 337 336
304 25 392 334 337 336
305 26 390 334 392 388
306 27 390 334 392 335
307 27 392 334 390 391
308 29 390 386 384 380
309 26 390 386 384 388
310 27 384 386 390 391
311 45 382 386 384 380
312 24 334 337 342 343
313 24 342 337 334 390
314 24 342 337 334 392
315 24 334 337 342 348
316 37 297 294 123 291
317 36 297 294 123 292
318 37 249 294 123 291
319 36 249 294 123 292
320 17 8 9 12 14
321 17 8 9 12 11
322 32 12 9 8 6
323 32 12 9 8 7
324 26 350 343 342 348
325 27 342 343 350 517
326 21 251 131 129 130
327 37 134 131 251 125
328 36 134 131 251 248
329 37 133 131 251 125
330 36 133 131 251 248
331 21 531 532 534 26
332 36 508 532 531 533
333 36 530 532 531 533
334 37 508 532 531 527
335 37 530 532 531 527
336 36 375 372 368 366
337 36 373 372 368 366
338 37 375 372 368 370
339 37 373 372 368 370
340 8 372 368 367 369
341 47 370 368 367 369
342 43 366 368 367 369
343 7 367 368 372 370
344 6 367 368 372 375
345 6 367 368 372 373
346 9 367 368 370 372
347 6 372 368 367 364
348 6 372 368 367 365
349 42 366 368 372 370
350 9 121 123 291 294
351 8 294 123 121 241
352 6 294 123 121 119
353 6 294 123 121 122
354 6 121 123 294 297
355 6 121 123 294 249
356 42 292 123 294 291
357 43 292 123 121 241
358 47 291 123 121 241
359 7 121 123 294 291
360 26 185 180 128 130
361 27 185 180 128 126
362 26 135 130 128 180
363 27 135 130 128 126
364 27 128 130 135 137
365 17 131 129 130 135
366 32 130 129 131 134
367 32 130 129 131 133
368 17 131 129 130 128
369 26 185 136 135 130
370 27 185 136 135 137
371 44 191 136 135 137
372 26 135 136 185 180
373 29 136 135 130 129
374 26 136 135 130 128
375 27 130 135 136 191
376 45 137 135 130 129
377 3 252 247 244 173
378 39 246 247 244 173
379 4 244 247 252 461
380 2 244 247 252 459
381 2 244 247 252 253
382 5 244 247 243 175
383 2 252 247 244 245
384 2 252 247 244 242
385 40 246 247 252 461
386 41 246 247 243 175
387 5 252 247 243 175
388 18 247 244 173 351
389 46 173 244 247 243
390 19 247 244 173 171
391 38 245 244 173 171
392 38 242 244 173 171
393 35 245 244 247 243
394 34 245 244 247 246
395 35 242 244 247 243
396 34 242 244 247 246
397 20 247 252 461 462
398 34 459 252 247 246
399 34 253 252 247 246
400 48 461 252 247 243
401 35 459 252 247 243
402 35 253 252 247 243
403 20 140 142 143 146
404 34 144 142 140 138
405 34 141 142 140 138
406 48 143 142 140 139
407 35 144 142 140 139
408 35 141 142 140 139
409 29 423 421 462 461
410 45 420 421 462 461
411 26 462 421 423 424
412 27 462 421 423 422
413 3 142 140 257 72
414 39 138 140 257 72
415 4 257 140 142 143
416 2 257 140 142 144
417 2 257 140 142 141
418 5 257 140 139 73
419 2 142 140 257 254
420 2 142 140 257 258
421 40 138 140 142 143
422 41 138 140 139 73
423 5 142 140 139 73
424 30 64 65 542 547
425 30 64 65 542 540
426 26 64 65 67 70
427 30 67 65 542 547
428 30 67 65 542 540
429 10 63 64 66 68
430 25 66 64 63 98
431 25 66 64 63 539
432 28 66 64 65 542
433 26 66 64 65 67
434 11 63 64 66 100
435 27 65 64 66 100
436 25 65 64 63 98
437 25 65 64 63 539
438 10 63 64 65 67
439 12 63 64 65 542
440 10 69 67 70 68
441 10 69 67 65 64
442 25 65 67 69 46
443 25 65 67 69 44
444 25 65 67 69 48
445 28 70 67 65 542
446 25 70 67 69 46
447 25 70 67 69 44
448 25 70 67 69 48
449 12 69 67 65 542
450 12 69 67 70 72
451 28 65 67 70 72
452 26 68 70 67 65
453 30 68 70 72 74
454 30 67 70 72 74
455 1 545 63 64 66
456 23 64 63 545 576
457 23 64 63 545 572
458 23 64 63 545 546
459 1 545 63 64 65
460 33 98 63 545 576
461 33 98 63 545 572
462 33 98 63 545 546
463 33 539 63 545 576
464 33 539 63 545 572
465 33 539 63 545 546
466 26 68 66 64 65
467 26 64 66 68 70
468 15 257 72 70 68
469 31 70 72 257 254
470 31 70 72 257 258
471 15 257 72 70 67
472 10 71 68 66 64
473 11 71 68 66 100
474 10 71 68 70 67
475 25 66 68 71 75
476 25 70 68 71 75
477 25 66 68 71 101
478 25 70 68 71 101
479 26 66 68 70 67
480 27 70 68 66 100
481 12 71 68 70 72
482 28 66 68 70 72
483 18 140 257 72 70
484 46 72 257 140 139
485 19 140 257 72 74
486 38 254 257 72 74
487 38 258 257 72 74
488 35 254 257 140 139
489 34 254 257 140 138
490 35 258 257 140 139
491 34 258 257 140 138
492 1 204 71 68 66
493 1 204 71 68 70
494 23 68 71 204 203
495 23 68 71 204 202
496 23 68 71 204 205
497 10 152 322 325 326
498 10 152 322 320 321
499 25 320 322 152 154
500 25 320 322 152 151
501 25 320 322 152 150
502 28 320 322 325 327
503 25 325 322 152 154
504 25 325 322 152 151
505 25 325 322 152 150
506 12 152 322 325 327
507 12 152 322 320 317
508 28 325 322 320 317
509 17 142 143 146 148
510 17 142 143 146 149
511 32 146 143 142 141
512 32 146 143 142 144
513 26 321 320 322 325
514 30 322 320 317 464
515 30 321 320 317 464
516 26 326 325 322 320
517 30 326 325 327 156
518 30 326 325 327 329
519 30 322 325 327 156
520 30 322 325 327 329
521 15 84 317 320 322
522 31 320 317 84 82
523 31 320 317 84 552
524 15 84 317 320 321
525 26 148 146 149 25
526 27 148 146 149 147
527 27 149 146 148 145
528 26 255 462 421 423
529 27 255 462 421 420
530 27 421 462 255 256
531 22 568 564 569 451
532 22 568 564 569 567
533 16 569 564 568 565
534 10 262 267 268 111
535 25 268 267 262 261
536 25 268 267 262 260
537 28 268 267 109 155
538 26 268 267 109 112
539 11 262 267 268 266
540 27 109 267 268 266
541 25 109 267 262 261
542 25 109 267 262 260
543 10 262 267 109 112
544 12 262 267 109 155
545 33 203 204 71 75
546 33 203 204 71 101
547 33 202 204 71 75
548 33 202 204 71 101
549 33 205 204 71 75
550 33 205 204 71 101
551 29 24 148 146 143
552 26 24 148 146 149
553 27 146 148 24 28
554 45 145 148 146 143
555 33 512 383 328 385
556 33 512 383 328 332
557 33 381 383 328 385
558 33 381 383 328 332
559 33 389 383 328 385
560 33 389 383 328 332
561 1 85 89 111 268
562 1 85 89 111 91
563 23 111 89 85 110
564 23 111 89 85 83
565 23 111 89 85 87
566 1 287 282 280 277
567 23 280 282 287 289
568 23 280 282 287 288
569 23 280 282 287 489
570 1 287 282 280 283
571 33 279 282 287 289
572 33 279 282 287 288
573 33 279 282 287 489
574 33 483 282 287 289
575 33 483 282 287 288
576 33 483 282 287 489
577 22 368 370 372 375
578 22 368 370 372 373
579 16 372 370 368 366
580 26 111 91 112 109
581 10 219 218 425 374
582 11 219 218 425 426
583 10 219 218 216 188
584 11 219 218 216 215
585 25 425 218 219 221
586 25 216 218 219 221
587 25 425 218 219 427
588 25 216 218 219 427
589 26 425 218 216 188
590 27 425 218 216 215
591 27 216 218 425 426
592 29 33 32 26 534
593 45 535 32 26 534
594 26 26 32 33 30
595 27 26 32 33 36
596 21 568 571 573 575
597 37 566 571 568 564
598 36 566 571 568 565
599 37 570 571 568 564
600 36 570 571 568 565
601 27 371 188 216 215
602 45 184 188 371 369
603 44 184 188 216 215
604 29 216 188 371 369
605 27 575 577 578 579
606 45 574 577 575 573
607 44 574 577 578 579
608 29 578 577 575 573
609 18 108 105 95 91
610 46 95 105 108 107
611 35 106 105 108 107
612 34 106 105 108 19
613 35 104 105 108 107
614 34 104 105 108 19
615 4 3 4 8 9
616 2 3 4 8 7
617 2 3 4 8 6
618 40 5 4 8 9
619 3 8 4 3 95
620 39 5 4 3 95
621 5 8 4 1 97
622 41 5 4 1 97
623 2 8 4 3 2
624 5 3 4 1 97
625 2 8 4 3 99
626 20 4 8 9 12
627 34 7 8 4 5
628 34 6 8 4 5
629 48 9 8 4 1
630 35 7 8 4 1
631 35 6 8 4 1
632 18 4 3 95 91
633 46 95 3 4 1
634 35 99 3 4 1
635 34 99 3 4 5
636 35 2 3 4 1
637 34 2 3 4 5
638 10 219 424 217 255
639 25 217 424 219 221
640 25 217 424 219 427
641 26 217 424 423 421
642 27 217 424 423 422
643 11 219 424 217 220
644 27 423 424 217 220
645 25 423 424 219 221
646 25 423 424 219 427
647 11 219 424 423 422
648 10 219 424 423 421
649 26 218 425 374 371
650 27 218 425 374 376
651 44 426 425 374 376
652 26 374 425 218 216
653 29 425 374 371 369
654 26 425 374 371 188
655 27 371 374 425 426
656 45 376 374 371 369
657 17 367 369 371 374
658 32 371 369 367 364
659 32 371 369 367 365
660 17 367 369 371 188
661 21 368 367 369 371
662 37 364 367 368 370
663 36 364 367 368 366
664 37 365 367 368 370
665 36 365 367 368 366
666 36 451 569 568 565
667 36 567 569 568 565
668 37 451 569 568 564
669 37 567 569 568 564
670 8 569 568 571 573
671 47 564 568 571 573
672 43 565 568 571 573
673 7 571 568 569 564
674 6 571 568 569 451
675 6 571 568 569 567
676 9 571 568 564 569
677 6 569 568 571 566
678 6 569 568 571 570
679 42 565 568 569 564
680 17 532 534 26 22
681 17 532 534 26 32
682 32 26 534 532 508
683 32 26 534 532 530
684 27 30 33 32 535
685 44 36 33 32 535
686 10 89 111 268 267
687 11 89 111 268 266
688 10 89 111 91 112
689 25 268 111 89 225
690 25 91 111 89 225
691 25 268 111 89 62
692 25 91 111 89 62
693 26 268 111 91 112
694 27 91 111 268 266
695 28 268 111 91 95
696 12 89 111 91 95
697 20 108 504 501 500
698 34 506 504 108 19
699 34 582 504 108 19
700 48 501 504 108 107
701 35 506 504 108 107
702 35 582 504 108 107
703 30 267 109 155 153
704 30 267 109 155 37
705 26 267 109 112 91
706 30 112 109 155 153
707 30 112 109 155 37
708 17 571 573 575 453
709 32 575 573 571 566
710 32 575 573 571 570
711 17 571 573 575 577
712 27 424 423 421 420
713 44 422 423 421 420
714 24 218 219 424 217
715 24 424 219 218 425
716 24 424 219 218 216
717 24 218 219 424 423
718 15 3 95 91 111
719 15 105 95 91 111
720 15 3 95 91 112
721 15 105 95 91 112
722 31 91 95 3 99
723 31 91 95 3 2
724 31 91 95 105 106
725 31 91 95 105 104
726 13 3 95 105 108
727 14 3 95 105 106
728 14 3 95 105 104
729 14 105 95 3 99
730 14 105 95 3 2
731 13 105 95 3 4
732 26 255 217 424 423
733 27 424 217 255 256
734 10 92 112 91 111
735 10 92 112 109 267
736 25 109 112 92 93
737 25 109 112 92 94
738 25 109 112 92 38
739 28 91 112 109 155
740 25 91 112 92 93
741 25 91 112 92 94
742 25 91 112 92 38
743 12 92 112 109 155
744 12 92 112 91 95
745 28 109 112 91 95
746 26 218 216 188 371
747 27 218 216 188 184
748 3 504 108 105 95
749 39 19 108 105 95
750 4 105 108 504 501
751 2 105 108 504 506
752 2 105 108 504 582
753 5 105 108 107 96
754 2 504 108 105 106
755 2 504 108 105 104
756 40 19 108 504 501
757 41 19 108 107 96
758 5 504 108 107 96
759 26 22 26 32 33
760 27 22 26 32 535
761 27 32 26 22 20
762 10 345 349 344 347
763 25 344 349 345 346
764 25 344 349 345 340
765 28 344 349 354 357
766 26 344 349 354 356
767 11 345 349 344 341
768 27 354 349 344 341
769 25 354 349 345 346
770 25 354 349 345 340
771 10 345 349 354 356
772 12 345 349 354 357
773 29 585 470 469 467
774 45 468 470 469 467
775 26 469 470 585 516
776 27 469 470 585 584
777 44 468 470 585 584
778 26 585 470 469 331
779 26 470 585 516 333
780 27 516 585 470 468
781 10 515 516 585 470
782 25 585 516 515 513
783 25 585 516 515 514
784 26 585 516 333 331
785 27 585 516 333 272
786 11 515 516 585 584
787 27 333 516 585 584
788 25 333 516 515 513
789 25 333 516 515 514
790 11 515 516 333 272
791 10 515 516 333 331
792 26 470 469 331 333
793 27 470 469 331 330
794 27 331 469 470 468
795 29 333 331 469 467
796 45 330 331 469 467
797 26 469 331 333 516
798 27 469 331 333 272
799 37 522 523 521 519
800 36 522 523 521 525
801 37 526 523 521 519
802 36 526 523 521 525
803 26 475 477 479 482
804 27 475 477 479 563
805 44 562 477 479 563
806 26 479 477 475 478
807 27 174 176 124 127
808 45 120 176 174 169
809 44 120 176 124 127
810 29 124 176 174 169
811 10 515 475 477 479
812 11 515 475 477 562
813 10 515 475 478 480
814 11 515 475 478 476
815 25 477 475 515 513
816 25 478 475 515 513
817 25 477 475 515 514
818 25 478 475 515 514
819 26 477 475 478 480
820 27 477 475 478 476
821 27 478 475 477 562
822 24 475 515 516 585
823 24 516 515 475 477
824 24 516 515 475 478
825 24 475 515 516 333
826 29 190 60 58 59
827 45 61 60 58 59
828 26 58 60 190 186
829 27 58 60 190 192
830 44 61 60 190 192
831 26 190 60 58 181
832 27 516 333 331 330
833 44 272 333 331 330
834 29 477 479 482 484
835 26 477 479 482 480
836 27 482 479 477 562
837 45 563 479 482 484
838 26 60 190 186 182
839 27 186 190 60 61
840 26 475 478 480 482
841 27 475 478 480 481
842 37 308 311 312 313
843 36 308 311 312 315
844 37 314 311 312 313
845 36 314 311 312 315
846 27 482 480 478 476
847 45 481 480 482 484
848 44 481 480 478 476
849 29 478 480 482 484
850 10 187 186 190 60
851 25 190 186 187 189
852 25 190 186 187 183
853 26 190 186 182 181
854 27 190 186 182 178
855 11 187 186 190 192
856 27 182 186 190 192
857 25 182 186 187 189
858 25 182 186 187 183
859 11 187 186 182 178
860 10 187 186 182 181
861 1 403 345 349 344
862 23 349 345 403 401
863 23 349 345 403 407
864 23 349 345 403 399
865 1 403 345 349 354
866 33 346 345 403 401
867 33 346 345 403 407
868 33 346 345 403 399
869 33 340 345 403 401
870 33 340 345 403 407
871 33 340 345 403 399
872 9 520 521 519 523
873 8 523 521 520 358
874 6 523 521 520 518
875 6 523 521 520 524
876 6 520 521 523 522
877 6 520 521 523 526
878 42 525 521 523 519
879 43 525 521 520 358
880 47 519 521 520 358
881 7 520 521 523 519
882 16 523 519 521 525
883 22 521 519 523 522
884 22 521 519 523 526
885 26 347 344 349 354
886 26 349 344 347 351
887 3 168 43 41 285
888 39 170 43 41 285
889 4 41 43 168 169
890 2 41 43 168 172
891 2 41 43 168 167
892 5 41 43 39 449
893 2 168 43 41 40
894 2 168 43 41 42
895 40 170 43 168 169
896 41 170 43 39 449
897 5 168 43 39 449
898 24 231 229 233 232
899 24 233 229 231 201
900 24 233 229 231 445
901 24 231 229 233 235
902 26 479 482 480 478
903 27 479 482 480 481
904 27 480 482 479 563
905 33 160 162 165 164
906 33 160 162 165 166
907 33 161 162 165 164
908 33 161 162 165 166
909 33 159 162 165 164
910 33 159 162 165 166
911 21 521 520 358 353
912 36 518 520 521 525
913 36 524 520 521 525
914 37 518 520 521 519
915 37 524 520 521 519
916 20 43 168 169 174
917 34 172 168 43 170
918 34 167 168 43 170
919 48 169 168 43 39
920 35 172 168 43 39
921 35 167 168 43 39
922 9 310 312 313 311
923 8 311 312 310 306
924 6 311 312 310 309
925 6 311 312 310 377
926 6 310 312 311 308
927 6 310 312 311 314
928 42 315 312 311 313
929 43 315 312 310 306
930 47 313 312 310 306
931 7 310 312 311 313
932 1 162 165 347 344
933 1 162 165 347 351
934 23 347 165 162 160
935 23 347 165 162 161
936 23 347 165 162 159
937 26 177 124 176 174
938 27 177 124 176 120
939 17 473 467 469 470
940 17 473 467 469 331
941 32 469 467 473 471
942 32 469 467 473 443
943 16 311 313 312 315
944 22 312 313 311 308
945 22 312 313 311 314
946 10 581 580 456 453
947 11 581 580 456 457
948 10 581 580 578 577
949 11 581 580 578 579
950 25 456 580 581 460
951 25 578 580 581 460
952 25 456 580 581 549
953 25 578 580 581 549
954 26 456 580 578 577
955 27 456 580 578 579
956 27 578 580 456 457
957 24 580 581 417 418
958 24 417 581 580 456
959 24 417 581 580 578
960 24 580 581 417 455
961 17 520 358 353 350
962 17 520 358 353 352
963 32 353 358 520 518
964 32 353 358 520 524
965 17 487 484 482 479
966 32 482 484 487 485
967 32 482 484 487 491
968 17 487 484 482 480
969 21 123 121 241 238
970 36 119 121 123 292
971 36 122 121 123 292
972 37 119 121 123 291
973 37 122 121 123 291
974 17 121 241 238 234
975 17 121 241 238 239
976 32 238 241 121 119
977 32 238 241 121 122
978 26 350 353 352 348
979 27 350 353 352 290
980 27 352 353 350 517
981 29 235 239 238 241
982 45 240 239 238 241
983 26 238 239 235 233
984 27 238 239 235 236
985 36 493 492 490 488
986 36 494 492 490 488
987 37 493 492 490 486
988 37 494 492 490 486
989 27 233 235 239 240
990 44 236 235 239 240
991 21 211 208 413 414
992 36 206 208 211 214
993 36 209 208 211 214
994 37 206 208 211 213
995 37 209 208 211 213
996 21 490 487 484 482
997 37 485 487 490 486
998 36 485 487 490 488
999 37 491 487 490 486
1000 36 491 487 490 488
1001 26 415 418 417 455
1002 27 417 418 415 416
1003 26 415 414 412 455
1004 27 415 414 412 411
1005 27 412 414 415 416
1006 10 581 417 418 415
1007 25 418 417 581 460
1008 25 418 417 581 549
1009 26 418 417 455 412
1010 27 418 417 455 454
1011 11 581 417 418 419
1012 27 455 417 418 419
1013 25 455 417 581 460
1014 25 455 417 581 549
1015 11 581 417 455 454
1016 10 581 417 455 412
1017 29 418 415 414 413
1018 45 416 415 414 413
1019 26 414 415 418 417
1020 27 414 415 418 419
1021 44 416 415 418 419
1022 26 418 415 414 412
1023 17 208 413 414 415
1024 17 208 413 414 412
1025 32 414 413 208 206
1026 32 414 413 208 209
1027 27 417 455 412 411
1028 44 454 455 412 411
1029 29 455 412 414 413
1030 45 411 412 414 413
1031 26 414 412 455 417
1032 27 414 412 455 454
1033 26 234 238 239 235
1034 27 234 238 239 240
1035 27 239 238 234 118
1036 29 348 352 353 358
1037 45 290 352 353 358
1038 26 353 352 348 342
1039 27 353 352 348 284
1040 10 229 233 232 234
1041 25 232 233 229 228
1042 25 232 233 229 226
1043 26 232 233 235 239
1044 27 232 233 235 236
1045 11 229 233 232 230
1046 27 235 233 232 230
1047 25 235 233 229 228
1048 25 235 233 229 226
1049 11 229 233 235 236
1050 10 229 233 235 239
1051 8 492 490 487 484
1052 47 486 490 487 484
1053 43 488 490 487 484
1054 7 487 490 492 486
1055 6 487 490 492 493
1056 6 487 490 492 494
1057 9 487 490 486 492
1058 6 492 490 487 485
1059 6 492 490 487 491
1060 42 488 490 492 486
1061 9 208 211 213 210
1062 8 210 211 208 413
1063 6 210 211 208 206
1064 6 210 211 208 209
1065 6 208 211 210 207
1066 6 208 211 210 212
1067 42 214 211 210 213
1068 43 214 211 208 413
1069 47 213 211 208 413
1070 7 208 211 210 213
1071 22 490 486 492 493
1072 22 490 486 492 494
1073 16 492 486 490 488
1074 37 207 210 211 213
1075 36 207 210 211 214
1076 37 212 210 211 213
1077 36 212 210 211 214
1078 29 343 350 353 358
1079 45 517 350 353 358
1080 26 353 350 343 342
1081 27 353 350 343 339
1082 44 517 350 343 339
1083 26 343 350 353 352
1084 16 210 213 211 214
1085 22 211 213 210 207
1086 22 211 213 210 212
1087 26 580 578 577 575
1088 27 580 578 577 574
1089 22 251 125 250 103
1090 22 251 125 250 102
1091 16 250 125 251 248
1092 36 103 250 251 248
1093 36 102 250 251 248
1094 37 103 250 251 125
1095 37 102 250 251 125
1096 17 252 461 462 255
1097 17 252 461 462 421
1098 32 462 461 252 253
1099 32 462 461 252 459
1100 29 232 234 238 241
1101 45 118 234 238 241
1102 26 238 234 232 233
1103 27 238 234 232 230
1104 44 118 234 232 230
1105 26 232 234 238 239
1106 26 234 232 233 235
1107 27 233 232 234 118
1108 27 342 348 352 290
1109 44 284 348 352 290
1110 26 326 323 321 320
1111 26 321 323 326 325
1112 10 229 231 201 404
1113 11 229 231 201 237
1114 10 229 231 445 397
1115 11 229 231 445 444
1116 25 201 231 229 228
1117 25 445 231 229 228
1118 25 201 231 229 226
1119 25 445 231 229 226
1120 26 201 231 445 397
1121 27 201 231 445 444
1122 27 445 231 201 237
1123 21 79 55 59 58
1124 36 54 55 79 81
1125 36 52 55 79 81
1126 37 54 55 79 77
1127 37 52 55 79 77
1128 26 60 58 181 182
1129 27 60 58 181 51
1130 27 181 58 60 61
1131 27 186 182 181 51
1132 44 178 182 181 51
1133 26 231 445 397 400
1134 27 231 445 397 396
1135 17 55 59 58 60
1136 17 55 59 58 181
1137 32 58 59 55 54
1138 32 58 59 55 52
1139 1 510 319 321 323
1140 23 321 319 510 583
1141 23 321 319 510 509
1142 23 321 319 510 511
1143 1 510 319 321 320
1144 33 316 319 510 583
1145 33 316 319 510 509
1146 33 316 319 510 511
1147 33 465 319 510 583
1148 33 465 319 510 509
1149 33 465 319 510 511
1150 27 146 149 25 27
1151 45 147 149 146 143
1152 44 147 149 25 27
1153 29 25 149 146 143
1154 26 231 201 404 400
1155 27 231 201 404 409
1156 44 237 201 404 409
1157 26 404 201 231 445
1158 9 55 79 77 78
1159 8 78 79 55 59
1160 6 78 79 55 54
1161 6 78 79 55 52
1162 6 55 79 78 80
1163 6 55 79 78 76
1164 42 81 79 78 77
1165 43 81 79 55 59
1166 47 77 79 55 59
1167 7 55 79 78 77
1168 29 182 181 58 59
1169 45 51 181 58 59
1170 26 58 181 182 186
1171 27 58 181 182 178
1172 16 78 77 79 81
1173 22 79 77 78 80
1174 22 79 77 78 76
1175 37 80 78 79 77
1176 36 80 78 79 81
1177 37 76 78 79 77
1178 36 76 78 79 81
1179 29 201 404 400 402
1180 26 201 404 400 397
1181 27 400 404 201 237
1182 45 409 404 400 402
1183 21 405 406 402 400
1184 37 410 406 405 543
1185 36 410 406 405 538
1186 37 408 406 405 543
1187 36 408 406 405 538
1188 8 544 405 406 402
1189 47 543 405 406 402
1190 43 538 405 406 402
1191 7 406 405 544 543
1192 6 406 405 544 548
1193 6 406 405 544 541
1194 9 406 405 543 544
1195 6 544 405 406 410
1196 6 544 405 406 408
1197 42 538 405 544 543
1198 36 548 544 405 538
1199 36 541 544 405 538
1200 37 548 544 405 543
1201 37 541 544 405 543
1202 22 405 543 544 548
1203 22 405 543 544 541
1204 16 544 543 405 538
1205 17 406 402 400 404
1206 32 400 402 406 410
1207 32 400 402 406 408
1208 17 406 402 400 397
1209 16 196 199 197 200
1210 22 197 199 196 198
1211 22 197 199 196 194
1212 26 404 400 397 445
1213 27 404 400 397 396
1214 27 397 400 404 409
1215 20 86 561 558 556
1216 34 90 561 86 88
1217 34 537 561 86 88
1218 48 558 561 86 559
1219 35 90 561 86 559
1220 35 537 561 86 559
1221 27 400 397 445 444
1222 45 396 397 400 402
1223 44 396 397 445 444
1224 29 445 397 400 402
1225 37 198 196 197 199
1226 36 198 196 197 200
1227 37 194 196 197 199
1228 36 194 196 197 200
1229 9 195 197 199 196
1230 8 196 197 195 394
1231 6 196 197 195 163
1232 6 196 197 195 398
1233 6 195 197 196 198
1234 6 195 197 196 194
1235 42 200 197 196 199
1236 43 200 197 195 394
1237 47 199 197 195 394
1238 7 195 197 196 199
1239 18 86 84 317 320
1240 46 317 84 86 559
1241 19 86 84 317 464
1242 38 82 84 317 464
1243 38 552 84 317 464
1244 35 82 84 86 559
1245 34 82 84 86 88
1246 35 552 84 86 559
1247 34 552 84 86 88
1248 26 29 25 149 146
1249 27 29 25 149 147
1250 10 295 299 298 301
1251 25 298 299 295 293
1252 25 298 299 295 458
1253 26 298 299 302 305
1254 27 298 299 302 303
1255 11 295 299 298 296
1256 27 302 299 298 296
1257 25 302 299 295 293
1258 25 302 299 295 458
1259 11 295 299 302 303
1260 10 295 299 302 305
1261 21 197 195 394 442
1262 36 163 195 197 200
1263 36 398 195 197 200
1264 37 163 195 197 199
1265 37 398 195 197 199
1266 1 383 328 326 323
1267 1 383 328 326 325
1268 23 326 328 383 512
1269 23 326 328 383 381
1270 23 326 328 383 389
1271 10 319 321 323 326
1272 25 323 321 319 316
1273 25 323 321 319 465
1274 26 323 321 320 322
1275 11 319 321 323 324
1276 27 320 321 323 324
1277 25 320 321 319 316
1278 25 320 321 319 465
1279 10 319 321 320 322
1280 12 319 321 320 317
1281 28 323 321 320 317
1282 26 438 442 393 439
1283 27 438 442 393 395
1284 27 393 442 438 437
1285 29 23 22 26 534
1286 45 20 22 26 534
1287 26 26 22 23 30
1288 27 26 22 23 21
1289 44 20 22 23 21
1290 26 23 22 26 32
1291 21 312 310 306 304
1292 36 309 310 312 315
1293 36 377 310 312 315
1294 37 309 310 312 313
1295 37 377 310 312 313
1296 10 31 30 23 22
1297 25 23 30 31 35
1298 25 23 30 31 34
1299 26 23 30 33 32
1300 27 23 30 33 36
1301 11 31 30 23 21
1302 27 33 30 23 21
1303 25 33 30 31 35
1304 25 33 30 31 34
1305 11 31 30 33 36
1306 10 31 30 33 32
1307 26 22 23 30 33
1308 27 30 23 22 20
1309 29 298 301 304 306
1310 45 300 301 304 306
1311 26 304 301 298 299
1312 27 304 301 298 296
1313 44 300 301 298 296
1314 26 298 301 304 305
1315 29 435 438 442 394
1316 45 437 438 442 394
1317 26 442 438 435 436
1318 27 442 438 435 433
1319 44 437 438 435 433
1320 26 435 438 442 393
1321 26 301 298 299 302
1322 27 299 298 301 300
1323 29 302 305 304 306
1324 45 307 305 304 306
1325 26 304 305 302 299
1326 27 304 305 302 303
1327 10 434 555 553 554
1328 11 434 555 553 550
1329 10 434 555 557 560
1330 11 434 555 557 440
1331 25 553 555 434 431
1332 25 557 555 434 431
1333 25 553 555 434 429
1334 25 557 555 434 429
1335 26 553 555 557 560
1336 27 553 555 557 440
1337 27 557 555 553 550
1338 27 556 560 557 440
1339 45 536 560 556 558
1340 44 536 560 557 440
1341 29 557 560 556 558
1342 10 434 436 435 438
1343 25 435 436 434 431
1344 25 435 436 434 429
1345 26 435 436 439 393
1346 27 435 436 439 441
1347 11 434 436 435 433
1348 27 439 436 435 433
1349 25 439 436 434 431
1350 25 439 436 434 429
1351 11 434 436 439 441
1352 10 434 436 439 393
1353 27 436 439 393 395
1354 44 441 439 393 395
1355 10 31 29 24 148
1356 11 31 29 24 28
1357 10 31 29 25 149
1358 11 31 29 25 27
1359 25 24 29 31 35
1360 25 25 29 31 35
1361 25 24 29 31 34
1362 25 25 29 31 34
1363 26 24 29 25 149
1364 27 24 29 25 27
1365 27 25 29 24 28
1366 1 263 262 267 268
1367 23 267 262 263 264
1368 23 267 262 263 259
1369 23 267 262 263 265
1370 1 263 262 267 109
1371 33 261 262 263 264
1372 33 261 262 263 259
1373 33 261 262 263 265
1374 33 260 262 263 264
1375 33 260 262 263 259
1376 33 260 262 263 265
1377 26 301 304 305 302
1378 27 301 304 305 307
1379 27 305 304 301 300
1380 17 195 394 442 438
1381 17 195 394 442 393
1382 32 442 394 195 163
1383 32 442 394 195 398
1384 17 504 501 500 503
1385 17 504 501 500 498
1386 32 500 501 504 582
1387 32 500 501 504 506
1388 26 555 557 560 556
1389 27 555 557 560 536
1390 24 29 31 30 23
1391 24 30 31 29 24
1392 24 30 31 29 25
1393 24 29 31 30 33
1394 26 555 553 554 556
1395 27 555 553 554 551
1396 44 550 553 554 551
1397 26 554 553 555 557
1398 17 310 306 304 301
1399 17 310 306 304 305
1400 32 304 306 310 309
1401 32 304 306 310 377
1402 26 438 435 436 439
1403 27 436 435 438 437
1404 17 561 558 556 554
1405 17 561 558 556 560
1406 32 556 558 561 537
1407 32 556 558 561 90
1408 26 111 268 267 109
1409 26 267 268 111 91
1410 27 500 498 497 495
1411 45 496 498 500 501
1412 44 496 498 497 495
1413 29 497 498 500 501
1414 26 503 500 498 497
1415 27 503 500 498 496
1416 27 498 500 503 505
1417 33 110 85 89 225
1418 33 110 85 89 62
1419 33 83 85 89 225
1420 33 83 85 89 62
1421 33 87 85 89 225
1422 33 87 85 89 62
1423 26 499 497 498 500
1424 27 499 497 498 496
1425 27 299 302 305 307
1426 44 303 302 305 307
1427 29 502 503 500 501
1428 26 502 503 500 498
1429 27 500 503 502 463
1430 45 505 503 500 501
1431 24 499 295 299 298
1432 24 299 295 499 502
1433 24 299 295 499 497
1434 24 499 295 299 302
1435 29 439 393 442 394
1436 45 395 393 442 394
1437 26 442 393 439 436
1438 27 442 393 439 441
1439 29 553 554 556 558
1440 26 553 554 556 560
1441 27 556 554 553 550
1442 45 551 554 556 558
1443 24 555 434 436 435
1444 24 436 434 555 553
1445 24 436 434 555 557
1446 24 555 434 436 439
1447 26 554 556 560 557
1448 27 554 556 560 536
1449 27 560 556 554 551
1450 10 295 499 502 503
1451 11 295 499 502 463
1452 10 295 499 497 498
1453 11 295 499 497 495
1454 25 502 499 295 293
1455 25 497 499 295 293
1456 25 502 499 295 458
1457 25 497 499 295 458
1458 26 502 499 497 498
1459 27 502 499 497 495
1460 27 497 499 502 463
1461 26 499 502 503 500
1462 27 499 502 503 505
1463 44 463 502 503 505
1464 26 503 502 499 497
1465 29 217 255 462 461
1466 45 256 255 462 461
1467 26 462 255 217 424
1468 27 462 255 217 220
1469 44 256 255 217 220
1470 26 217 255 462 421
1471 3 561 86 84 317
1472 39 88 86 84 317
1473 4 84 86 561 558
1474 2 84 86 561 90
1475 2 84 86 561 537
1476 5 84 86 559 318
1477 2 561 86 84 82
1478 2 561 86 84 552
1479 40 88 86 561 558
1480 41 88 86 559 318
1481 5 561 86 559 318
1482 17 168 169 174 47
1483 17 168 169 174 176
1484 32 174 169 168 167
1485 32 174 169 168 172
1486 10 328 326 323 321
1487 11 328 326 323 324
1488 10 328 326 325 322
1489 12 328 326 325 327
1490 25 323 326 328 385
1491 25 325 326 328 385
1492 25 323 326 328 332
1493 25 325 326 328 332
1494 26 323 326 325 322
1495 28 323 326 325 327
1496 27 325 326 323 324

Impropers

1 26 280 283 281 285
2 26 276 278 281 116
3 25 276 277 280 275
4 24 282 280 283 277
5 24 274 276 277 278
6 1 113 274 276 117
7 1 113 274 276 273
8 3 113 274 117 273
9 13 276 274 117 273
10 30 278 116 227 114
11 25 177 49 47 50
12 24 56 15 13 17
13 24 447 281 278 283
14 13 356 361 363 360
15 13 356 361 363 362
16 13 356 361 360 362
17 14 363 361 360 362
18 24 361 356 351 354
19 3 274 113 115 158
20 3 274 113 115 157
21 3 274 113 158 157
22 14 115 113 158 157
23 30 354 357 359 355
24 26 356 354 349 357
25 13 281 447 446 450
26 13 281 447 446 448
27 13 281 447 450 448
28 14 446 447 450 448
29 26 347 351 356 173
30 10 379 223 193 222
31 10 379 223 193 224
32 7 379 223 222 224
33 16 222 223 224 193
34 25 49 47 174 45
35 12 15 56 177 132
36 12 15 56 177 57
37 13 15 56 132 57
38 13 177 56 132 57
39 24 56 177 49 124
40 29 244 173 171 351
41 5 43 41 40 285
42 5 43 41 42 285
43 15 40 41 42 285
44 4 43 41 40 42
45 25 14 17 15 18
46 25 12 14 17 16
47 11 472 473 467 471
48 11 472 473 467 443
49 7 472 473 471 443
50 17 471 473 443 467
51 25 15 13 11 53
52 27 176 174 47 169
53 27 188 371 374 369
54 22 430 379 223 193
55 21 430 379 223 378
56 23 430 379 193 378
57 23 223 379 193 378
58 24 165 347 344 351
59 29 41 285 286 283
60 12 186 187 185 189
61 12 186 187 185 183
62 13 186 187 189 183
63 13 185 187 189 183
64 25 29 24 148 28
65 3 63 545 576 572
66 3 63 545 576 546
67 3 63 545 572 546
68 14 576 545 572 546
69 25 456 453 575 452
70 24 187 185 136 180
71 25 580 456 453 457
72 25 130 128 180 126
73 22 269 472 473 466
74 21 269 472 473 474
75 23 269 472 466 474
76 23 473 472 466 474
77 27 577 575 453 573
78 8 472 269 271 466
79 8 472 269 270 466
80 16 271 269 270 466
81 7 472 269 271 270
82 22 131 251 250 125
83 21 131 251 250 248
84 23 131 251 125 248
85 23 250 251 125 248
86 8 531 528 507 527
87 8 531 528 529 527
88 16 507 528 529 527
89 7 531 528 507 529
90 24 337 342 348 343
91 25 13 11 12 10
92 27 14 12 11 9
93 22 528 531 532 527
94 21 528 531 532 533
95 23 528 531 527 533
96 23 532 531 527 533
97 25 334 390 386 391
98 9 379 430 432 380
99 9 379 430 428 380
100 17 432 430 428 380
101 7 379 430 432 428
102 27 388 384 386 380
103 25 384 388 392 387
104 25 388 392 334 335
105 24 337 334 390 392
106 25 390 386 384 382
107 12 342 337 334 338
108 12 342 337 334 336
109 13 342 337 338 336
110 13 334 337 338 336
111 8 123 294 297 291
112 8 123 294 249 291
113 16 297 294 249 291
114 7 123 294 297 249
115 25 350 343 342 339
116 9 251 131 134 129
117 9 251 131 133 129
118 17 134 131 133 129
119 7 251 131 134 133
120 11 531 532 534 508
121 11 531 532 534 530
122 7 531 532 508 530
123 17 508 532 530 534
124 10 368 372 370 375
125 10 368 372 370 373
126 7 368 372 375 373
127 16 375 372 373 370
128 22 367 368 372 370
129 21 367 368 372 366
130 23 367 368 370 366
131 23 372 368 370 366
132 22 294 123 121 291
133 21 294 123 121 292
134 23 294 123 291 292
135 23 121 123 291 292
136 25 128 180 185 179
137 27 128 130 135 129
138 25 185 136 135 191
139 25 136 135 130 137
140 19 244 247 252 243
141 18 244 247 252 246
142 20 244 247 243 246
143 20 252 247 243 246
144 5 247 244 245 173
145 5 247 244 242 173
146 15 245 244 242 173
147 4 247 244 245 242
148 6 247 252 461 459
149 6 247 252 461 253
150 4 247 252 459 253
151 17 459 252 253 461
152 6 140 142 143 144
153 6 140 142 143 141
154 4 140 142 144 141
155 17 144 142 141 143
156 25 423 421 462 420
157 19 257 140 142 139
158 18 257 140 142 138
159 20 257 140 139 138
160 20 142 140 139 138
161 13 322 152 154 151
162 13 322 152 154 150
163 13 322 152 151 150
164 14 154 152 151 150
165 26 67 65 64 542
166 30 65 542 547 540
167 24 63 64 65 66
168 24 69 67 70 65
169 13 67 69 46 44
170 13 67 69 46 48
171 13 67 69 44 48
172 14 46 69 44 48
173 26 67 70 68 72
174 2 545 63 98 64
175 2 545 63 539 64
176 13 64 63 98 539
177 3 545 63 98 539
178 25 68 66 64 100
179 29 257 72 74 70
180 24 71 68 66 70
181 5 140 257 254 72
182 5 140 257 258 72
183 15 254 257 258 72
184 4 140 257 254 258
185 1 204 71 68 75
186 1 204 71 68 101
187 3 204 71 75 101
188 13 68 71 75 101
189 30 325 327 156 329
190 24 152 322 325 320
191 26 321 320 322 317
192 26 326 325 322 327
193 29 84 317 464 320
194 27 149 146 148 143
195 27 255 462 421 461
196 24 262 267 109 268
197 3 71 204 203 202
198 3 71 204 203 205
199 3 71 204 202 205
200 14 203 204 202 205
201 25 24 148 146 145
202 3 328 383 512 381
203 3 328 383 512 389
204 3 328 383 381 389
205 14 512 383 381 389
206 1 85 89 111 225
207 1 85 89 111 62
208 3 85 89 225 62
209 13 111 89 225 62
210 2 287 282 279 280
211 2 287 282 483 280
212 13 280 282 279 483
213 3 287 282 279 483
214 26 111 91 112 95
215 24 219 218 425 216
216 25 33 32 26 535
217 9 568 571 566 573
218 9 568 571 570 573
219 17 566 571 570 573
220 7 568 571 566 570
221 25 371 188 216 184
222 25 575 577 578 574
223 5 108 105 106 95
224 5 108 105 104 95
225 15 106 105 104 95
226 4 108 105 106 104
227 19 3 4 8 1
228 18 3 4 8 5
229 20 3 4 1 5
230 20 8 4 1 5
231 6 4 8 9 7
232 6 4 8 9 6
233 4 4 8 7 6
234 17 7 8 6 9
235 5 4 3 99 95
236 5 4 3 2 95
237 15 99 3 2 95
238 4 4 3 99 2
239 24 219 424 423 217
240 3 282 287 289 288
241 3 282 287 289 489
242 3 282 287 288 489
243 14 289 287 288 489
244 25 218 425 374 426
245 25 425 374 371 376
246 9 368 367 364 369
247 9 368 367 365 369
248 17 364 367 365 369
249 7 368 367 364 365
250 10 568 569 564 451
251 10 568 569 564 567
252 7 568 569 451 567
253 16 451 569 567 564
254 22 571 568 569 564
255 21 571 568 569 565
256 23 571 568 564 565
257 23 569 568 564 565
258 25 30 33 32 36
259 24 89 111 268 91
260 6 108 504 501 506
261 6 108 504 501 582
262 4 108 504 506 582
263 17 506 504 582 501
264 30 109 155 153 37
265 26 112 109 267 155
266 13 112 92 93 94
267 13 112 92 93 38
268 13 112 92 94 38
269 14 93 92 94 38
270 25 424 423 421 422
271 12 424 219 218 221
272 12 424 219 218 427
273 13 424 219 221 427
274 13 218 219 221 427
275 28 3 95 105 91
276 25 255 217 424 220
277 24 92 112 91 109
278 25 188 216 218 215
279 19 105 108 504 107
280 18 105 108 504 19
281 20 105 108 107 19
282 20 504 108 107 19
283 27 22 26 32 534
284 24 345 349 354 344
285 25 469 470 585 468
286 25 470 585 516 584
287 24 515 516 333 585
288 27 470 469 331 467
289 25 333 331 469 330
290 8 521 523 522 519
291 8 521 523 526 519
292 16 522 523 526 519
293 7 521 523 522 526
294 25 475 477 479 562
295 25 174 176 124 120
296 24 515 475 477 478
297 12 516 515 475 513
298 12 516 515 475 514
299 13 516 515 513 514
300 13 475 515 513 514
301 25 58 60 190 61
302 25 516 333 331 272
303 25 477 479 482 563
304 25 60 190 186 192
305 25 480 478 475 476
306 8 312 311 308 313
307 8 312 311 314 313
308 16 308 311 314 313
309 7 312 311 308 314
310 25 482 480 478 481
311 24 187 186 182 190
312 2 403 345 346 349
313 2 403 345 340 349
314 13 349 345 346 340
315 3 403 345 346 340
316 22 523 521 520 519
317 21 523 521 520 525
318 23 523 521 519 525
319 23 520 521 519 525
320 25 347 344 349 341
321 19 41 43 168 39
322 18 41 43 168 170
323 20 41 43 39 170
324 20 168 43 39 170
325 12 233 229 231 228
326 12 233 229 231 226
327 13 233 229 228 226
328 13 231 229 228 226
329 3 345 403 401 407
330 3 345 403 401 399
331 3 345 403 407 399
332 14 401 403 407 399
333 27 480 482 479 484
334 3 165 162 160 161
335 3 165 162 160 159
336 3 165 162 161 159
337 14 160 162 161 159
338 11 521 520 358 518
339 11 521 520 358 524
340 7 521 520 518 524
341 17 518 520 524 358
342 6 43 168 169 172
343 6 43 168 169 167
344 4 43 168 172 167
345 17 172 168 167 169
346 22 311 312 310 313
347 21 311 312 310 315
348 23 311 312 313 315
349 23 310 312 313 315
350 1 162 165 347 164
351 1 162 165 347 166
352 3 162 165 164 166
353 13 347 165 164 166
354 25 176 124 177 127
355 24 581 580 456 578
356 12 417 581 580 460
357 12 417 581 580 549
358 13 417 581 460 549
359 13 580 581 460 549
360 11 123 121 241 119
361 11 123 121 241 122
362 7 123 121 119 122
363 17 119 121 122 241
364 27 350 353 352 358
365 25 235 239 238 240
366 10 490 492 486 493
367 10 490 492 486 494
368 7 490 492 493 494
369 16 493 492 494 486
370 25 233 235 239 236
371 11 211 208 413 206
372 11 211 208 413 209
373 7 211 208 206 209
374 17 206 208 209 413
375 9 490 487 485 484
376 9 490 487 491 484
377 17 485 487 491 484
378 7 490 487 485 491
379 25 415 418 417 419
380 27 415 414 412 413
381 24 581 417 455 418
382 25 414 415 418 416
383 25 417 455 412 454
384 25 455 412 414 411
385 27 234 238 239 241
386 25 348 352 353 290
387 24 229 233 235 232
388 22 487 490 492 486
389 21 487 490 492 488
390 23 487 490 486 488
391 23 492 490 486 488
392 22 210 211 208 213
393 21 210 211 208 214
394 23 210 211 213 214
395 23 208 211 213 214
396 8 211 210 207 213
397 8 211 210 212 213
398 16 207 210 212 213
399 7 211 210 207 212
400 25 353 350 343 517
401 25 577 578 580 579
402 10 251 250 125 103
403 10 251 250 125 102
404 7 251 250 103 102
405 16 103 250 102 125
406 25 238 234 232 118
407 25 234 232 233 230
408 25 342 348 352 284
409 25 326 323 321 324
410 24 229 231 201 445
411 11 79 55 59 54
412 11 79 55 59 52
413 7 79 55 54 52
414 17 54 55 52 59
415 27 60 58 181 59
416 25 186 182 181 178
417 25 397 445 231 444
418 2 510 319 316 321
419 2 510 319 465 321
420 13 321 319 316 465
421 3 510 319 316 465
422 25 146 149 25 147
423 25 231 201 404 237
424 22 78 79 55 77
425 21 78 79 55 81
426 23 78 79 77 81
427 23 55 79 77 81
428 25 182 181 58 51
429 8 79 78 80 77
430 8 79 78 76 77
431 16 80 78 76 77
432 7 79 78 80 76
433 25 201 404 400 409
434 9 405 406 410 402
435 9 405 406 408 402
436 17 410 406 408 402
437 7 405 406 410 408
438 22 406 405 544 543
439 21 406 405 544 538
440 23 406 405 543 538
441 23 544 405 543 538
442 10 405 544 543 548
443 10 405 544 543 541
444 7 405 544 548 541
445 16 548 544 541 543
446 3 319 510 583 509
447 3 319 510 583 511
448 3 319 510 509 511
449 14 583 510 509 511
450 27 397 400 404 402
451 6 86 561 558 90
452 6 86 561 558 537
453 4 86 561 90 537
454 17 90 561 537 558
455 25 400 397 445 396
456 8 197 196 198 199
457 8 197 196 194 199
458 16 198 196 194 199
459 7 197 196 198 194
460 22 196 197 195 199
461 21 196 197 195 200
462 23 196 197 199 200
463 23 195 197 199 200
464 5 86 84 82 317
465 5 86 84 552 317
466 15 82 84 552 317
467 4 86 84 82 552
468 25 149 25 29 27
469 24 295 299 302 298
470 11 197 195 394 163
471 11 197 195 394 398
472 7 197 195 163 398
473 17 163 195 398 394
474 1 383 328 326 385
475 1 383 328 326 332
476 3 383 328 385 332
477 13 326 328 385 332
478 24 319 321 320 323
479 27 438 442 393 394
480 25 26 22 23 20
481 11 312 310 306 309
482 11 312 310 306 377
483 7 312 310 309 377
484 17 309 310 377 306
485 24 31 30 33 23
486 3 262 263 264 259
487 3 262 263 264 265
488 3 262 263 259 265
489 14 264 263 259 265
490 25 22 23 30 21
491 25 304 301 298 300
492 25 442 438 435 437
493 25 301 298 299 296
494 25 302 305 304 307
495 24 434 555 553 557
496 25 556 560 557 536
497 24 434 436 439 435
498 25 436 439 393 441
499 24 31 29 24 25
500 2 263 262 261 267
501 2 263 262 260 267
502 13 267 262 261 260
503 3 263 262 261 260
504 27 301 304 305 306
505 25 560 557 555 440
506 12 30 31 29 35
507 12 30 31 29 34
508 13 30 31 35 34
509 13 29 31 35 34
510 25 555 553 554 550
511 25 438 435 436 433
512 25 111 268 267 266
513 25 500 498 497 496
514 27 498 500 503 501
515 3 89 85 110 83
516 3 89 85 110 87
517 3 89 85 83 87
518 14 110 85 83 87
519 25 498 497 499 495
520 25 299 302 305 303
521 25 502 503 500 505
522 12 299 295 499 293
523 12 299 295 499 458
524 13 299 295 293 458
525 13 499 295 293 458
526 25 439 393 442 395
527 25 553 554 556 551
528 12 436 434 555 431
529 12 436 434 555 429
530 13 436 434 431 429
531 13 555 434 431 429
532 27 560 556 554 558
533 24 295 499 502 497
534 25 499 502 503 463
535 25 462 255 217 256
536 19 84 86 561 559
537 18 84 86 561 88
538 20 84 86 559 88
539 20 561 86 559 88
540 24 328 326 323 325
