LAMMPS data file via write_data, version 4 Jul 2026, timestep = 1483250, units = real

585 atoms
11 atom types
615 bonds
18 bond types
1090 angles
35 angle types
1502 dihedrals
48 dihedral types
540 impropers
30 improper types

1.363356310395945 19.790422699602253 xlo xhi
1.363356310395945 19.790422699602253 ylo yhi
1.363356310395945 19.790422699602253 zlo zhi

Masses

1 12.01115
2 12.01115
3 12.01115
4 12.01115
5 1.00797
6 1.00797
7 1.00797
8 14.0067
9 15.9994
10 15.9994
11 15.9994

Pair Coeffs # lj/class2/coul/long

1 0.054 4.01
2 0.054 4.01
3 0.054 4.01
4 0.064 4.01
5 0.02 2.995
6 0.013 1.098
7 0.013 1.098
8 0.065 4.07
9 0.24 3.535
10 0.24 3.535
11 0.24 3.535

Bond Coeffs # class2

1 1.53 299.67 -501.77 679.81
2 1.53 299.67 -501.77 679.81
3 1.53 299.67 -501.77 679.81
4 1.501 321.902 -521.821 572.163
5 1.101 345 -691.89 844.6
6 1.457 365.805 -699.637 998.484
7 1.42 400.395 -835.195 1313.01
8 1.42 400.395 -835.195 1313.01
9 1.101 345 -691.89 844.6
10 1.42 400.395 -835.195 1313.01
11 1.101 345 -691.89 844.6
12 1.42 400.395 -835.195 1313.01
13 1.417 470.836 -627.618 1327.63
14 1.0982 372.825 -803.453 894.317
15 1.412 257.775 0 0
16 1.3768 428.88 -738.235 1114.97
17 1.006 466.74 -1073.6 1251.11
18 0.965 532.506 -1282.9 2004.77

Angle Coeffs # class2

1 108.4 43.9594 -8.3924 -9.3379
2 110.77 41.453 -10.604 5.129
3 112.67 39.516 -7.443 -9.5583
4 110.77 41.453 -10.604 5.129
5 111.27 54.5381 -8.3642 -13.0838
6 112.67 39.516 -7.443 -9.5583
7 110.77 41.453 -10.604 5.129
8 111.27 54.5381 -8.3642 -13.0838
9 120.05 44.7148 -22.7352 0
10 112.444 47.2337 -10.6612 -10.2062
11 109 80 0 0
12 110.954 50.8652 -4.4522 -10.0298
13 104.5 35.7454 -10.0067 -6.2729
14 102.969 38.9739 -6.2595 -8.171
15 110.77 41.453 -10.604 5.129
16 111.91 60.7147 -13.3366 -13.0785
17 111.27 54.5381 -8.3642 -13.0838
18 105.8 52.7061 -12.109 -9.8681
19 110.77 41.453 -10.604 5.129
20 111.27 54.5381 -8.3642 -13.0838
21 111.27 54.5381 -8.3642 -13.0838
22 111 44.3234 -9.4454 0
23 111 44.3234 -9.4454 0
24 118.9 61.0226 -34.9931 0
25 117.94 35.1558 -12.4682 0
26 120 102 0 0
27 123.42 73.6781 -21.6787 0
28 110 41.6 0 0
29 107.66 39.641 -12.921 -2.4318
30 110.62 51.3137 -6.7198 -2.6003
31 108.728 58.5446 -10.8088 -12.4006
32 108.728 58.5446 -10.8088 -12.4006
33 108.728 58.5446 -10.8088 -12.4006
34 108.728 58.5446 -10.8088 -12.4006
35 107.067 45.252 -7.5558 -9.512

BondBond Coeffs

1 0 1.53 1.501
2 3.3872 1.53 1.101
3 0 1.53 1.53
4 3.3872 1.53 1.101
5 11.4318 1.53 1.42
6 0 1.53 1.53
7 3.3872 1.53 1.101
8 11.4318 1.53 1.42
9 12.0676 1.501 1.417
10 -2.1113 1.457 1.457
11 0 1.457 1.412
12 -6.4168 1.457 1.006
13 -7.1131 1.42 1.42
14 0 1.42 1.3768
15 3.3872 1.53 1.101
16 4.6217 1.53 1.457
17 11.4318 1.53 1.42
18 -9.6879 1.42 0.965
19 3.3872 1.53 1.101
20 11.4318 1.53 1.42
21 11.4318 1.53 1.42
22 0 1.501 1.501
23 2.9168 1.501 1.101
24 68.2856 1.417 1.417
25 1.0795 1.417 1.0982
26 0 1.417 1.412
27 48.4754 1.417 1.3768
28 0 1.412 1.006
29 5.3316 1.101 1.101
30 12.426 1.101 1.457
31 23.1979 1.101 1.42
32 23.1979 1.101 1.42
33 23.1979 1.101 1.42
34 23.1979 1.101 1.42
35 -1.8749 1.006 1.006

BondAngle Coeffs

1 0 0 1.53 1.501
2 20.754 11.421 1.53 1.101
3 8.016 8.016 1.53 1.53
4 20.754 11.421 1.53 1.101
5 2.6868 20.4033 1.53 1.42
6 8.016 8.016 1.53 1.53
7 20.754 11.421 1.53 1.101
8 2.6868 20.4033 1.53 1.42
9 47.0579 31.0771 1.501 1.417
10 -7.2229 -7.2229 1.457 1.457
11 0 0 1.457 1.412
12 31.8096 20.5799 1.457 1.006
13 -2.8112 -2.8112 1.42 1.42
14 0 0 1.42 1.3768
15 20.754 11.421 1.53 1.101
16 6.0876 16.5702 1.53 1.457
17 2.6868 20.4033 1.53 1.42
18 28.58 18.9277 1.42 0.965
19 20.754 11.421 1.53 1.101
20 2.6868 20.4033 1.53 1.42
21 2.6868 20.4033 1.53 1.42
22 0 0 1.501 1.501
23 26.4608 11.7717 1.501 1.101
24 28.8708 28.8708 1.417 1.417
25 20.0033 24.2183 1.417 1.0982
26 0 0 1.417 1.412
27 58.479 107.681 1.417 1.3768
28 0 0 1.412 1.006
29 18.103 18.103 1.101 1.101
30 13.4582 42.4332 1.101 1.457
31 4.6189 55.327 1.101 1.42
32 4.6189 55.327 1.101 1.42
33 4.6189 55.327 1.101 1.42
34 4.6189 55.327 1.101 1.42
35 28.0322 28.0322 1.006 1.006

Dihedral Coeffs # class2

1 -0.2802 0 -0.0678 0 -0.0122 0
2 0 0 0.0316 0 -0.1681 0
3 0.1764 0 0.1766 0 -0.5206 0
4 0.7137 0 0.266 0 -0.2545 0
5 -0.6732 0 -0.4778 0 -0.167 0
6 0 0 0.0316 0 -0.1681 0
7 0.7137 0 0.266 0 -0.2545 0
8 0.7137 0 0.266 0 -0.2545 0
9 -0.5203 0 -0.3028 0 -0.345 0
10 0 0 4.4072 0 0 0
11 0 0 1.559 0 0 0
12 0 0 3 0 0 0
13 -0.1406 0 0.4168 0 0.015 0
14 0.1904 0 -0.1342 0 -0.246 0
15 0 0 2.25 0 0 0
16 0.5302 0 0 0 -0.3966 0
17 0 0 1.5 0 0 0
18 0 0 0 0 0.05 180
19 -1.1506 0 -0.6344 0 -0.1845 0
20 0 0 0 0 0.13 180
21 0 0 0 0 0.13 180
22 0.5302 0 0 0 -0.3966 0
23 -0.0228 0 0.028 0 -0.1863 0
24 -0.2802 0 -0.0678 0 -0.0122 0
25 -0.2801 0 -0.0678 0 -0.0122 0
26 8.3667 0 1.1932 0 0 0
27 0 0 3.9661 0 0 0
28 0 0 3 0 0 0
29 0 0 4.8498 0 0 0
30 0 0 2.25 0 0 0
31 0 0 0 0 0.05 180
32 0.9513 0 0.1155 0 0.072 0
33 -0.1432 0 0.0617 0 -0.1083 0
34 -0.1432 0 0.0617 0 -0.1083 0
35 -0.1435 0 0.253 0 -0.0905 0
36 -0.1432 0 0.0617 0 -0.1083 0
37 -0.1435 0 0.253 0 -0.0905 0
38 -0.5187 0 -0.4837 0 -0.1692 0
39 -0.2428 0 0.4065 0 -0.3079 0
40 -0.1435 0 0.253 0 -0.0905 0
41 0.1863 0 -0.4338 0 -0.2121 0
42 -0.1435 0 0.253 0 -0.0905 0
43 -0.1435 0 0.253 0 -0.0905 0
44 0 0 1.8769 0 0 0
45 0 0 1.7234 0 0 0
46 0 0 0 0 0.158 180
47 -0.182 0 -0.1084 0 -0.7047 0
48 -0.182 0 -0.1084 0 -0.7047 0

AngleAngleTorsion Coeffs

1 0 108.4 120.05
2 -16.164 112.67 110.77
3 -27.3953 112.67 111.91
4 -29.042 112.67 111.27
5 -12.1038 111.27 105.8
6 -16.164 112.67 110.77
7 -29.042 112.67 111.27
8 -29.042 112.67 111.27
9 -19.0059 111.27 104.5
10 -14.4097 120.05 118.9
11 4.4444 120.05 117.94
12 0 120.05 120
13 -24.3818 112.444 111.91
14 -12.5567 112.444 110.62
15 0 109 120
16 -16.4438 104.5 108.728
17 0 102.969 123.42
18 0 111.91 109
19 -7.5499 111.91 110.954
20 0 111.27 102.969
21 0 111.27 102.969
22 -16.4438 104.5 108.728
23 0 108.4 110.77
24 0 111 120.05
25 -5.8888 120.05 111
26 0 118.9 118.9
27 -4.8141 118.9 117.94
28 0 118.9 120
29 -21.0247 118.9 123.42
30 0 120 110
31 0 109 110.62
32 0 102.969 108.728
33 -12.564 110.77 110.77
34 -12.564 110.77 110.77
35 -20.2006 110.77 111.27
36 -12.564 110.77 110.77
37 -20.2006 110.77 111.27
38 -10.4258 110.62 110.954
39 -15.7572 110.77 111.91
40 -20.2006 110.77 111.27
41 -10.5093 108.728 105.8
42 -20.2006 110.77 111.27
43 -20.2006 110.77 111.27
44 0.3598 117.94 117.94
45 4.2296 117.94 123.42
46 0 111.91 111.27
47 -14.0484 111.27 111.27
48 -14.0484 111.27 111.27

EndBondTorsion Coeffs

1 0 0 0 0 0 0 1.53 1.417
2 0.2486 0.2422 -0.0925 0.0814 0.0591 0.2219 1.53 1.101
3 0.1032 0.5896 -0.4836 0.0579 -0.0043 -0.1906 1.53 1.457
4 -0.319 0.4411 -0.7174 1.1538 0.8409 -0.9138 1.53 1.42
5 -0.58 0.9004 0 0 0.5343 0.9025 1.53 0.965
6 0.2486 0.2422 -0.0925 0.0814 0.0591 0.2219 1.53 1.101
7 -0.319 0.4411 -0.7174 1.1538 0.8409 -0.9138 1.53 1.42
8 -0.319 0.4411 -0.7174 1.1538 0.8409 -0.9138 1.53 1.42
9 -0.2456 1.0517 -0.7795 0.4741 1.2635 0.5576 1.53 1.42
10 0 0.2421 0 0 -0.6918 0 1.501 1.417
11 0 -1.797 0 0 -0.4879 0 1.501 1.0982
12 0 0 0 0 0 0 1.501 1.412
13 -0.0128 -0.0495 -0.1079 0.0997 -0.0046 -0.2657 1.457 1.53
14 0.0628 0.0873 -0.0882 -0.5892 0.714 0.3505 1.457 1.101
15 0 0 0 0 0 0 1.457 1.417
16 -0.162 0.1564 -1.1408 -0.6054 1.3339 0.9648 1.42 1.101
17 0 0 0 0 0 0 1.42 1.417
18 0 0 0 0 0 0 1.53 1.412
19 -0.9466 0.9356 -0.5542 0.057 0.0625 0.4112 1.53 1.006
20 0 0 0 0 0 0 1.53 1.3768
21 0 0 0 0 0 0 1.53 1.3768
22 -0.162 0.1564 -1.1408 -0.6054 1.3339 0.9648 1.42 1.101
23 0 0 0 0 0 0 1.501 1.101
24 0 0 0 0 0 0 1.501 1.417
25 -0.5835 1.122 0.3978 1.3997 0.7756 0 1.417 1.101
26 -0.1185 6.3204 0 -0.1185 6.3204 0 1.417 1.417
27 0 -6.8958 0 0 -0.4669 0 1.417 1.0982
28 0 0 0 0 0 0 1.417 1.412
29 0 0.2655 0 0 4.8905 0 1.417 1.3768
30 0 0 0 0 0 0 1.417 1.006
31 0 0 0 0 0 0 1.412 1.101
32 0 0 0 0 0 0 1.3768 1.101
33 0.213 0.312 0.0777 0.213 0.312 0.0777 1.101 1.101
34 0.213 0.312 0.0777 0.213 0.312 0.0777 1.101 1.101
35 0.9681 0.9551 0.0436 0.5903 0.6669 0.8584 1.101 1.42
36 0.213 0.312 0.0777 0.213 0.312 0.0777 1.101 1.101
37 0.9681 0.9551 0.0436 0.5903 0.6669 0.8584 1.101 1.42
38 -1.1685 0.9266 -0.0993 0.085 0.3061 0.2104 1.101 1.006
39 0.196 0.7056 0.112 0.1022 0.209 0.6433 1.101 1.457
40 0.9681 0.9551 0.0436 0.5903 0.6669 0.8584 1.101 1.42
41 -1.7554 1.3145 0.2263 0.2493 0.6803 0 1.101 0.965
42 0.9681 0.9551 0.0436 0.5903 0.6669 0.8584 1.101 1.42
43 0.9681 0.9551 0.0436 0.5903 0.6669 0.8584 1.101 1.42
44 0 -0.689 0 0 -0.689 0 1.0982 1.0982
45 0 -1.5867 0 0 4.2641 0 1.0982 1.3768
46 0 0 0 0 0 0 1.457 1.42
47 1.0165 0.7553 -0.4609 1.0165 0.7553 -0.4609 1.42 1.42
48 1.0165 0.7553 -0.4609 1.0165 0.7553 -0.4609 1.42 1.42

MiddleBondTorsion Coeffs

1 0 0 0 1.501
2 -14.879 -3.6581 -0.3138 1.53
3 -15.4174 -7.3055 -1.0749 1.53
4 -21.8842 -7.6764 -0.6868 1.53
5 1.2472 0 0.7485 1.42
6 -14.879 -3.6581 -0.3138 1.53
7 -21.8842 -7.6764 -0.6868 1.53
8 -21.8842 -7.6764 -0.6868 1.53
9 -5.9288 -2.7007 -0.3175 1.42
10 0 9.1792 0 1.417
11 0 3.9421 0 1.417
12 0 0 0 1.417
13 -8.0036 -7.7321 -3.064 1.457
14 -6.4529 -6.8122 -1.1632 1.457
15 0 0 0 1.412
16 -6.8007 -4.6546 -1.4101 1.42
17 0 0 0 1.3768
18 0 0 0 1.457
19 -2.2208 0.5479 -0.3527 1.457
20 0 0 0 1.42
21 0 0 0 1.42
22 -6.8007 -4.6546 -1.4101 1.42
23 0 0 0 1.53
24 0 0 0 1.501
25 -5.5679 1.4083 0.301 1.501
26 27.5989 -2.312 0 1.417
27 0 -1.1521 0 1.417
28 0 0 0 1.417
29 0 4.8255 0 1.417
30 0 0 0 1.412
31 0 0 0 1.457
32 0 0 0 1.42
33 -14.261 -0.5322 -0.4864 1.53
34 -14.261 -0.5322 -0.4864 1.53
35 -16.7975 -1.2296 -0.275 1.53
36 -14.261 -0.5322 -0.4864 1.53
37 -16.7975 -1.2296 -0.275 1.53
38 -3.4611 1.6996 -0.6007 1.457
39 -10.4959 -0.7647 -0.0545 1.53
40 -16.7975 -1.2296 -0.275 1.53
41 0 0.9241 -0.5889 1.42
42 -16.7975 -1.2296 -0.275 1.53
43 -16.7975 -1.2296 -0.275 1.53
44 0 4.8228 0 1.417
45 0 5.5432 0 1.417
46 0 0 0 1.53
47 -17.2585 -3.6157 -0.8364 1.53
48 -17.2585 -3.6157 -0.8364 1.53

BondBond13 Coeffs

1 0 1.53 1.417
2 0 1.53 1.101
3 0 1.53 1.457
4 0 1.53 1.42
5 0 1.53 0.965
6 0 1.53 1.101
7 0 1.53 1.42
8 0 1.53 1.42
9 0 1.53 1.42
10 2.5085 1.501 1.417
11 0.8743 1.501 1.0982
12 0 1.501 1.412
13 0 1.457 1.53
14 0 1.457 1.101
15 0 1.457 1.417
16 0 1.42 1.101
17 0 1.42 1.417
18 0 1.53 1.412
19 0 1.53 1.006
20 0 1.53 1.3768
21 0 1.53 1.3768
22 0 1.42 1.101
23 0 1.501 1.101
24 0 1.501 1.417
25 -3.4826 1.417 1.101
26 53 1.417 1.417
27 -6.2741 1.417 1.0982
28 0 1.417 1.412
29 -2.2436 1.417 1.3768
30 0 1.417 1.006
31 0 1.412 1.101
32 0 1.3768 1.101
33 0 1.101 1.101
34 0 1.101 1.101
35 0 1.101 1.42
36 0 1.101 1.101
37 0 1.101 1.42
38 0 1.101 1.006
39 0 1.101 1.457
40 0 1.101 1.42
41 0 1.101 0.965
42 0 1.101 1.42
43 0 1.101 1.42
44 -1.7077 1.0982 1.0982
45 2.0517 1.0982 1.3768
46 0 1.457 1.42
47 0 1.42 1.42
48 0 1.42 1.42

AngleTorsion Coeffs

1 0 0 0 0 0 0 108.4 120.05
2 -0.2454 0 -0.1136 0.3113 0.4516 -0.1988 112.67 110.77
3 -1.9225 -1.345 0.221 2.0125 0.944 -2.7612 112.67 111.91
4 0.5623 -0.3041 -0.4015 0.9672 -0.7566 -1.2331 112.67 111.27
5 -3.5903 2.5225 0.4888 0.8726 -0.3577 0.3888 111.27 105.8
6 -0.2454 0 -0.1136 0.3113 0.4516 -0.1988 112.67 110.77
7 0.5623 -0.3041 -0.4015 0.9672 -0.7566 -1.2331 112.67 111.27
8 0.5623 -0.3041 -0.4015 0.9672 -0.7566 -1.2331 112.67 111.27
9 -2.7466 1.4877 -0.8955 0.5676 0.945 0.0703 111.27 104.5
10 0 -4.4683 0 0 3.8987 0 120.05 118.9
11 0 -0.1242 0 0 3.4601 0 120.05 117.94
12 0 0 0 0 0 0 120.05 120
13 1.2031 1.3645 -0.7071 -2.7883 1.5193 1.4796 112.444 111.91
14 -1.3582 0.1465 -0.5729 -2.6321 0.9353 -0.8398 112.444 110.62
15 0 0 0 0 0 0 109 120
16 -0.7777 0.434 -0.6653 -1.8234 1.6393 0.5144 104.5 108.728
17 0 0 0 0 0 0 102.969 123.42
18 0 0 0 0 0 0 111.91 109
19 -3.343 4.4558 -0.0346 0.2873 -0.8072 -0.096 111.91 110.954
20 0 0 0 0 0 0 111.27 102.969
21 0 0 0 0 0 0 111.27 102.969
22 -0.7777 0.434 -0.6653 -1.8234 1.6393 0.5144 104.5 108.728
23 0 0 0 0 0 0 108.4 110.77
24 0 0 0 0 0 0 111 120.05
25 0.2251 0.6548 0.1237 4.6266 0.1632 0.0461 120.05 111
26 1.9767 1.0239 0 1.9767 1.0239 0 118.9 118.9
27 0 2.5014 0 0 2.7147 0 118.9 117.94
28 0 0 0 0 0 0 118.9 120
29 0 10.0155 0 0 1.7404 0 118.9 123.42
30 0 0 0 0 0 0 120 110
31 0 0 0 0 0 0 109 110.62
32 0 0 0 0 0 0 102.969 108.728
33 -0.8085 0.5569 -0.2466 -0.8085 0.5569 -0.2466 110.77 110.77
34 -0.8085 0.5569 -0.2466 -0.8085 0.5569 -0.2466 110.77 110.77
35 2.3668 2.492 -1.0122 -0.1892 0.4918 0.7273 110.77 111.27
36 -0.8085 0.5569 -0.2466 -0.8085 0.5569 -0.2466 110.77 110.77
37 2.3668 2.492 -1.0122 -0.1892 0.4918 0.7273 110.77 111.27
38 -3.9582 2.0063 0.3213 -0.4294 -0.4442 -0.6141 110.62 110.954
39 0.5111 1.6328 -1.0155 -1.1075 0.282 0.8318 110.77 111.91
40 2.3668 2.492 -1.0122 -0.1892 0.4918 0.7273 110.77 111.27
41 -3.406 1.6396 0.0737 0 -0.281 -0.5944 108.728 105.8
42 2.3668 2.492 -1.0122 -0.1892 0.4918 0.7273 110.77 111.27
43 2.3668 2.492 -1.0122 -0.1892 0.4918 0.7273 110.77 111.27
44 0 2.4501 0 0 2.4501 0 117.94 117.94
45 0 1.8729 0 0 2.5706 0 117.94 123.42
46 0 0 0 0 0 0 111.91 111.27
47 0.5511 0.9737 -0.6673 0.5511 0.9737 -0.6673 111.27 111.27
48 0.5511 0.9737 -0.6673 0.5511 0.9737 -0.6673 111.27 111.27

Improper Coeffs # class2

1 0 0
2 0 0
3 0 0
4 0 0
5 0 0
6 0 0
7 0 0
8 0 0
9 0 0
10 0 0
11 0 0
12 0 0
13 0 0
14 0 0
15 0 0
16 0 0
17 0 0
18 0 0
19 0 0
20 0 0
21 0 0
22 0 0
23 0 0
24 7.8153 0
25 4.8912 0
26 0 0
27 13.0421 0
28 0 0
29 0 0
30 0 0

AngleAngle Coeffs

1 2.0403 -1.8202 1.0827 108.4 110.77 111
2 1.0827 -1.8202 2.0403 110.77 108.4 111
3 0.2738 -0.4825 0.2738 110.77 110.77 107.66
4 0.2738 -0.4825 0.2738 110.77 110.77 107.66
5 2.4286 0.5381 -2.5301 110.77 111.91 110.62
6 0.1689 2.5926 3.9177 111.27 110.77 108.728
7 0.2738 -0.4825 0.2738 110.77 110.77 107.66
8 3.9177 2.5926 0.1689 110.77 111.27 108.728
9 3.9177 2.5926 0.1689 110.77 111.27 108.728
10 0.1689 2.5926 3.9177 111.27 110.77 108.728
11 0.1689 2.5926 3.9177 111.27 110.77 108.728
12 0 0 0 111 111 111
13 2.3794 3.0118 2.3794 111 111 107.66
14 -0.3157 -0.3157 -0.3157 107.66 107.66 107.66
15 2.4321 2.4321 -3.5496 107.66 110.62 110.62
16 2.4259 2.4259 2.1283 107.66 108.728 108.728
17 2.4259 2.4259 2.1283 107.66 108.728 108.728
18 -1.3199 -1.3199 0.1184 112.67 110.77 110.77
19 -0.833 -0.833 -3.5744 112.67 111.27 111.27
20 0.1689 2.5926 3.9177 111.27 110.77 108.728
21 -1.3199 -1.3199 0.1184 112.67 110.77 110.77
22 -0.833 -0.833 -3.5744 112.67 111.27 111.27
23 0.1689 2.5926 3.9177 111.27 110.77 108.728
24 0 0 0 120.05 120.05 118.9
25 0 0 0 118.9 117.94 117.94
26 0 0 0 118.9 120 120
27 0 0 0 118.9 123.42 123.42
28 0 0 0 112.444 109 109
29 0 0 0 110.954 109 110
30 0 0 0 110 110 107.067

Atoms # full

283 1 4 0 3.9582282932157593 10.007541470753115 4.742326181022858 0 0 0
278 1 4 0 4.6850865130048795 8.816959256832316 6.641226182276666 0 0 0
277 1 4 -0.1268 2.380316958359086 9.367558421804066 6.372423084738995 0 0 0
280 1 4 0 2.628696028397416 10.023138989814717 5.170918417356253 0 0 0
276 1 4 0 3.2973911172675487 8.616876352987552 7.022288847099916 0 0 0
45 1 5 0.1268 5.914919220867054 6.858755153761283 4.733387839709008 0 0 0
274 1 1 -0.106 2.9313906998627175 7.726539378904059 8.177374659432932 0 0 0
50 1 5 0.1268 6.490887916142735 4.48683922407493 5.137052686258057 0 0 0
116 1 8 -0.4974 5.729636070027304 8.235104039862918 7.384160350832063 0 0 0
114 1 6 0.2487 5.480986382569597 7.423384235212123 7.892662526573711 0 0 0
49 1 4 -0.1268 6.747749621128585 5.032885767597179 4.151083411076865 0 0 0
117 1 5 0.053 3.6092538190594077 6.922002562814769 8.350817033709458 0 0 0
15 1 4 0 9.120408462377695 2.709114930001791 3.9346223365182693 0 0 0
281 1 4 0 4.974598327599605 9.59829769112295 5.56045124279688 0 0 0
227 1 6 0.2487 6.617303508893527 8.110391699765977 6.954781452977443 0 0 0
361 6 1 -0.159 6.933630126659358 4.059882619999699 7.864737315863343 0 1 0
356 6 4 0 6.254383903940139 4.50407349301082 9.200216187300118 0 1 0
359 6 6 0.2487 7.929616572592754 7.334269392366995 9.70123494548183 0 1 0
157 1 5 0.053 3.4978962823401707 9.030061093441134 9.773024916818384 0 0 0
113 1 1 -0.159 2.672091369892608 8.484990896538866 9.410866864275143 0 0 0
357 6 8 -0.3314 7.831794846817038 6.378382676258557 9.281624235296846 0 1 0
354 6 4 0 6.771420624145394 5.576913159403015 9.878387903843455 0 1 0
447 1 1 -0.159 6.446545659851337 9.716335060325042 5.240798269870311 0 0 0
351 6 4 0 5.111391550917477 3.814313685169099 9.614886145151747 0 1 0
222 6 5 0.053 9.08728157827667 4.652641439104871 9.094595461926154 -1 0 0
223 6 1 -0.0233 9.136827425113673 5.674739775143516 9.37395908957193 -1 0 0
47 1 4 -0.1268 6.382281946966657 6.302034140375396 3.8622190489880066 0 0 0
360 6 5 0.053 6.200293356929447 3.6911901788110226 7.160078040052788 0 1 0
363 6 5 0.053 7.330366928899483 4.911336544220008 7.2458797685400675 0 1 0
173 6 8 -0.3314 4.675526773453795 2.678858895728317 8.923638168360569 0 1 0
362 6 5 0.053 7.72407720287214 3.268140876695555 8.000463957814798 0 1 0
17 1 4 -0.1268 9.208799484196314 2.5466933945639774 5.353145792671611 0 0 0
57 1 5 0.053 6.968854910263227 2.416680957404032 4.126428641584432 0 0 0
428 6 5 0.053 9.470496650803545 6.1561348050810665 6.489844259719111 -1 0 0
40 1 5 0.053 2.7029669900460322 9.168306276126255 2.8036822054677706 0 0 0
443 8 5 0.053 4.091170295114563 4.732257916659424 3.072277436746113 1 1 1
56 1 1 -0.106 7.72772482205589 2.8113047617196134 3.441074245705425 0 0 0
448 1 5 0.053 6.707038341611609 8.720268814889218 4.878142939475458 0 0 0
179 3 5 0.1268 9.90300591921577 7.579528873845823 3.232860550105835 0 0 0
177 1 4 0 7.399826233075122 4.2851009379988625 3.1663658594825614 0 0 0
273 1 5 0.053 2.0536097232813058 7.12571850643914 7.958958653450442 0 0 0
171 6 6 0.2487 5.359139019699702 2.48344699783324 8.148910385926598 0 1 0
174 1 4 0.0265 6.523986247744062 6.82206522781402 2.5516344497780583 0 0 0
18 1 5 0.1268 8.353060762151337 2.5163766559181875 6.027327029896597 0 0 0
53 1 5 0.1268 10.356280227491206 3.02314050338408 2.1420171963453316 0 0 0
14 1 4 -0.1268 10.419868394932783 2.4773670193157917 5.989884879375647 0 0 0
13 1 4 -0.1268 10.321438692222726 2.9168970337933207 3.2723278996148393 0 0 0
446 1 5 0.053 7.096925811600108 9.962638511976568 6.096710286250608 0 0 0
158 1 5 0.053 1.848384010785291 9.207483142429783 9.21358959636726 0 0 0
16 1 5 0.1268 10.453105482526414 2.4363777077990703 7.157581631912273 0 0 0
41 1 1 -0.0233 3.4707459997756636 9.861363187491294 2.3589579536571286 0 0 0
164 6 5 0.053 2.50389265185695 3.103985962652006 10.371119640955854 0 1 0
378 6 5 0.053 10.186766599111223 7.501699729101721 8.601484679538228 -1 0 0
169 1 10 -0.1595 6.076193428035452 8.09835742324471 2.186680000294612 0 0 0
379 6 2 0.08 10.349164101458083 6.417552407864248 8.495556388164092 -1 0 0
430 6 1 0.027 10.410089956662858 6.167367711569013 7.015962135757391 -1 0 0
572 2 5 0.053 4.866176409363652 2.8529375327620197 5.05660343858365 0 1 0
473 8 1 0.027 3.0801426877557345 4.185448333273339 2.924892327873364 1 1 1
270 8 5 0.053 2.4810911817581482 6.881897804520339 3.2394667104116377 1 1 1
471 8 5 0.053 3.1935678787344335 3.114804189277258 2.958158154107692 1 1 1
546 2 5 0.053 5.248542685761154 1.8843116947985914 6.342152641109689 0 1 0
466 8 9 -0.266 2.8468994051499363 5.530735805072717 4.97630647165696 1 1 1
472 8 3 0.08 2.105309581417786 4.753113345880063 3.985086834761734 1 1 1
269 8 1 0.027 1.971553571865677 6.2170066061976765 4.024050149027303 1 1 1
507 2 5 0.053 1.8972167278745298 3.189801326623717 8.399831842139069 1 0 1
189 3 5 0.053 10.029142672163692 10.188318684269667 2.1299779609745895 0 0 0
545 2 1 -0.159 4.52219494829515 2.038460088910371 5.551352998224444 0 1 0
570 7 5 0.053 10.514770338678737 9.63327247648182 7.721911727647148 0 0 0
576 2 5 0.053 3.5856757957730716 2.3555811368036186 6.053135138645289 0 1 0
132 1 5 0.053 7.6035071211866985 2.2110156184103174 2.431396986596094 0 0 0
452 7 5 0.1268 9.529468541211404 9.611709226649605 10.11067228049149 0 0 0
124 1 4 -0.1268 7.638519179116433 4.814558225339056 1.9007926135980286 0 0 0
183 3 5 0.053 8.689395579729688 9.070751347337445 1.714298320230678 0 0 0
529 2 5 0.053 1.4483309737490324 4.744931971476243 7.481470156091219 1 0 1
474 8 5 0.053 19.687905347731487 4.061551657024043 4.250811857831074 0 1 1
432 6 5 0.053 10.892837853960067 5.178283921537309 6.847772829110887 -1 0 0
453 7 4 -0.1268 10.567597726311686 9.436291549162583 10.415210787348608 0 0 0
253 6 5 0.053 7.736041521250706 19.740166217157608 9.983979985065881 0 0 0
176 1 4 -0.1268 7.182889203346844 6.072536795834864 1.5947689928623805 0 0 0
467 8 10 -0.1595 2.5331441676940387 4.51156246405802 1.626550057650964 1 1 1
224 6 5 0.053 9.485715501279026 5.663306292952873 10.483725631200468 -1 0 0
115 1 5 0.053 2.3686740751927937 7.813783681035976 10.17430630641838 0 0 0
255 6 4 -0.1268 9.494561163969163 16.166950527806076 10.565746494550163 0 0 0
161 6 5 0.053 1.9797568918614052 5.664475742587751 10.390330677305823 0 1 0
332 4 5 0.053 10.772988277627576 15.539517203674404 2.2657475656558055 0 -1 1
172 1 5 0.053 4.2759882117737495 7.256872906858673 1.721802724879369 0 0 0
275 1 5 0.1268 19.72041959198247 9.371074193075486 6.744246392669736 -1 0 0
180 3 4 -0.1268 10.764581882801837 7.459443124146908 2.4582889510248536 0 0 0
185 3 4 0 10.729655341423049 8.360217251274733 1.432441386029358 0 0 0
103 3 5 0.053 15.99116670267368 3.630875786939913 2.3254439565917497 0 0 0
271 8 5 0.053 19.580773990267595 6.784936613162663 4.48863509181821 0 1 1
577 7 4 -0.1268 12.849055126092491 10.128175123283002 10.251149444975747 0 0 0
126 3 5 0.1268 11.935769698411514 6.086558049671064 3.7348043414221124 0 0 0
350 6 4 -0.1268 17.65780563786722 9.581984374646241 10.295035342396055 -1 0 0
128 3 4 -0.1268 11.82368910059422 6.606049294282824 2.7812165221873695 0 0 0
528 2 1 0.027 19.591805137671983 3.685307086755581 7.669993226724177 0 0 1
373 6 5 0.053 14.148836053265992 9.01919407937698 4.022325013697081 0 0 0
288 1 5 0.053 18.924257511324747 9.272069597919977 3.3259728760746095 -1 0 0
380 6 10 -0.1595 11.102141678706243 7.248848774522007 6.375150825921243 -1 0 0
284 6 5 0.1268 17.060627173613483 5.958970294276803 9.236101342257268 -1 0 0
527 2 9 -0.266 19.219287907492316 2.9799974947630927 6.444526915556721 0 0 1
531 2 3 0.08 18.205165513866895 3.2412152156199054 7.460368694738997 0 0 1
533 2 5 0.053 17.435057951489 3.955275310058974 7.1285702051084705 0 0 1
193 6 11 -0.5571 11.491016504498162 6.041791791850946 9.204550507703317 -1 0 0
355 6 7 0.4241 12.311185918831312 6.414898454572682 8.82299584986728 0 1 0
391 6 5 0.1268 15.067452135357478 9.660899962247635 7.066659661587188 -1 0 0
342 6 4 0 17.10449372855913 7.949464441351971 8.576466860681304 -1 0 0
11 1 4 -0.1268 11.520471372164504 2.8529658019737822 3.9255707701874765 0 0 0
12 1 4 0.0265 11.603139660579503 2.5503968995367456 5.285390769911945 0 0 0
336 6 5 0.053 17.17622476595438 6.6515174345008585 7.036307270629115 -1 0 0
390 6 4 -0.1268 14.401653062114333 8.700478253319918 6.885340059969974 -1 0 0
384 6 4 0.0265 12.470964194632149 7.286073531294866 6.46858058768024 -1 0 0
387 6 5 0.1268 12.893309114565836 5.191531751352963 6.5634685381546 -1 0 0
388 6 4 -0.1268 13.321942955931057 6.1592271969645624 6.586932264697453 -1 0 0
335 6 5 0.1268 15.23631161686344 5.361836069270484 6.759028189074238 -1 0 0
392 6 4 -0.1268 14.687121852975206 6.279288130129943 6.766627959579439 -1 0 0
334 6 4 0 15.276079098697542 7.5264672136989414 6.857376333907615 -1 0 0
386 6 4 -0.1268 13.029585993610857 8.588804600685906 6.626199080185603 -1 0 0
337 6 1 -0.106 16.748853810734253 7.564386867593241 7.180983151871678 -1 0 0
382 6 5 0.1268 12.435421693337094 9.490070949025153 6.722348654187008 -1 0 0
10 1 5 0.1268 12.395311840030162 2.947228476547965 3.3164035364104705 0 0 0
338 6 5 0.053 17.26288453901668 8.192185948930938 6.491682366982459 -1 0 0
9 1 10 -0.1595 12.849351203472004 2.3845303347476166 5.913184312930336 0 0 0
106 1 5 0.053 16.735142397053988 1.9831962524401123 4.53764128077335 0 0 1
5 1 5 0.053 15.395677255577466 1.7661042711963861 6.266597722891771 0 0 0
532 2 1 0.027 17.713226128323733 1.9776835794913845 8.244490517550231 0 0 1
131 3 1 0.027 15.01361198107916 6.506014912705838 2.7041285483197512 0 0 0
251 3 3 0.08 16.329469682847893 5.80139040786005 3.0722250113181246 0 0 0
133 3 5 0.053 14.573282752076288 6.860205020643717 3.5918054326492177 0 0 0
19 1 5 0.053 19.014800153237907 1.7796771090877925 3.8647204816500493 0 0 1
343 6 4 -0.1268 17.30098638168758 9.242667062886532 9.016854513890163 -1 0 0
348 6 4 -0.1268 17.24479321003254 6.970625506805396 9.55864516486272 -1 0 0
125 3 9 -0.266 16.222582884155347 4.799570069539243 4.104008310189762 0 0 0
129 3 10 -0.1595 14.038740206466349 5.783841817473417 1.9345936021870602 0 0 0
291 5 9 -0.266 14.656240035800298 3.184173176165487 9.415975726748444 -1 0 0
134 3 5 0.053 15.392770650950627 7.438150005693183 2.1560173635472784 0 0 0
530 2 5 0.053 17.04828326205512 2.2203947029369986 9.075587299311861 0 0 1
225 1 5 0.053 14.939179112765032 1.5800333746748734 2.219463677360251 0 1 0
130 3 4 0.0265 12.891098027361252 6.5222743245678965 1.8376083831195855 0 0 0
297 5 5 0.053 12.496388020886204 3.4832739892086813 9.607522759519153 -1 0 0
294 5 1 0.027 13.392932367085658 2.9509041177218283 10.029325766000468 -1 0 0
248 3 5 0.053 17.134635747539974 6.50327609604153 3.1754455836227162 0 0 0
250 3 1 0.027 16.64137893759078 4.350051036513818 2.7935989750525243 0 0 0
339 6 5 0.1268 17.05823531176462 10.05310580487512 8.381451487589773 -1 0 0
375 6 5 0.053 15.483871555646868 10.174405124200657 4.573479160776026 0 0 0
249 5 5 0.053 13.055976616013291 1.95352057268855 10.38814600384121 -1 0 0
489 1 5 0.053 18.147963663398443 9.567794377259554 4.855015194478382 -1 0 0
104 1 5 0.053 16.82352132409899 1.5211119479301405 2.7986952907978466 0 0 1
287 1 1 -0.159 18.657256243473853 10.031555597746532 4.094223999723448 -1 0 0
575 7 4 0.0265 11.506629823845488 10.261256495700579 9.824800786083856 0 0 0
508 2 5 0.053 17.15383923619014 1.4336612735623433 7.451613649035821 0 0 1
292 5 5 0.053 14.11744459806399 4.9190598050109955 10.368270295245852 -1 0 0
110 1 5 0.053 12.576081506657625 19.55197703440531 2.13711918428486 0 0 0
102 3 5 0.053 17.676323108110317 4.063077421775821 2.63340208771434 0 0 0
372 6 1 0.027 14.681199761390902 9.938969056093137 3.8645378143098585 0 0 0
450 1 5 0.053 6.743236148337103 10.419915235489528 4.4707890744292405 0 0 0
286 1 6 0.2487 5.299986632832131 9.862605936918508 3.2895181594580594 0 0 0
316 4 5 0.053 4.270599511199149 17.590042985072692 1.927804743298652 0 -1 1
465 4 5 0.053 5.4541704273714 18.657972473110824 1.6707059758296927 0 -1 1
141 2 5 0.053 5.542256069909431 11.186689278732663 10.412144939350574 1 -1 1
285 1 8 -0.3314 4.387621968502392 10.365459820021679 3.3297090150230293 0 0 0
282 1 1 -0.106 1.5246587130107179 10.760997435251767 4.510768252161514 0 0 0
138 2 5 0.053 6.294117178505738 11.274997247144256 8.036877770617773 1 -1 1
323 4 4 -0.1268 7.670259222321935 17.003874552448856 1.8452954884506472 0 -1 1
146 2 4 0.0265 2.809728181338123 12.268084868650133 9.887854977195518 1 -1 1
143 2 10 -0.1595 3.9532128691408626 11.629346456840434 9.487136717316599 1 -1 1
142 2 1 0.027 5.237011255495734 12.040941905789305 9.817522784353438 1 -1 1
42 1 5 0.053 2.883910623583259 10.700424490075418 1.922793401374653 0 0 0
244 6 1 -0.0233 4.667981363606513 19.789061976830347 9.723460966657486 0 0 0
539 2 5 0.053 5.237418246996433 19.18994881626631 3.9844899849723863 0 0 0
245 6 5 0.053 4.519671625671266 18.934837764151567 9.009425531375943 0 0 0
63 2 1 -0.106 4.369664774274929 19.17523700863719 4.699657242064966 0 0 0
98 2 5 0.053 3.4653376818807833 19.221751604384266 4.0065771614739205 0 0 0
73 2 7 0.4241 7.529487003005331 13.461410860426017 8.989650352825858 0 0 0
464 4 6 0.2487 4.4501794911832615 14.227018348569569 3.2681997048067846 0 -1 1
140 2 2 0.08 6.1842108062724535 12.28506000587558 8.559200396562183 1 -1 1
254 2 5 0.053 6.3370505739666925 13.281273807355598 6.693433796141603 1 -1 1
258 2 5 0.053 4.695896757674582 12.64443662707068 6.907515611494243 1 -1 1
540 2 6 0.2487 6.909766951107175 18.00560595449042 4.196906459663378 0 0 0
547 2 6 0.2487 7.883713598620071 17.418200559645875 5.312235239501598 0 0 0
151 4 5 0.053 6.8886005076661885 13.094820267307652 4.557967509728855 0 -1 1
152 4 1 -0.159 6.552779568734367 13.202694992433644 3.5252022832101853 0 -1 1
156 4 6 0.2487 8.949755587570207 12.928716338161403 3.002027796819615 0 -1 1
65 2 4 0 5.780643763603352 17.436482880446974 5.839239846482049 0 0 0
542 2 8 -0.4974 6.984293136147454 17.894263383053314 5.1794784311086755 0 0 0
46 2 5 0.053 8.06721321005417 17.118153831029986 7.264367601488179 0 0 0
64 2 4 0 4.491404605572734 17.919246936367713 5.526696747763635 0 0 0
48 2 5 0.053 8.103684462125395 15.501729508470442 6.459678753383444 0 0 0
67 2 4 0 5.992225474243198 16.346912225631492 6.693003900657982 0 0 0
69 2 1 -0.159 7.470730893459731 16.13345931603962 7.186765274119759 0 0 0
44 2 5 0.053 7.4902651352042655 15.590907244656012 8.116226264111503 0 0 0
70 2 4 0 4.906509501363622 15.600354178272173 7.173847418501169 0 0 0
66 2 4 -0.1268 3.4576124401891946 17.234551715084663 6.057485511787384 0 0 0
72 2 8 -0.3314 5.08826648121727 14.45904575831352 8.066939380235212 0 0 0
68 2 4 0 3.6090218202780515 16.131659656624656 6.894821754534626 0 0 0
74 2 6 0.2487 4.151488756100947 14.275834190530375 8.491805572500732 0 0 0
257 2 1 -0.0233 5.5244592263713725 13.15245174383519 7.4609604870794515 1 -1 1
100 2 5 0.1268 2.426569475685598 17.49005418925224 5.713183154252594 0 0 0
150 4 5 0.053 7.009814212829801 12.30126294689907 2.992156217276259 0 -1 1
327 4 8 -0.4974 9.224085566160422 13.907439964301004 3.0829631761473446 0 -1 1
322 4 4 0 6.984303097772951 14.531305241458918 2.8462471578303394 0 -1 1
139 2 11 -0.5571 7.5746223627096825 12.540129762860253 8.835511592995434 1 -1 1
420 6 5 0.1268 9.278127844017902 18.934504133272696 8.433728752710282 0 0 0
320 4 4 0 5.910879984218217 15.432341033436721 2.473500955243505 0 -1 1
325 4 4 0 8.28188190313898 14.913261422314163 2.762287184970824 0 -1 1
317 4 8 -0.3314 4.5272768246077115 15.023830628109952 2.633890061771668 0 -1 1
318 4 7 0.4241 2.1690227079409237 15.187971494615615 3.142882786127054 0 -1 1
154 4 5 0.053 5.5202848855846 12.877206434952573 3.553135485513676 0 -1 1
88 4 5 0.053 2.777889546124534 13.005930343745407 2.165768619056081 0 0 1
564 7 9 -0.266 9.093022055243136 12.081292187606692 5.7771609926461585 0 0 0
459 6 5 0.053 7.057169524016333 18.750504405158765 8.635450420379424 0 0 0
71 2 1 -0.106 2.29205373962034 15.505067131417338 7.415723273718744 0 0 0
75 2 5 0.053 2.3927477051945703 14.937421021824083 8.3263811192381 0 0 0
252 6 1 0.027 7.095386286499666 18.888551797115824 9.714933914375536 0 0 0
483 1 5 0.053 1.9237784706534122 11.355766041344749 3.6853515715120793 0 0 0
202 2 5 0.053 2.5275066549324556 13.754142395827197 6.258715644882495 0 0 0
326 4 4 0 8.64838246902189 16.111074684624455 2.240132854882586 0 -1 1
20 2 5 0.1268 2.0042042682038868 18.12671986032474 10.46066419865583 1 -1 1
321 4 4 0 6.269710672946357 16.65276110695413 1.9253780982372442 0 -1 1
148 2 4 -0.1268 1.602853053832125 12.364293253915912 9.048832190765008 1 -1 1
559 4 11 -0.5571 1.644322700728129 14.751535234733295 2.49338636397747 0 0 1
451 7 5 0.053 9.342595516410608 13.562680668018768 7.316282097266192 0 0 0
204 2 1 -0.159 1.7293184905572034 14.536317359893449 6.401487346033813 0 0 0
421 6 4 -0.1268 9.692800600001203 18.03112404000526 9.002428635550547 0 0 0
101 2 5 0.053 1.55360949731209 16.28889013041872 7.516838411325189 0 0 0
566 7 5 0.053 9.179597024657355 10.744173090906957 8.085472417940355 0 0 0
86 4 2 0.08 2.510328690964609 13.997837659545795 1.6430331581998696 0 0 1
381 4 5 0.053 10.018716156251259 18.407601976129442 3.1974078536141604 0 -1 1
569 7 1 0.027 9.827249378227114 13.052521626691497 6.45106973839677 0 0 0
328 4 1 -0.106 10.130524388626053 16.455650405061803 2.140276593213819 0 -1 1
506 1 5 0.053 1.6889287783933629 18.31925724029267 3.0017208744239503 1 -1 1
571 7 1 0.027 10.245392931292692 10.745973270519684 7.776119681832637 0 0 0
145 2 5 0.1268 1.5938381906309158 11.774094049903299 8.104355216038291 1 -1 1
84 4 1 -0.0233 3.8032879500591754 14.792391135890815 1.3909831946723321 0 0 1
319 4 1 -0.106 5.221256623805276 17.624138538756192 1.3816938904284055 0 -1 1
242 6 5 0.053 3.79373987675293 19.76530195920751 10.402821859759419 0 0 0
329 4 6 0.2487 10.146806263220817 14.140011508849847 2.7265530529065236 0 -1 1
205 2 5 0.053 1.4864082660000688 15.020988008071393 5.458973936406848 0 0 0
512 4 5 0.053 10.423838016305856 16.99279151965078 4.169598685968832 0 -1 1
567 7 5 0.053 10.233030032475053 13.87613932221005 5.8538053224767 0 0 0
383 4 1 -0.159 10.604518830152296 17.457703011163225 3.221072997726909 0 -1 1
462 6 4 0.0265 8.940031364097667 17.305951777472117 9.94378849211102 0 0 0
461 6 10 -0.1595 7.67625225215154 17.6621149486796 10.273082490546438 0 0 0
217 6 4 -0.1268 10.860314816546806 15.846191830653018 10.39890815773528 0 0 0
144 2 5 0.053 5.325574935099535 12.87325977068261 10.553780407988569 1 -1 1
247 6 2 0.08 5.792395138777535 19.244414641432748 10.519856189329069 0 0 0
501 1 10 -0.1595 18.901017139313943 19.209594081928337 1.6363835755202811 0 -1 1
97 1 7 0.4241 14.001669683751077 19.591606171191188 7.833818303923114 0 0 0
574 7 5 0.1268 13.608007324681815 10.791398719565969 9.674459465854888 0 0 0
7 1 5 0.053 14.03764687760425 1.6404413293091433 4.2234206282428906 0 0 0
105 1 1 -0.0233 16.90061500487506 19.556585732583443 3.8338822971321704 0 -1 1
96 1 7 0.4241 18.599721477218303 19.419292735043456 5.881707567473691 0 0 0
367 6 1 0.027 13.90012288393533 12.473244108562094 3.941000562851957 0 0 0
36 2 5 0.1268 16.16155162572086 15.816952811399823 9.593340931310564 0 -1 1
112 1 4 0 16.142033753310514 16.202566904254823 3.171498372031551 0 0 0
38 1 5 0.053 17.598635201456 14.968931921101287 4.203212796184699 0 0 0
8 1 1 0.027 13.550086872057184 19.765167293834494 5.317212237398721 0 -1 0
108 1 2 0.08 18.438340346719997 19.236793534503974 4.0327766618322025 0 -1 1
4 1 2 0.08 14.774331090936215 19.33260381841079 6.181581422736077 0 -1 0
568 7 3 0.08 10.290763901988413 11.668805423623587 6.513991676647998 0 0 0
89 1 1 -0.106 14.641395780645254 19.301707719615116 1.4749558345031366 0 0 0
289 1 5 0.053 17.87114846697923 10.725876700814496 3.722428568664755 -1 0 0
22 2 4 -0.1268 19.491089673269173 17.685722586216826 10.192437221710664 0 -1 1
422 6 5 0.1268 11.651042350108984 18.206361532057677 8.049211308826342 0 0 0
535 2 5 0.1268 16.668693703042006 18.080972658772346 8.324611655708473 0 -1 1
92 1 1 -0.159 16.950577108779342 15.772300889812886 4.441657114547196 0 0 0
99 1 5 0.053 14.882745731934481 17.318782958420194 5.494999779338931 0 -1 0
279 1 5 0.053 19.63605864690677 11.546977209904592 5.236373928164346 -1 0 0
111 1 4 0 15.069323384069236 17.885915694739907 1.8391520874720237 0 0 0
3 1 1 -0.0233 15.534688003605417 18.196238001432818 5.4971517168178385 0 -1 0
33 2 4 -0.1268 17.0567120033866 16.420153809103958 9.740713967607986 0 -1 1
216 6 4 -0.1268 13.815147169898419 13.949979723312222 8.52203612646246 0 0 0
423 6 4 -0.1268 11.040752264411942 17.62468039689366 8.799261168475645 0 0 0
426 6 5 0.1268 12.845866847444494 16.499523001307402 6.486547831949198 0 0 0
93 1 5 0.053 16.272314212636346 15.417352998047903 5.322603909403089 0 0 0
219 6 1 -0.106 13.084843852399558 16.2846299944842 9.287163354868774 0 0 0
366 6 5 0.053 12.800027144615674 10.733668131313106 2.9678562440888 0 0 0
368 6 3 0.08 13.780313317769494 11.006488706139955 3.4358514419214212 0 0 0
109 1 4 0 15.970411087898077 15.282137992193741 2.1550006824009573 0 0 0
2 1 5 0.053 16.40541304632453 17.857244159412808 6.160506518183873 0 -1 0
374 6 4 -0.1268 13.637655880351899 14.595161263802664 5.888877863248925 0 0 0
32 2 4 -0.1268 17.276859258687075 17.65768196668332 9.120286604871257 0 -1 1
37 1 6 0.2487 17.43395377511716 14.018243228400845 2.780516664624815 0 0 0
24 2 4 -0.1268 18.957456123838192 13.063446316757156 9.482493391362974 0 -1 1
94 1 5 0.053 17.61431959407551 16.56290311257068 4.795938934018231 0 0 0
91 1 4 0 15.677686123013865 17.48790159733241 3.059100423627571 0 0 0
1 1 11 -0.5571 14.445681549221337 18.876592109283003 7.503147569138733 0 -1 0
573 7 10 -0.1595 11.169929995155933 11.189671702775202 8.804953298116128 0 0 0
370 6 9 -0.266 14.851989877685089 10.466328543503788 2.5950774814917814 0 0 0
565 7 5 0.053 11.16836087108557 11.388541507886426 5.896535216343715 0 0 0
221 6 5 0.053 13.609438159906908 17.161159872984108 8.991256637551107 0 0 0
6 1 5 0.053 12.952734946305332 18.907933652642406 4.977379472833123 0 -1 0
215 6 5 0.1268 13.851702815857214 13.697973674497621 9.559290729977498 0 0 0
203 2 5 0.053 19.267279581450715 13.924877785085041 6.591014035381267 -1 0 0
26 2 4 0.0265 18.528257048917396 18.294369983781642 9.318740780552295 0 -1 1
184 6 5 0.1268 14.357498371084967 12.000819843614435 7.981885287449445 0 0 0
28 2 5 0.1268 18.137101903596033 13.079907504436513 8.801932397577211 0 -1 1
155 1 8 -0.4974 16.654630634657487 14.031585556641476 2.210367448385089 0 0 0
376 6 5 0.1268 13.717373036758069 14.915709991498645 4.8080972625771645 0 0 0
425 6 4 -0.1268 13.228416812791806 15.492575699823025 6.832090718341567 0 0 0
369 6 10 -0.1595 14.52778612100024 12.41555487186121 5.260020507107031 0 0 0
95 1 8 -0.1654 15.93432322601217 18.53584943966272 4.122078686002125 0 0 0
218 6 4 0 13.3809944338717 15.249991318818825 8.180752807381133 0 0 0
371 6 4 0.0265 14.115893363107554 13.306097424425365 6.223641224085207 0 0 0
188 6 4 -0.1268 14.103194082358856 13.022567717872349 7.587029933807381 0 0 0
389 4 5 0.053 11.720532237630382 17.603147906495835 3.332733881627451 0 -1 1
504 1 1 0.027 19.00249150579716 18.47830822389249 2.863770638180047 0 -1 1
364 6 5 0.053 12.885226179332323 12.938438505729271 4.106003421331071 0 0 0
427 6 5 0.053 13.645894995344303 15.978324461845732 10.150877737068226 0 0 0
107 1 11 -0.5571 18.875336660198215 18.671910062217634 5.315597412942015 0 -1 1
534 2 10 -0.1595 18.763257307885198 19.571288712366453 8.767315779105427 0 -1 1
582 1 5 0.053 18.54221061751582 17.508090219650406 2.707683118206605 0 -1 1
424 6 4 0 11.639483569165284 16.589847519395164 9.551029036419257 0 0 0
365 6 5 0.053 14.514691084345397 13.184955644361724 3.3636064751770913 0 0 0
584 8 5 0.1268 4.000577088623612 5.716007816978409 16.051205017246183 1 1 0
470 8 4 -0.1268 3.271242169176819 5.093399006381077 17.905938961942596 1 1 0
585 8 4 -0.1268 4.06851888582057 4.916718521143322 16.73402733309595 1 1 0
516 8 4 0 4.8830825053635625 3.805800808108193 16.658364769402432 1 1 0
468 8 5 0.1268 2.6666409496394143 6.032102199404147 18.032181155883272 1 1 0
562 8 5 0.1268 7.051436845096217 5.596394290239097 16.282160904963508 1 1 0
469 8 4 0.0265 3.233975390476446 4.168846141565632 18.94808927230322 1 1 0
331 8 4 -0.1268 4.109836594653478 3.03962229348108 18.798697295072436 1 1 0
523 6 1 0.027 3.00307170775904 9.094106531233514 13.6113797169914 0 0 0
477 8 4 -0.1268 7.734434391371182 4.718277225162014 16.067390699535064 1 1 0
475 8 4 0 7.105876968103708 3.522358340889773 15.719904010437004 1 1 0
513 8 5 0.053 5.581093450473939 4.396092378238443 14.636564175949644 1 1 0
515 8 1 -0.106 5.669355321363129 3.6058717217662237 15.399555781109614 1 1 0
333 8 4 -0.1268 4.9538291204718945 2.8439783215087826 17.70266791570689 1 1 0
479 8 4 -0.1268 9.08609812648574 4.787278220549821 16.468605195323565 1 1 0
192 3 5 0.1268 8.493663022380307 8.327049619693856 17.791534259653474 0 0 -1
341 6 5 0.1268 4.542390695217284 5.528098981501054 12.3973650450507 0 1 0
478 8 4 -0.1268 7.8991047837193955 2.3671817611967327 15.650107981262703 1 1 0
526 6 5 0.053 4.156181080382089 9.31712596292837 13.627369772565032 0 0 0
480 8 4 -0.1268 9.159535672332314 2.401484217755289 16.068678543684598 1 1 0
407 6 5 0.053 8.094518535067321 6.963121430652741 13.297994174300179 0 1 0
314 1 5 0.053 8.53100983342564 3.3029101135399284 12.125291662526035 0 0 0
226 5 5 0.053 3.0461311235222137 2.7099374379183874 14.38803284689632 0 0 0
514 8 5 0.053 5.337082709317967 2.747791528926731 14.789603267407628 1 1 0
403 6 1 -0.159 6.970278401293771 7.097547933410952 13.183051162839163 0 1 0
401 6 5 0.053 6.654749528705605 6.025335409394247 13.46484842076195 0 1 0
399 6 5 0.053 6.5319091910619935 7.760117210252854 13.93663558644024 0 1 0
229 5 1 -0.106 2.3336624588050188 1.9466805245556895 14.869821611748211 0 0 0
228 5 5 0.053 2.208659798008063 2.4723907134969116 15.897409781808204 0 0 0
272 8 5 0.1268 5.64536164149389 2.029651134950335 17.670377197208623 1 1 0
120 1 5 0.1268 7.219064959593803 6.52191256035962 19.06764867895712 0 0 -1
167 1 5 0.053 5.2811682629510495 7.732708075237934 18.739572553803413 0 0 -1
345 6 1 -0.106 6.534912979403472 7.390037925801188 11.762895380228 0 1 0
166 6 5 0.053 3.112876678795015 3.1906702320818634 11.973689241477155 0 1 0
61 3 5 0.1268 7.954226807033944 9.2590440971104 15.450526146033017 0 0 -1
170 1 5 0.053 3.4333344390509017 8.965798414116026 18.775069798869822 0 0 -1
175 6 7 0.4241 6.230976820276834 2.5756795347884482 11.20462156449605 0 1 0
190 3 4 -0.1268 8.790253469427626 9.378336256406214 17.50265396264661 0 0 -1
311 1 1 0.027 9.58234653032218 3.4008281383109824 12.507174188728177 0 0 0
60 3 4 -0.1268 8.496755768613777 9.826328819590543 16.231250300515512 0 0 -1
563 8 5 0.1268 9.61648047701231 5.669931070276771 16.704619868769825 1 1 0
54 3 5 0.053 9.254214204529575 10.227729993472732 13.572028701947414 0 0 -1
519 6 9 -0.266 2.2447254104969905 9.478555430571149 14.713617562959202 0 0 0
521 6 3 0.08 2.0181866804383373 10.124024438943104 13.4748618016711 0 0 0
160 6 5 0.053 2.1800770958188878 5.429416180390144 12.233732271335509 0 1 0
482 8 4 0.0265 9.86278444276981 3.591294607351788 16.397403630628535 1 1 0
127 1 5 0.1268 8.124701826679344 4.154998959356231 19.55383058085087 0 0 -1
346 6 5 0.053 5.6121033073980575 8.020392211467456 11.786833207378821 0 1 0
313 1 9 -0.266 10.538220432848778 3.2089670270429673 11.469120175170973 0 0 0
312 1 3 0.08 10.347892008489005 2.147839703422738 12.415549436893658 0 0 0
308 1 5 0.053 9.770094473591158 4.188026717061325 13.213759748932889 0 0 0
522 6 5 0.053 2.6796421117163494 8.077783333639914 13.314201226515161 0 0 0
330 8 5 0.1268 4.274978895894098 2.336159665058477 19.613954173529073 1 1 0
449 1 7 0.4241 5.081002677982031 10.99118013977431 19.583180196857704 0 0 -1
186 3 4 0 9.500892999022179 10.067713814043906 18.462693515283938 0 0 -1
344 6 4 -0.1268 4.959010655605449 5.412102846394352 11.368902891188624 0 1 0
457 7 5 0.1268 10.194962841511403 7.8178033379231655 11.746670615810094 0 0 0
349 6 4 0 6.193442720438434 6.058139131612195 11.042471717723766 0 1 0
340 6 5 0.053 7.3318271523414 8.036179598039222 11.24073302354979 0 1 0
162 6 1 -0.159 1.991706159713496 4.964826541633567 11.261599747641833 0 1 0
165 6 1 -0.106 3.0303465769876636 3.8080984236607867 11.054686499524326 0 1 0
214 7 5 0.053 1.574212754539334 8.3041361461786 16.897875379598823 1 0 0
243 6 11 -0.5571 6.0881402432504785 1.7173379934253068 11.652734454863744 0 1 0
43 1 2 0.08 4.20335281293201 9.287357435920985 19.533347382940335 0 0 -1
347 6 4 0 4.3931125951861265 4.311751302415189 10.706943649474525 0 1 0
476 8 5 0.1268 7.401670064517602 1.464389084302481 15.297316009416837 1 1 0
39 1 11 -0.5571 4.9722442344495 10.350148637775554 18.874163247573748 0 0 -1
135 3 4 -0.1268 12.789073712700764 7.27337862642556 19.123340482125442 0 0 -1
520 6 1 0.027 19.05946012583283 9.958903296883825 12.8009295890695 -1 0 0
233 5 4 0 19.49148486036139 2.1332262001975817 14.107545291811523 -1 0 0
210 7 1 0.027 18.795399570286932 9.049618720024888 18.57121972747769 0 0 0
456 7 4 -0.1268 10.985617737440325 8.484433748322992 11.346212928890866 0 0 0
460 7 5 0.053 11.766669931194816 6.955444562922199 13.41307775788842 0 0 0
236 5 5 0.1268 19.103633890735168 4.022934523186956 15.077762946728148 -1 0 0
549 7 5 0.053 12.674282685474939 6.202282809212347 12.175166500812322 0 0 0
484 8 10 -0.1595 11.215557307680667 3.5195819968049564 16.666042178777612 1 1 0
580 7 4 0 12.300645750251656 8.257938686537221 11.729025238499082 0 0 0
581 7 1 -0.106 12.615747062453634 7.170906887033844 12.743306641755279 0 0 0
358 6 10 -0.1595 18.483862972213487 8.681069362044383 12.528681911573196 -1 0 0
241 5 10 -0.1595 15.654169847261826 2.6400668927695112 12.289424384707502 -1 0 0
239 5 4 -0.1268 17.433109384854276 3.49338210809706 13.788320301576531 -1 0 0
493 8 5 0.053 14.42794909376425 2.198072983465934 16.553121621046856 1 1 0
492 8 1 0.027 14.526016170129123 3.270614769919382 16.492940225425983 1 1 0
235 5 4 -0.1268 18.66627773204273 3.2780810708490544 14.389885957966921 -1 0 0
208 7 1 0.027 18.053800441036458 7.648456445811324 16.445408217686147 0 0 0
487 8 1 0.027 12.081551922337674 4.6220036662374335 16.71780699971243 1 1 0
419 7 5 0.1268 15.3874486291451 6.355002661594923 12.549720766496913 0 0 0
418 7 4 -0.1268 15.02059148763728 6.9049215088069875 13.489062251495428 0 0 0
414 7 4 0.0265 15.858657957075717 7.818615142051586 15.576187692221383 0 0 0
417 7 4 0 13.797897893933703 7.530610528618581 13.624574969877651 0 0 0
416 7 5 0.1268 17.095501901076993 6.719023360296735 14.205006806135545 0 0 0
415 7 4 -0.1268 16.075550540872925 7.163387600494514 14.402064257180873 0 0 0
413 7 10 -0.1595 16.75289479161931 8.002461581017737 16.62386726221485 0 0 0
455 7 4 -0.1268 13.697892904332846 8.410513643618955 14.693378639142015 0 0 0
412 7 4 -0.1268 14.629669837151107 8.518435709453644 15.714001068423462 0 0 0
238 5 4 0.0265 16.911719654549678 2.521997903796159 12.897816985269658 -1 0 0
454 7 5 0.1268 12.721293121013472 8.901787877141444 14.776485977882146 0 0 0
411 7 5 0.1268 14.510361984241287 9.172306270029853 16.628880502628213 0 0 0
206 7 5 0.053 18.117505027246963 6.610103753111673 16.185286441400528 0 0 0
490 8 3 0.08 13.603271890681357 4.419203876416148 16.430482006032875 1 1 0
494 8 5 0.053 15.611848720408968 3.5586336206206277 16.532392562542583 1 1 0
211 7 3 0.08 19.095770368248637 8.14448000329082 17.479722915041116 0 0 0
209 7 5 0.053 18.371124208121586 8.113499184692628 15.511996724396061 0 0 0
486 8 9 -0.266 14.07722635225041 3.9054650252953933 15.175032025181217 1 1 0
240 5 5 0.1268 16.77356715507434 4.303892359072194 14.113743761325953 -1 0 0
485 8 5 0.053 11.71180785752191 5.376499868909178 15.949296041449713 1 1 0
122 5 5 0.053 14.867116381885799 4.400260469722975 12.560225518771647 -1 0 0
488 8 5 0.053 13.98193554871765 5.41749700075947 16.6891847648455 1 1 0
121 5 1 0.027 15.38241456242146 3.8701059069897195 11.748104504073016 -1 0 0
496 1 5 0.1268 17.69773308011166 2.1337100176891854 18.02778095176435 0 0 0
491 8 5 0.053 12.05029690683862 5.105220923565428 17.6959207131437 1 1 0
353 6 4 0.0265 18.005210840234632 8.568623682111873 11.18637136394776 -1 0 0
578 7 4 -0.1268 13.157060207262479 9.163263616331854 11.156246819913257 0 0 0
579 7 5 0.1268 14.210801115063461 9.001768283987527 11.388747109104974 0 0 0
137 3 5 0.1268 13.682165554314278 7.2777122805913885 18.474801317394856 0 0 -1
191 3 5 0.1268 11.833558803839928 8.824805951467841 17.93796182266673 0 0 -1
119 5 5 0.053 16.236687016506885 4.468066925071773 11.417230452881812 -1 0 0
290 6 5 0.1268 17.993853741227838 6.432382118788565 11.416566090303322 -1 0 0
136 3 4 -0.1268 11.705920017694305 8.182091408365725 18.871258767972506 0 0 -1
377 1 5 0.053 12.0080731198194 2.4429653935467015 13.97455064151964 0 0 0
352 6 4 -0.1268 17.79028951295617 7.2577763066473375 10.766096198644593 -1 0 0
234 5 4 -0.1268 17.62907305244947 1.3778016031991305 12.636080437166294 -1 0 0
524 6 5 0.053 18.39982746430325 10.564476212569726 13.445299101785203 -1 0 0
310 1 1 0.027 11.36586283069943 1.6863597004366566 13.387113998301977 0 0 0
62 1 5 0.053 15.23135211791927 19.534448463463725 19.01800667682913 0 0 -1
213 7 9 -0.266 19.038020421841296 7.70461419028811 18.835081778944712 0 0 0
212 7 5 0.053 19.5335577366862 9.788654585278863 19.048467545242623 0 0 0
207 7 5 0.053 17.802510079732222 9.458919789190054 18.807003054362653 0 0 0
159 6 5 0.053 19.4251908744394 4.5195031672760395 11.245877062172479 -1 1 0
87 1 5 0.053 12.925891791659678 1.8840769446917744 19.007826147676255 0 1 -1
481 8 5 0.1268 9.73320535531905 1.4624634054582601 16.119389157285312 1 1 0
52 3 5 0.053 7.542867406193279 10.581568252411026 13.573349689770703 0 0 -1
444 5 5 0.1268 4.182600729027122 19.163787232212975 13.199538829058238 0 -1 0
315 1 5 0.053 9.818314888040993 19.66736212559773 11.967988689685688 0 -1 0
231 5 4 0 2.8581775635543663 18.913950765717104 14.885851951877745 0 -1 0
58 3 4 0.0265 8.907515343435737 11.18627340559916 15.96673706911694 0 0 -1
525 6 5 0.053 2.401006247801562 11.200998605781914 13.409789747575324 0 0 0
81 3 5 0.053 8.092043870637784 11.17501594538463 11.405362328193833 0 0 -1
55 3 1 0.027 8.536678774507703 11.073911269207636 13.527492026367717 0 0 -1
256 6 5 0.1268 8.964220506570216 15.62912709388148 11.34390519105504 0 0 0
147 2 5 0.1268 3.589294721487762 12.817995749476262 11.857093626076125 1 -1 1
79 3 3 0.08 8.59968105746824 11.781680494870372 12.181179285773398 0 0 -1
59 3 10 -0.1595 8.66584754870079 11.802358893282166 14.726939108695268 0 0 -1
77 3 9 -0.266 8.26347915946673 13.138949509818877 12.068721949284615 0 0 -1
182 3 4 -0.1268 9.831558971506276 11.390350527818834 18.184803319450396 0 0 -1
76 3 5 0.053 10.503862479103832 13.033790324188814 12.288124851600108 0 0 -1
541 5 5 0.053 4.079177515893443 11.15635750462715 16.328415417426292 0 -1 0
181 3 4 -0.1268 9.534328752911218 11.936661038508964 16.936218772835673 0 0 -1
445 5 4 -0.1268 3.731360235962452 18.47759476650331 13.927235450086306 0 -1 0
78 3 1 0.027 9.597902669999192 12.742189691498487 11.743274344914385 0 0 -1
404 5 4 -0.1268 2.6444643367143934 16.63494544643992 15.798372793224054 0 -1 0
583 4 5 0.053 4.413042305781408 18.24770665282665 17.90973484931186 0 -1 0
548 5 5 0.053 3.0153465428999944 12.176007321982258 15.323037428456475 0 -1 0
406 5 1 0.027 5.060721715501172 14.4772466943261 15.263328174035513 0 -1 0
405 5 3 0.08 5.195300147456816 12.986053648548094 15.669464364453408 0 -1 0
544 5 1 0.027 4.066210342559929 11.973986977591464 15.57812563408048 0 -1 0
543 5 9 -0.266 5.185167275769433 11.933844645141106 14.663282175356366 0 -1 0
402 5 10 -0.1595 3.749347260748076 14.840996558037777 14.805122352714319 0 -1 0
510 4 1 -0.159 5.144832246125338 17.584628311111494 18.27260141306114 0 -1 0
199 4 9 -0.266 8.602915214545185 17.27051919704791 16.381771967653464 -1 0 0
511 4 5 0.053 6.121988459181172 17.97057362411917 17.822187340516642 0 -1 0
408 5 5 0.053 5.154828719238676 15.083171881694161 16.204292236308213 0 -1 0
400 5 4 0.0265 3.517315470362631 16.20229755432304 14.77342002157499 0 -1 0
509 4 5 0.053 4.938896327170024 16.548854997472866 17.877886735598395 0 -1 0
538 5 5 0.053 5.953060384948813 12.875443082855934 16.440869729650046 0 -1 0
410 5 5 0.053 5.881595522800164 14.826537558103357 14.542210172332203 0 -1 0
537 4 5 0.053 2.694034247087738 13.296676515853736 18.147919518621798 0 0 0
397 5 4 -0.1268 4.057325007884539 17.134686992944367 13.925613711378169 0 -1 0
396 5 5 0.1268 4.739771010039377 16.79547710907181 13.108779162354203 0 -1 0
198 4 5 0.053 7.29849221216456 15.788496557753811 17.17191321200133 -1 0 0
196 4 1 0.027 8.357235109925497 15.948385442689286 16.958839983849096 -1 0 0
197 4 3 0.08 8.860004313610885 16.10392526238638 15.548363368370312 -1 0 0
194 4 5 0.053 9.092452319569732 15.720647463938972 17.787835184180267 -1 0 0
201 5 4 -0.1268 2.3628144675114413 17.998944860980068 15.852547903411143 0 -1 0
561 4 1 0.027 1.8771145401415068 13.705344528289745 18.760198060048303 0 0 0
409 5 5 0.1268 2.220357650924973 15.9534068266004 16.475610323378078 0 -1 0
149 2 4 -0.1268 2.7552427636576673 12.880253740980729 11.173399103777378 1 -1 1
200 4 5 0.053 8.085585916056047 16.01584726594749 14.801743901687795 -1 0 0
552 4 5 0.053 3.4583176055835967 15.782817295885016 19.459625252827152 0 0 0
27 2 5 0.1268 1.676164668547876 13.999878675859966 12.562407366677927 1 -1 1
25 2 4 -0.1268 1.6274426450511517 13.514406944174256 11.630797724592366 1 -1 1
178 3 5 0.1268 10.461368195423383 12.041455756834262 18.88394978188807 0 0 -1
51 3 5 0.1268 9.912045295384907 12.938649911943852 16.622781578481096 0 0 -1
82 4 5 0.053 4.393528714330954 14.29371923122607 19.08125284315105 0 0 0
90 4 5 0.053 1.5008118538777264 14.616026385068 18.286659492435867 0 0 0
237 5 5 0.1268 1.757908161601825 18.430747616496525 16.632721127191683 0 -1 0
21 2 5 0.1268 1.5403526718129896 16.140067952386033 11.54756092308816 1 -1 1
246 6 5 0.053 5.363521433766415 18.29902208772384 10.981699175553143 0 0 0
536 4 5 0.1268 19.731434934361484 13.714301546711539 16.190199099914125 -1 0 0
324 4 5 0.1268 7.902758625481084 17.898993129393126 19.67938936418549 0 -1 0
385 4 5 0.053 10.376829786883453 16.922540326710912 19.609651781663786 0 -1 0
80 3 5 0.053 9.7856300755208 12.79134517685386 10.6286105739446 0 0 -1
195 4 1 0.027 10.283904666657449 15.826048379290992 15.16888450301058 -1 0 0
163 4 5 0.053 10.656907498646436 16.41445025261156 14.337499846407969 -1 0 0
442 4 4 0.0265 11.861892844029894 13.982830988356401 14.550610768843171 -1 0 0
230 5 5 0.1268 19.34352562015912 18.6062567942962 13.181893835135112 -1 -1 0
262 1 1 -0.106 15.050465516093269 14.630666177029015 18.38721065652713 0 0 -1
305 1 4 -0.1268 14.35291449883917 18.066728915309405 12.50570171340635 0 -1 0
85 1 1 -0.159 13.130879899901995 19.416078879843006 19.592435042692642 0 0 -1
263 1 1 -0.159 13.583510283405733 14.070570488741568 18.461270047732043 0 0 -1
498 1 4 -0.1268 17.916373644848797 19.44501503294061 17.826640758832923 0 -1 0
553 4 4 -0.1268 16.389068801817228 11.856167704073354 16.590637224451044 -1 0 0
309 1 5 0.053 10.801129679977505 19.601120914957818 14.14262656242331 0 -1 0
495 1 5 0.1268 17.0755697524077 19.512938176511575 15.795486004941408 0 -1 0
29 2 4 0 18.908552411689328 13.578437777805004 10.81179496723359 0 -1 1
551 4 5 0.1268 16.854195379281165 11.63491948901265 18.65732712441646 -1 0 0
34 2 5 0.053 17.632386832590868 14.657284060386269 12.269332914622133 0 -1 1
502 1 4 -0.1268 17.881053047293584 16.719762460867734 17.471684136725642 0 -1 0
497 1 4 -0.1268 17.42425337102975 18.935362748107735 16.64112449460349 0 -1 0
431 4 5 0.053 16.269144333426446 12.691405710632568 13.250516626743282 -1 0 0
268 1 4 -0.1268 14.892561231713328 16.920708383000722 19.266216853939838 0 0 -1
232 5 4 -0.1268 18.875284473772 19.617772700495117 13.256949403336796 -1 -1 0
35 2 5 0.053 16.720222642039243 14.045596816785038 10.870602486006092 0 -1 1
557 4 4 -0.1268 17.906400905386505 12.931078416151527 15.198318246396298 -1 0 0
518 6 5 0.053 19.268149492855827 10.433869977086445 11.828876298242433 -1 0 0
441 4 5 0.1268 13.390584828871884 10.954536281821708 14.023385482791834 -1 0 0
429 4 5 0.053 15.777237682212249 11.197378741735848 13.941384480245345 -1 0 0
556 4 4 0.0265 18.389005222680105 12.721467231865201 17.61005680775009 -1 0 0
296 1 5 0.1268 14.566387289051269 18.157420105469278 16.444425671255203 0 -1 0
505 1 5 0.1268 18.786444770551434 16.574209961939246 19.37931430181716 0 -1 0
458 1 5 0.053 17.71106036285532 16.954117559306 14.259210531044031 0 -1 0
23 2 4 -0.1268 19.184119566228034 16.476394420043903 10.789942057961076 0 -1 1
394 4 10 -0.1595 10.516610968608092 14.436754859967566 14.66094956481028 -1 0 0
499 1 4 0 17.490151861967753 17.542827311892836 16.37257190235787 0 -1 0
307 1 5 0.1268 14.131611892903669 18.05081570783026 11.443113964985335 0 -1 0
83 1 5 0.053 12.772883091341201 18.501305066903107 19.04172683412883 0 0 -1
295 1 1 -0.106 16.953148343623425 16.95262655390362 15.048939065664554 0 -1 0
438 4 4 -0.1268 12.960034232196675 14.822001079116948 14.66727114046847 -1 0 0
555 4 4 0 16.624182409801517 12.366982743965037 15.376791604470991 -1 0 0
118 5 5 0.1268 17.278342077456905 19.045476942231318 11.95348218915818 -1 -1 0
503 1 4 -0.1268 18.346566575814883 17.29217993814058 18.651934884992755 0 -1 0
463 1 5 0.1268 17.905597139837653 15.601800159413232 17.273535827055476 0 -1 0
301 1 4 -0.1268 13.529224202970939 18.654542152989265 14.625138241052206 0 -1 0
31 2 1 -0.106 17.78800265042512 14.533630824276944 11.179911513265596 0 -1 1
398 4 5 0.053 10.890423566393617 16.001050857923325 16.085268002304954 -1 0 0
260 1 5 0.053 15.146798843738189 15.090470525930995 17.451587711622217 0 0 -1
265 1 5 0.053 13.132453944562753 13.863738592538114 19.45443196404714 0 0 -1
220 6 5 0.1268 11.308312557639015 14.933219442224148 10.890001664403965 0 0 0
298 1 4 -0.1268 14.633391443338331 18.127243747004265 15.293662949506905 0 -1 0
436 4 4 0 14.403162378072663 12.907974463511513 14.28997844052249 -1 0 0
299 1 4 0 15.682363874920172 17.577379833983834 14.526621784021096 0 -1 0
433 4 5 0.1268 15.072952397609065 15.043110044714108 14.522460107754293 -1 0 0
303 1 5 0.1268 16.22101963977814 17.031573709559204 12.453161238962883 0 -1 0
440 4 5 0.1268 18.348690350029443 13.207432228882396 14.146226496531366 -1 0 0
435 4 4 -0.1268 14.252358788724647 14.26959815448434 14.56790577390692 -1 0 0
439 4 4 -0.1268 13.32179023905309 12.07699001514766 14.269784589851568 -1 0 0
437 4 5 0.1268 12.894383532639052 15.939591838689037 14.745736106608335 -1 0 0
550 4 5 0.1268 15.380466572188672 11.418799327874774 16.75022593688575 -1 0 0
267 1 4 0 15.319345682244414 15.660487670469308 19.42969409909294 0 0 -1
293 1 5 0.053 16.773473196657463 15.89701526788659 15.186799730185324 0 -1 0
266 1 5 0.1268 14.3736624771505 17.10216972742758 18.33266362437179 0 0 -1
264 1 5 0.053 12.982181280539402 14.80155054962 17.992911849485523 0 0 -1
393 4 4 -0.1268 12.0185543522516 12.530221788048852 14.465948751339605 -1 0 0
434 4 1 -0.106 15.75841566452081 12.263618347879282 14.149212017039696 -1 0 0
300 1 5 0.1268 12.887452570759097 19.196994714052806 15.20140292854426 0 -1 0
306 1 10 -0.1595 12.204614219374662 19.138482282572895 12.735845746362362 0 -1 0
500 1 4 0.0265 18.443174227233655 18.65282062778519 18.883329406041362 0 -1 0
261 1 5 0.053 15.74890777010361 13.807240215094549 18.500423651032186 0 0 -1
395 4 5 0.1268 11.126988310395996 11.895207699781462 14.489451803217708 -1 0 0
304 1 4 0.0265 13.374653181776242 18.653456208695815 13.30519555372668 0 -1 0
558 4 10 -0.1595 19.17852509934624 12.806776210327799 18.781577885712856 -1 0 0
560 4 4 -0.1268 18.73432310674292 13.227967883703347 16.33874589063744 -1 0 0
554 4 4 -0.1268 17.21523049493887 11.964924888692265 17.679391558524273 -1 0 0
259 1 5 0.053 13.445284221212134 13.22408345410628 17.87333457218591 0 0 -1
302 1 4 -0.1268 15.439390928160728 17.46265005396676 13.095277284565563 0 -1 0
168 1 1 0.027 4.959690908456798 8.028017994096498 19.72657783656812 0 0 -1
123 5 3 0.08 14.346082968616404 3.8943198683287976 10.660528401059137 -1 0 0
153 1 6 0.2487 16.808447226154602 13.719399330207557 19.71427101211419 0 0 -1
187 3 1 -0.106 9.678643061670838 9.385378792152009 19.78776824478923 0 0 -1
30 2 4 0 17.98507952232483 15.832671880116534 10.59042433764709 0 -1 1
517 6 5 0.1268 17.57987621683614 10.643257956016317 10.665457062140284 -1 0 0

Velocities

283 -0.004732886954160911 -0.004797196050623424 -0.007899652489362675
278 0.0020682673958156363 0.008878270406833822 0.003884806357316541
277 -0.0009452380041647854 -0.0061171636419216045 0.003980194993546789
280 0.0053095160746379376 -0.01989020235270931 -0.001717709818893555
276 -0.0013417744977149342 0.00392385424642958 -7.28894166999444e-06
45 0.002427480706685468 0.015937725230721338 -0.0017208094243802144
274 -0.0017867537816508184 0.001128131607556129 -0.005239432685084527
50 0.015950735152212826 0.008130347946028758 0.0019164313426279663
116 0.00032437930989007055 0.0005764432964077307 -0.00511569111149416
114 -0.020432095723357614 -0.014021551853298325 -0.014221240021695267
49 0.001637823871981805 0.003330161227657302 -0.005733821178374228
117 0.02145038437495781 0.017523758565430144 0.003930705153647603
15 0.003863579146413882 -0.00053010159320036 0.00324252864138054
281 -0.0018462791645783684 -0.0037109339724301377 0.006057157313620342
227 0.015825223318541866 -0.0017152208379262726 0.002307038063068667
361 -0.0024005506637398313 -0.00037045439690768276 0.006016557392175716
356 0.0016461526826870524 0.008086562108473186 -0.005116742432481382
359 -0.009248425118502199 -0.005945519377519981 0.01915929402554504
157 -0.013229459788707123 0.011056070787245836 0.013234010484156197
113 -0.004237231493566018 0.0036457967078872286 0.005427116558456383
357 0.004791712650325379 0.002014137250912631 -0.004018726677334119
354 -0.006747617472677083 0.0010888614099704417 -0.0036034006655000523
447 0.000398340384742965 -0.0005393907717235335 -0.0031306713857949544
351 -0.0010534841426599229 0.009987327970427031 0.003272894270654258
222 0.01910677542111951 0.017326439760509633 0.007482183670261283
223 -0.008126276874022972 -0.0010307728581450844 0.0025657501835054898
47 0.007417536247746037 -0.00288059670293149 0.0008527703328443614
360 -0.002267102737521908 -0.0006005477648044188 0.015704918807241168
363 0.004333659124771333 -0.02058891881516914 0.0196177760182031
173 0.00019180655612581663 0.001194871750925534 -0.0007252368547393801
362 -0.004636731789411778 0.011525788543686993 -0.02363230907424058
17 -0.005105198217604251 0.0016689208430435945 0.0006460691707821147
57 -0.010769006899686044 0.0159924032099148 0.014198407693046101
428 -0.026871144178225753 0.002253683223401529 -0.018299577492532828
40 0.033305886019009565 -0.007017979867054124 -0.00031122830020294484
443 -0.01818084684919402 0.00018630909151417046 0.011613461852427034
56 0.00670271544936029 -0.0017965590150889224 -0.00529102186971975
448 -0.01926546539972686 -0.02071220204251108 0.017161536603125877
179 -0.015969256509792185 -0.011999071654402014 -0.015532173300314483
177 -0.005195022773541229 -0.007800956978848524 0.0016394157489694676
273 -0.020834608517152062 0.006977055825457134 0.019594296929876222
171 0.019030152703045266 0.017002309132139126 -0.006320469114880763
174 -0.002529484168675184 -0.004867157901164152 -0.004334884306196694
18 -0.0247912495018844 -0.005111997552579167 -0.008235529070571516
53 -0.014889239233252916 -0.0026027178995072825 0.003983305527941968
14 -0.001092926432598988 0.0025999565522697573 -0.0027602980004202402
13 0.005808762144867315 -0.0005147175477253546 -0.0057003584458732645
446 0.048985233627523384 -0.02598661381852108 -0.005513823462355683
158 -0.007129978724661599 0.01903837744410453 -0.009331211487687965
16 -0.002497810579585701 -0.006347398889423025 0.002599549306419661
41 -0.0015867930612690714 0.000747576044671804 0.00046899752242609714
164 -0.014554308940543163 0.0034659123865224306 -0.016414313134465945
378 -0.015171906899886643 0.014131246211584682 0.005322322055151137
169 -0.0008803954969980788 -0.002645120029796796 0.0023283127008911653
379 -0.0003664696943814792 0.005688977020100999 -0.005676991504331653
430 -0.0010922239113073527 -0.00549109990035578 -0.002542018237923594
572 -0.00021336032980607557 0.02654538637104196 -0.015681811253872077
473 -0.001447607163603073 0.002068940921697509 -0.00900519227001241
270 0.006998819450753682 -0.009424864084758589 0.032032160942205505
471 -0.04248299084817062 -0.01176318645716052 -0.004748774637059488
546 -0.011580396325642417 0.011222141853653708 -0.019457239858602086
466 0.0007080210043888752 0.002773957452929258 0.010380385291243872
472 -0.0031287901404108815 0.0021905747837349505 0.0006196750640289955
269 0.003386262440637598 0.0034501572131281815 -0.0006509362363410751
507 -0.006934331071918281 -0.01133432720191666 -0.029620303311341085
189 0.006082799788681051 0.01517904444189095 -0.0006733606260839456
545 -0.004061920175826049 0.0005355477835250253 -0.0006172655004040491
570 -0.0193112241663725 0.00253621115739113 0.005696856090352357
576 -0.010256545225191179 -0.010937029310399849 0.03064974883760195
132 0.008803817750319493 0.007780582610303826 0.003021419181746739
452 0.008535984495812218 -0.0217157804939173 0.024070569803942114
124 0.006968264964471118 -0.00041482180949353064 0.002028668465037816
183 -0.009445713996220628 0.013236969046899512 0.001159047405169466
529 -0.019983746070165037 0.024310050732999966 0.001050559422307928
474 -0.0004145517582511814 0.0068992121443495775 -0.0026501870687044614
432 -0.008952182758533338 -0.004797284837872763 -0.006011025780463953
453 0.0029882832792249713 -0.0037271325094611683 0.00027207946753242596
253 -0.004402582467433857 0.012680172326602788 -0.0016462329413125451
176 -0.0018247537737699515 -0.0025914497706769723 0.004488931824554951
467 -0.004161092704345021 -0.003680836312303381 -0.0014434962160699122
224 -0.012119358821622348 -0.025496028785774335 0.013267450930556831
115 0.00961459442963519 -0.01906711178593564 0.0033610344099441877
255 -0.00022338194708136034 0.005517125601449712 0.00042727043515644993
161 -0.03402151303101706 -0.01098182995378425 -0.0020906417973274275
332 0.001155004760321317 -0.0030655285729530835 0.004438799221672688
172 0.0002407437855092027 -0.001980342747797024 -0.005535193085545691
275 -0.010185168591807884 -0.002184769283896225 -0.0020598615595512786
180 0.0041519751178452965 0.0010435353657191565 0.0021718022428139395
185 -0.001931849303589009 0.0008461145128629264 0.002903166910298092
103 -0.033875720005056925 0.000902994502535238 -0.0018443605246516034
271 0.026378189868912646 0.026535344675877558 -0.0026072894704825367
577 -0.0056525564179609016 -0.0003690810119365094 -0.0005043423254032221
126 -0.0014932969095098779 0.008163418637092216 0.003772747170052069
350 -0.001148556132678509 -0.003333784607947249 0.0027179991801408675
128 -0.0004618274448712073 0.00708695181568306 -0.006691422063702483
528 0.0004880419964491223 0.005584914776767043 0.001813694486884479
373 -0.012021490614312392 -0.008939623941112421 0.010366088181849647
288 -0.004342408189657736 -0.0073369524965696785 0.007947786851345817
380 0.004492984222524971 -0.0033836032639953635 0.001316794553371321
284 0.006101064180630696 0.002534761380153416 0.004712748899708585
527 0.0014902160304227842 -0.002514726559671827 0.0018730921860477278
531 0.0018744815226372986 -0.009172085777689838 -0.00040545057185076164
533 -0.0037173711027128657 -0.01594729054421963 0.017864407371219193
193 0.004360519316084539 -0.002375399800489483 -0.00039587714046186403
355 -0.008331909536538666 0.03498292040116822 0.0011458227717231395
391 0.02280014549257673 -0.018341601665031643 0.007276030849936906
342 -3.590747283121643e-05 0.004823647133086183 -1.9666417158107287e-05
11 -0.00030621176962580354 -0.005183952428507098 0.0061727669903140206
12 0.002837706711954472 -0.0061019527487203564 -0.004503736911025578
336 0.01672624463637748 0.0026353525346386633 -0.029032116391327144
390 -0.0019018254942442143 -0.0007772427756972651 -0.002093767454503027
384 -0.0006561607587799495 0.004419791672253493 0.002950029093972776
387 0.013835619023758648 0.006137526054085537 0.022082087975297978
388 0.0004888888406022952 -0.0028192323049392207 -0.0032286698739555464
335 -0.029565099195965314 0.005347522230830308 -0.01832844545548929
392 -0.0062840971180791174 0.0030834593284770786 0.005917847707214132
334 -0.0019448876124687033 0.007835595396745833 0.00026816750614650886
386 0.0010550157288861171 0.006792975418263819 0.0019425262892509014
337 0.0049371520017605685 -0.00206622006961971 -0.00047386408860277264
382 -0.009706524173260235 0.016649386934586136 -0.0052094210890396495
10 -0.007259870682980203 -0.0061297427549110405 -0.007680249942824946
338 0.006423838353390445 0.0008105001241688686 0.040095079083629685
9 0.003916888642591892 0.004236571487185988 -0.0003327603054368506
106 -0.010263033898684184 -0.021344695432349264 0.03794997840494004
5 -0.019266774594199725 -0.009072258220882316 -0.004077556482085009
532 0.007507317809945326 0.0038438337426589505 0.004486260347318561
131 -0.0008681313310248232 0.004212528786786926 0.0008868896049747368
251 0.0028190555111943564 -0.006785923889356609 0.0012135113715890586
133 0.015110583189295798 -0.04141566932434103 -0.011541189614088947
19 -0.0010527779641954066 -0.007165302688019205 -0.011718878619167266
343 0.0024164587964222925 0.00561787840069392 0.00597708463953329
348 -0.00929409802548874 -0.0007058865834429307 0.0019070589256031025
125 0.004113552752262697 -0.006585982288358191 -0.000641300121681586
129 0.0065710144193276395 0.00032499546082469835 0.004454985981596806
291 -0.0028747022961584804 -0.005170271866355885 0.0036924158740048725
134 0.0018723283623601908 -0.006496101525207339 -0.01456714226044573
530 -0.0013228618682956212 0.024704199070525252 5.128256788947214e-05
225 0.0185710058128012 -0.012752127312021721 -0.004995997122842458
130 0.005413168458541008 -0.0034724403208222002 0.0007487088929185934
297 0.003846468880975085 0.007926946526435916 -0.003078149335125547
294 -0.0032879672097263506 -0.0035682421864977176 0.004748748522065661
248 -0.008182333548504653 -0.012900726182761453 0.02432953943559287
250 -0.0017571547884031131 0.0014421666034877879 0.005036761848301462
339 -0.012024936705635909 -0.007289254066672742 0.0032764387885593936
375 -0.016477682034091282 0.021699196403305913 0.011391620121356147
249 0.013278399071640934 -0.0020615951288582273 -0.0023391823812856046
489 -0.028546269186774755 -0.0009065580351992483 0.017119195027325142
104 -0.006096127574229732 -0.008116112560714343 -0.006408503544542142
287 -0.003354219035654014 -0.0026246489315211643 0.0006426547585039999
575 -0.0004033981663814224 0.0003908679912501813 -0.005475107595846737
508 -0.011320852721023579 -0.008429406451173491 -0.04370145076534348
292 -0.005346145521403423 -0.014526179989820923 -0.015688498622964245
110 0.0013007223689128547 0.024919084826647248 -0.005327860537562422
102 -0.00012581365684696106 0.012042048629866693 0.005520725980895347
372 0.0006856343051343524 -0.005554062554427525 0.0015981239848172279
450 -0.008426231046461492 -0.023738695047173256 -0.019640677889180332
286 -0.00364716638120925 -0.010544897226500568 0.0009317139035488256
316 0.039805116310519174 0.0019559771603604287 0.006691164630419112
465 -0.008940355563985177 0.02141227361062067 -0.02093527599206509
141 0.004091195100958899 0.017253219373819174 -0.008393473007074093
285 0.002440572668879199 -0.006369099089849881 0.00017895508933284384
282 -0.00661917341754567 -0.004246229278281331 -0.015161515952730365
138 0.0015707730183666991 -0.00621938459247982 -0.026195228108247405
323 -0.005137981209119432 0.00926982140167981 0.00713174473508664
146 -0.0008151883340122646 0.00039056140425402104 -0.0031444151187372343
143 0.005517374676315586 -0.0035325557826099687 0.0009848705849493339
142 0.004638611923948462 -0.00666847729456387 0.004930961230880124
42 0.009558049302597118 -0.01928776739630552 -0.012544623212737421
244 -0.007569309029802298 0.001788420374842707 0.006004422995574901
539 0.003229556425572831 0.005070519889907907 -0.009163790396894089
245 0.025055982187971962 0.025624664601755782 0.004582603354880918
63 -0.0006254355258645194 0.0004470741916875857 -0.012521043661536758
98 -0.01769900483356034 0.005771406238587014 0.010941393362767312
73 0.019187336556556033 -0.006311015535704116 0.009669463610500865
464 0.017852323989615244 -0.006517348719978683 -0.02251997998224258
140 0.0012801693744156819 0.00549198985214465 -0.0003260917017848993
254 0.022933149129959376 0.01011258856439592 0.0013872142658547819
258 -0.023642669904612668 0.022988777705777327 -0.0041946725386590444
540 0.02388362733399257 -0.004928193660329818 -0.011492477160592847
547 0.0191055518794046 0.007117595671751162 0.0023098804181718876
151 -0.019596577695924735 0.0020433868924385873 0.003499009425714841
152 -0.006468202569837861 0.00250443393175241 -0.0006052893800058582
156 0.0016953526073624529 0.010150420629615691 0.025591835110801087
65 -0.00014029498784031634 -0.003149076355627342 0.0021490340450338536
542 -0.007300263317630819 0.005086380463004075 -2.632958705038299e-05
46 0.00838510802590606 0.015279172515632496 -0.011635986647902087
64 0.004406416970154286 -0.004023924498767757 -0.00218346291527707
48 -0.011579822419299229 -0.016251660562811403 0.0007908494001172912
67 0.0022197403464917402 -0.007251257413709047 0.005149914274597793
69 0.0058941122257965516 -0.0018246294754791714 0.003032837806037565
44 -0.019231155370633447 -0.014349760416279885 0.019077254017679093
70 -0.00011385916463876045 -0.0017520415147742967 -0.00031232643140132187
66 3.011133869692884e-05 0.0031507908786684137 0.004433871968147413
72 0.005335762797433439 0.0011834431460399247 -0.005894599454778096
68 0.0005216826678937768 -0.001840768650457017 -0.00951205745931176
74 0.018502078065297734 -0.004698194470515409 -0.0010300493495483199
257 -0.0015370751893263482 0.004008866190007229 0.00034798966849497367
100 -0.005758951695858026 -0.0028947824992283304 -0.012384903240919402
150 -0.010291927371115067 0.005117696543973131 0.01684055153024892
327 0.001841978400653769 0.0027350250908225364 0.0009871996714195547
322 0.0010241842353213798 0.005560231793452339 0.0009239159417718333
139 0.007390594470274009 -0.0035887643355976668 0.0013663927166731136
420 -0.009999723732492064 -0.004235784385203581 0.0002963980109722653
320 0.00017622654180109265 0.0022028080654605546 -0.004682355643660739
325 0.0029313073099168224 0.0005416750103064752 -0.0028973233916681084
317 0.00325006386415288 0.0015580953190705601 -0.00010631189143405716
318 -0.018845763166776663 -0.010509847206925698 -0.002339064111746015
154 -0.015855517471630075 -0.013365055187785939 0.007878233630422705
88 -0.005686404138125483 0.0032549384947818676 0.002982319959482103
564 -0.007624441259452165 -0.006880555901482268 0.002330351701228125
459 0.0027043957150382743 -0.00034112841298949607 0.007138253465100371
71 -0.0013767714609423 -0.001742944152711576 -0.0018057473227783072
75 0.014096278125490759 -0.0009435880069402559 -0.0024384770796132996
252 0.0015113170165047725 -0.00438325676451239 -0.0041395905323660075
483 0.013913016191178875 0.016823428820541175 0.00020395455517241515
202 0.013556233320613413 -0.017089414057802264 -0.011216163420831503
326 -0.0031740882193181763 -0.0032961143972763886 -0.001975687604175372
20 -0.014350542398987256 -0.025490330239739126 0.023573340270529042
321 -0.004178083440814871 0.004311931369107489 -0.005028605139117508
148 0.0016250695685222334 0.006072507479627948 -0.0029971949976448854
559 0.0006493156743722038 0.0026007621723744046 0.0017771559769566424
451 0.007782113554915419 0.007547379674211017 -0.014534693521717833
204 0.002414690575789202 0.0001258293585600181 -0.002604165634985941
421 -0.005022032233414368 -0.0009646837273403477 0.0061979872087575
101 0.01212565326724552 0.0024107786768184153 0.008672389721012983
566 0.0018738425106597178 0.004642897415486679 -2.580204085343624e-05
86 0.0016887198181192147 0.0021364548130297237 0.0019088687295854658
381 0.0166007444308032 0.0037334405245303156 -0.004687732874044522
569 0.0014749685815867056 -0.001389635502625195 0.0018038005646038976
328 -0.005807199558206613 -0.0018597640487272465 0.004950437010819322
506 0.019710365753608027 0.0038415997535527564 0.002792051686939008
571 -0.005293885786855855 0.011506639652570016 0.002554501838832287
145 -0.009578470489762536 -0.00838264247713994 0.016436744018399785
84 -0.004591694863103 0.0013133887022590473 0.0014914553516864031
319 -0.011028712529144554 0.00011273604967490292 -0.0026789608192289444
242 0.01026671566586092 -0.00427857510373469 -0.008400421862601742
329 -0.005546295130289501 0.026305869968050875 0.016694045039707485
205 -0.015321239438569932 0.02896649268329391 -0.009193463678361003
512 0.016830452302489297 -0.023245037047617774 0.010487622748101631
567 0.00786946595768998 -0.01879386220840791 -0.004949406210342047
383 -0.002289384461487923 -0.004585142754672616 -0.008399040084171177
462 -0.0007641708275744878 -0.0045322399542433835 -0.0033076654289700123
461 -0.002369661809086719 -0.009030063637542598 -0.005716426992097445
217 0.00038998329287586657 0.0029327027398234865 -0.005656145050093938
144 0.038461800426202376 0.008210185177915151 0.03301604273489288
247 0.0009468348013436358 -0.0023335832964256043 -2.3913344620845244e-05
501 0.006568753672771495 0.00011709808311349182 -0.002194838830073965
97 0.00494046113091748 -0.0159639138466191 -0.011147363157415904
574 0.007339982846278878 -0.018736910001351116 -0.016864651299076307
7 0.012909268827425432 0.018998254148135434 0.005952082375557285
105 0.004009531111006062 -0.007500894898634435 0.0005307064825922288
96 -0.014094312159564313 0.011242070451991356 -0.00702944658699129
367 0.001931600947384933 -0.007129729770077089 0.0014651591487690302
36 -0.009729261138577024 0.006536744449343182 -0.015225374238079688
112 -0.0010805716226819874 0.0011597826618512557 0.0023001161836672356
38 -0.016633578395302245 0.006105413156897182 -0.0015633802720511607
8 -0.0038452060307779734 0.008025747996369518 -0.002577252127169761
108 -0.0064869459593501185 0.0025437557193863586 0.002882079220467902
4 0.0019304157439906642 -0.00015023338563588325 -0.0018113577619596796
568 0.004049128723099619 6.990528711252499e-05 0.002916798921936211
89 -0.00024040623278402494 0.003166990726706012 0.0002552062288326806
289 -0.004139657075677338 0.01314106121667931 0.006706547359633389
22 0.004653045723989656 -0.0006044798312737968 -0.0034949987244309194
422 -0.043923581442355156 0.020154453529562084 -0.0010491169112622017
535 -0.013699845661438531 -0.025130181283031728 0.007537734222514517
92 0.002559948593773159 0.0017188480012941827 -0.00039778425929873183
99 0.008893929843423777 -0.02860111988883696 -0.0027063201023191305
279 0.0022304648077951144 -0.01666913566896903 -0.0010026986102022167
111 0.005962008838867517 0.0011683566968728719 0.0014384654250223503
3 0.011814813357675728 -0.002555922799868122 0.0013502165101797854
33 -0.008083829830369642 0.0045618857217067255 -0.005313009623152553
216 0.0032004822464124305 0.002767637292546877 0.012610454927336881
423 -0.003892660883116065 0.006269542908091293 4.633999465453139e-05
426 -0.010746067401345727 -0.011021979311989413 -0.007485475427904967
93 0.007104813659932709 -0.006605411568792097 0.0076562412909573045
219 0.00013477235029842462 -0.002027617206986251 0.0032956080790023184
366 -0.009059453604074848 0.003459161991316177 -0.008304488600977772
368 0.005866173809355249 0.00031660165050260394 0.001398562034910808
109 -0.005878587458750296 0.0009694543785868248 0.00020204347160857487
2 0.021379638344342977 0.020577305199720015 -0.0014948190945628219
374 0.0005040411656494836 -0.004396045695355987 -0.004763884529610329
32 0.006636439342281433 -0.001234241023263503 -0.003198136706769713
37 -0.02588533999517754 -0.017591586837777524 -0.025380652684920575
24 -0.0007026798902285826 -0.00965401838242194 -0.0013510038693633683
94 0.010095903264127733 0.019710047426535263 -0.016371201566041906
91 0.0041779961856626595 0.006858125263981685 -0.0052304308861206425
1 0.005532903314614787 0.0067160671723985686 0.0019421271578928207
573 0.0015191542228787395 -0.0027802959789426196 0.001016196354767595
370 -0.003535834839105797 -0.0003102739728193651 -0.0006105288938498152
565 0.00698535575442158 -0.006172948269796457 -0.006983175033276355
221 0.009733139252769805 0.005908068330085547 -0.008848314141208161
6 0.014431266048428397 0.015368125202706579 0.00380196986543735
215 0.025303259854978936 0.026510734989440128 0.022093933852489846
203 -0.0063141838698184925 0.016646243334610067 0.014757048096776611
26 0.0009598635425340481 -0.0007504731929770169 0.00268730237286211
184 -0.012045121497490442 0.015118405698428079 -0.018195170955943096
28 0.02415010217115093 0.0034596328816370774 0.00020838242732883444
155 -0.004317592520310584 0.0028205184598136144 0.0006318823169570478
376 0.0050925456677976925 0.023434112749885078 0.01342648787427299
425 -0.006849181497288704 0.009578030883656299 -0.004379772560686744
369 -0.0016378563281708826 0.006776680906574114 0.007322033505212038
95 0.004974467172609266 -0.007146360055116894 -0.005124178591129025
218 0.00471325198826455 0.0011146792254090798 -0.008393710101942219
371 -0.0018372523549807444 0.0024898551563159615 -0.0003321338133430951
188 0.006374839419637688 -0.010846475482387775 0.001378949184051903
389 -0.03391889593139075 0.0199946382202193 0.009189197085161211
504 -0.008365413205932731 -0.006568743615185385 -0.004413867097223769
364 0.034177730288801014 -0.007624285609399727 -0.0024537163818298393
427 0.028058637106418212 -0.021950972700273415 0.021676383531317792
107 -0.00040810928529831344 -0.0007179912111929463 0.0029854948355026454
534 0.0007521975256554951 0.001038753453960528 0.005979416503705139
582 -0.006087668982732335 0.014803224267647701 -0.01423423194918935
424 -0.004023104419247162 0.0035209379654368928 -0.0016666050245468667
365 0.025496149188170867 0.011904611851851347 -0.010049133241264486
584 0.02633788121260499 0.03746402438206648 0.01603453266098305
470 -0.00012019358850712402 -0.005268455022829241 -0.005042143968546723
585 -0.005676854611421438 -0.009934005969465882 -0.006234623638341512
516 -0.005297614929082295 0.0068623531326673735 0.004393686120108818
468 0.015456269941861701 -0.02100047215846727 0.03387521610852075
562 0.0042087142864890275 0.0007812287440119069 -0.018434472616516706
469 -0.002932346897686566 0.0002416975755732822 0.001223511619298214
331 0.002315256339535103 0.005792079297839582 -0.0016706432449446699
523 -0.006248010248099901 0.0015304459897867559 -0.00018636469099708787
477 -0.0026433828223618038 0.0019089858538439179 0.0014730369415290713
475 -0.0020665737492323918 0.0040125261438892475 -0.005957064952382832
513 -0.007710181184830998 0.003276974836327028 0.017718572809287476
515 -0.0029349403639724733 0.0005397221996864163 0.004313058411827717
333 0.006240688785270745 -0.0037283025052842083 0.0025544136288694714
479 -0.00016939708819830763 0.0009588031306930196 0.0033003632766557046
192 0.03328766500389101 0.009025092289929029 -0.03033332962813217
341 -0.008486271779789237 0.013282312278574526 0.011223715700202053
478 -0.002732902535275324 -0.00048358451768169657 -0.001714558721080572
526 0.006277559421623549 0.006393624655994176 0.0008918469593015363
480 -0.003929794094048819 -0.007194535369597142 0.005507054031674346
407 -0.007309136246340526 0.012823551650946056 0.01771825759982709
314 -0.010696890164454765 -0.018268495489618765 0.002842258416343037
226 -0.017802173554879824 -0.013610331022254986 -0.006936152867935604
514 0.023840032182313977 -0.007173384798641224 0.004517550931637399
403 -0.005167370194612407 -0.00020913364683411212 -0.0003672808206428993
401 -0.010125647937035543 0.003904005319351349 -0.010500800101741538
399 -0.00950731850977111 -0.02792490955449157 -0.018747926472408645
229 0.0003349833025721458 0.0005874712625555032 0.002075858946488892
228 0.008295859399687652 -0.03505753554124709 0.01381386384864113
272 -0.010023208198056277 -0.014553702392754664 -0.00542020633188279
120 0.002322110313622916 0.012409122836127138 0.009048142736280537
167 -0.007586904313973244 -0.01157412126459638 -0.01503048431217766
345 0.009126314038242848 0.0019195059794233644 0.0031324264393210012
166 -0.005081556255176313 -0.016101258079189627 0.003255955843403835
61 0.037354040100097505 0.023774328078793854 2.2757638390768555e-05
170 0.009789541164776374 0.0009290106451042872 0.01034363438766093
175 -0.003306188793117615 -0.009544014209769578 0.008642052016356434
190 -0.0033198038114419697 -0.0011198187413285416 0.0015165590756680129
311 0.0013492770099548647 7.161649106063202e-05 -0.0030304076631370576
60 -0.0036972338141497128 -0.002504367183794383 0.005215229545296571
563 -0.00481643020828058 0.004128690955477205 -0.0022035200735406766
54 -0.01607824690001572 -0.015888602469926336 -0.0006519987181029968
519 -0.006826099584324316 -0.004940708858734218 -0.0065597882961832355
521 0.012187712041093427 -0.002118080995569855 -0.0047707619089517464
160 4.70554910151117e-05 0.00759308995452759 0.0171072916671631
482 0.004544191380057403 0.001964809082805509 -0.003879648015315043
127 -0.016924071092724535 -0.018255076816306115 -0.009978184540190203
346 -0.012073728983402907 -0.015097968001929156 0.007647305290006828
313 -2.9393076746885527e-05 0.00621736654838594 -0.0005490332261311484
312 -0.005922959353129646 0.000643310736550526 0.003965685083643407
308 -0.016072660010905588 -0.0009954553607357862 0.00980122797189814
522 0.0014544743967514536 -0.017614798987018704 0.027012952248054917
330 0.016561106680210876 0.01056186724070443 0.01089605764428501
449 -0.0269833855936694 0.0021587247314980066 -0.01074678119234797
186 0.004968295572229944 -0.001820278154741407 -0.0030927399165630275
344 0.0016113246714751326 -0.0010757506094053741 -0.004529847553043461
457 -0.030951941299058976 0.006891582710590155 -0.00032397916767950424
349 0.002111106181959543 0.0027525140278971644 0.0009508040268669132
340 -0.004004430397424541 0.017473813177528316 0.027730787749037207
162 -0.005322287463462037 -0.00296430492671791 -0.002700210006998219
165 0.009879051759726448 -0.00211206707196276 -0.0026159702721421057
214 -0.019287333036522004 0.01564280815425296 -0.0074349940124144205
243 0.0010101311452872504 -0.0004316201418971773 -0.0013642342951853091
43 0.005595035322017413 -0.001341383552137084 -3.035784396729836e-05
347 -0.0006392859640245462 0.001911144530313374 0.0005894056652348769
476 0.02976908190666744 -0.006191366856732353 0.017859593558049495
39 -0.007782336158919323 0.002445538311708302 0.0024899458359629503
135 0.002975562327878335 -0.0019010972824623374 0.0034398887183384598
520 -0.0009474500040340099 -0.010363214432190007 0.003053463311147505
233 0.0018587320126544004 -0.008497752357311993 0.008370104474124807
210 -0.004523029399565949 0.0024639986723899816 0.006390203381046176
456 -0.007056599970389428 -0.0028282076617443266 -0.0037720440520167724
460 0.002201367152273361 0.0034216663156238698 -0.013198272228989304
236 -0.02131590742609844 -0.019496261183675246 0.0027039663306812917
549 0.009631707813625712 0.025446579230386006 -0.00028786847818669303
484 0.002598378786259128 0.007673930892291007 0.003173785736388757
580 -0.0039811574680055275 -0.006384985186659775 -0.004947632809626669
581 -0.001856115992839317 0.008902817011025407 -0.0008921786197006701
358 -0.0012023172479281462 0.008078602553718131 0.009425885373751157
241 0.002693558807470247 -0.002397360609090465 0.0015855146437966825
239 0.002059146219132855 0.0022090570524069234 0.0018483066184307605
493 -0.012019586782703269 -0.015364152991080838 0.0009222345222992774
492 -0.0009543267359556473 0.005070669247697976 0.0005130204672986757
235 -0.0002530728949895936 0.00059212867875939 0.00020520130954256816
208 0.007310313270075757 0.00262347522489093 0.0049935478911488015
487 0.002055092598683949 -0.0026695714751437203 -0.0053541851107265555
419 0.003945140988479909 -0.040721599363926116 0.0111149948635944
418 0.01051672001226048 0.00962251495248122 -0.0009783187064782962
414 -0.0035854386415343996 4.616585641154032e-05 0.008598751643478435
417 -0.0054883562196395876 -0.00030662601736034846 -0.00304590814792565
416 -0.0011249084429250417 -0.013383083040249781 -0.007853116980910816
415 -0.00644802045572347 0.0031579149903748385 0.0028953318335994778
413 -0.0050023205936087604 0.0038932042873646017 0.002173198102343104
455 -0.002795837730387078 -0.008569049262700447 -0.0049807653750777526
412 0.0009144433957649962 -0.0035556976128267082 0.006281383492592606
238 -0.0006753285920736503 0.0015004489766786927 -0.004333128510448879
454 -0.0014584159272647147 8.405185497401991e-05 0.03729236655356377
411 0.0026444769609947796 0.0036227157991196076 -0.00881699063524292
206 -0.009847705683793397 -0.017629603064238334 0.022996510977942475
490 0.0036855919855317215 -0.00020067323924605443 -0.006094389832460073
494 0.00686493547302322 -0.012996931615171332 0.01688529507007923
211 8.952522571665189e-05 0.005852086769790758 -0.01166455898691401
209 -0.014604142585455573 -0.0078809228354334 0.01247795563956841
486 -0.0042353591624177825 -0.004613327282988746 -0.0038775010469670776
240 0.02939416215648497 -0.026238828849020287 0.01773441137128723
485 -0.010651379760063587 -0.0028323238853246754 -0.012409503734214587
122 -0.011318154369989003 0.001973747763885995 0.017199404879438662
488 0.003671863748412278 -0.011743143372088368 -0.014207980253617305
121 0.006257563048173261 -0.002887655907243463 -0.003248647714936646
496 -0.018594101365143462 0.015020346399863129 0.009394566945666007
491 -0.0051806667334626565 0.018287668629914145 0.005469134870416794
353 -0.0076474018316051145 -0.0035112223171955737 0.0016218937246735676
578 0.007120993581221786 0.00033558923949258485 0.004905104047139144
579 0.00476294783618391 0.0011266237800988375 -0.008067393479948613
137 0.0024749755909214237 -0.025333100131224147 -0.016354869501696588
191 -0.0027395726461865513 0.03136258155494132 0.019441908547078085
119 -0.026274657748451 0.014178249237860928 -0.00795711495718252
290 0.025556619387897623 0.00033652520422987456 -0.0033156435496853407
136 0.004774493229193732 0.006785674407909362 0.0002583556402321996
377 -0.03105847050691339 -0.01993797662541646 0.026101239565437768
352 -0.002955071088113265 -0.012196437191730969 -0.008553160596793011
234 -0.0011651547212396347 0.0005070432798846909 0.00547595042748367
524 -0.005514096723809032 -0.0027554524315712282 0.008750948124784705
310 0.007274858683984206 -0.004050981947753996 -0.0005185528535676875
62 -0.015766249036777865 -0.004961574264999202 0.0034243195399905877
213 0.0022599443404142626 0.002439686064798387 -0.00019794969434083518
212 -0.0029131973566457457 -0.007351288968259918 -0.0047163908573828696
207 -0.03712010744198907 -0.004769835473564424 -0.022191919330761437
159 0.007019797793877555 0.01249683384783075 0.027640819612946663
87 -0.0202003345967141 -0.003911133083324974 -0.006577366466834155
481 0.014166532049135023 -0.0026641188331513327 -0.01084408151391293
52 -0.02282271792381259 0.006437854564890348 -0.011955693357296798
444 0.007301597715994541 -0.006055237680435577 0.015219999188893878
315 0.047057053529602044 0.0024815022033279925 -0.005214572298493059
231 0.010863348202611187 0.0011925011683250782 0.0034900964914000546
58 0.001535517832186468 -0.00044995086772704025 -0.00592415168160757
525 -0.005144640867299745 0.01904273960053207 0.00035753396431030765
81 -0.030947110456326084 0.006109076247147293 0.010620504084610719
55 -0.0017064889052518485 -0.004685464151089789 0.007812220066751728
256 0.0013080237784308332 -0.009779657691269077 0.021709939661334814
147 0.021851088093828745 0.022783053564493446 -0.02025645941286811
79 0.0027917619739398864 0.00432270957860512 0.002898646096234028
59 -0.0029415338625288978 0.0021291303123789607 0.0036493212603597343
77 0.000226763452644109 -0.00027862207061285775 -9.77579932319319e-05
182 -0.0017771367545227252 0.0013736558643191463 0.0070867588999934065
76 -0.01190221864216858 -0.01675961210185355 0.011016944849186713
541 -0.005050403519407424 -0.005357460677049596 -0.01804234727042201
181 -0.0032097511206717606 0.002939458036314391 -0.0028840763408532664
445 0.004531124347642758 0.0028172611910192735 0.0011087456715108887
78 -0.008160033990853813 0.003397765046028269 0.002686991157435626
404 0.004243482655628259 0.006817200070962352 -0.005013662178763645
583 -0.010578169029140303 0.009254695037903982 -0.02061958057960232
548 -0.00240147223090276 -0.00199311647060472 -0.011101410965865373
406 -0.007600535877673925 0.0032566361453195878 -0.00046725881072518676
405 0.0018713484770504273 -0.00025923077576405797 -0.00019956858785716224
544 -0.0014247528401950746 -0.006842494360002732 -0.004761137556626464
543 -0.003948105005836192 -0.007445281657113276 0.005572386253515208
402 -0.0023996122030498813 0.0002823913542648798 -0.0012454201214264177
510 0.0009731956972100994 0.006829907940753133 1.1960260658205168e-05
199 0.007375213245664613 -0.0006586597734287602 -0.004515168266612151
511 -0.0055785714242092225 -0.01477204015701723 0.01204354497705952
408 0.00564293058111438 0.008934989703834459 -0.0009998675862141456
400 0.0024001747612194466 0.005630631809029272 -0.004003760782865309
509 0.01067188193892454 -0.011388137418787539 -0.008960385972514067
538 0.0007205232554251224 -0.0009605428910390621 0.03130820429523315
410 0.016306636000133285 0.018982394852078272 -2.504220135741676e-05
537 -0.011143325859644311 -0.007857443732075064 -0.005683105584576892
397 -0.0032290944555691285 0.008640745979478254 0.002675834396633675
396 -0.00023949816325014074 -0.0017845484105605022 -0.013886539847694014
198 -0.0031436975439504047 0.023360856099726095 -0.010618734578017876
196 0.0004195506549898637 0.005810807344268043 -0.0014426996117103664
197 0.006344696984532796 0.00056886679267431 0.0021393907706434654
194 0.00987616628151662 0.02558731051212778 -0.03728599145614872
201 -0.002125062372122331 -0.002718958936117703 -0.005384339474051263
561 -0.0037188362179821797 0.0004862343575652335 0.001083442088711455
409 -0.02656866215364355 -0.006460707654491264 0.010841241927341233
149 0.0027794920510979104 0.005740740198830227 -0.006763593227693306
200 -0.024363176505427485 0.017079209422983545 -0.0007204988618198988
552 0.021294191563520425 0.021875954888508048 -0.008868590402356852
27 0.00884288493039285 -0.005529772813497296 0.03536068899827008
25 -0.0023971635539146827 -0.001497934584240603 -0.0025772148343473178
178 0.0016476236238804932 0.0024944028084331574 0.00015969301601527489
51 -0.005580634696413648 -0.014176049032541495 -0.030340384700193315
82 0.009491238921937196 0.004006663593945928 0.016175466711476714
90 -0.0047474409844062765 0.019380057169194838 0.007467573307900157
237 0.013265839495918714 0.019248561111753198 0.013283157242377126
21 -0.017335215666173853 -0.010170458047406121 0.009204639604111688
246 -0.01942023577284158 0.01942020964530761 0.031385643949905936
536 0.01710067427736579 0.04125457465928674 -0.020997035052214976
324 0.017481398630986175 0.014315270559443549 -0.010224173207249377
385 -0.006090512253231575 -0.020200397617225026 0.0027160238094755974
80 -0.0014519948222851474 0.01424608067523151 0.03214647713775181
195 -0.007915635209833249 0.005959676441344032 0.004488151668715145
163 -0.0034364580893238694 -0.0375037384515155 0.005729300405854432
442 -0.002904387777723989 -0.0013799835129303733 0.006042540327585534
230 -0.007005133502895622 0.01792112036354661 0.0010513843172224057
262 -0.004183147275316176 -0.012116147401091229 -0.0026119991906214455
305 0.0024090663765727006 -0.0018520944601251672 0.0022541875752052146
85 -0.007621344056678113 -0.0005697359702255399 0.0005003772188385984
263 0.0019619470373206708 -0.0002075766679229112 0.0050079058999119
498 0.0029690506631480677 0.002281243808731111 -0.0016741107235318097
553 0.0030616197675048954 -0.0040679115075878715 -0.00474203805732685
309 0.016998235406471027 0.017490389893573512 0.02996973170517314
495 0.006430917383430383 0.019969508750605137 -0.012008197872868269
29 0.0019729983747765064 0.001862025623418968 0.0012934693955627928
551 0.001997405723544758 0.017432355833693368 -0.02034233230361662
34 -0.020033536729844544 -0.0009653300709314447 -0.016461148443558726
502 0.0032213577079952763 0.0018914115286588903 -0.008941128842082894
497 -0.0018262633045524135 0.000468525262264363 -0.007731715255952288
431 0.007112704358957192 -0.009036508948763311 0.013792298032620437
268 -0.0005570792807727459 -0.005416818928004107 0.006997841633731742
232 -0.0029329775999739306 0.0023370094072558156 -0.0018741843536400505
35 -0.02403011167230554 0.007112516121925171 -0.00920858877407339
557 0.0036342658713962163 0.003578388096909165 -0.0033492557167947388
518 0.002931869636120358 0.0046747108211114665 -0.00480855678020098
441 -0.00799924516336337 0.005448263324677118 -0.009042111504909372
429 0.027900221925307427 -0.0022298101214869377 0.009348730764378938
556 0.005245755049083061 -0.002734034475178927 -0.0004916136232686064
296 -0.01841347788489856 0.028648542434230338 0.014742575308926939
505 0.014266148760680887 -0.017549813734980532 -0.0035340595733884712
458 -0.011353207957260004 0.009131183840522776 0.021714286762066812
23 -0.0015706278558120718 -0.004211479415714454 0.011076855457095604
394 0.003420913579969761 0.0012120632661251787 -0.011603125918635576
499 0.004903775265025626 -0.004286246538136952 -0.004744180918422798
307 0.03500932081108168 -0.011333250742180244 -0.011748224577288852
83 0.0005607963336650814 -0.02815154398689241 0.008426734822437104
295 0.0017414036007345427 -0.0029339008221328363 -0.00587386918755625
438 0.009409664776576475 0.002976432445211387 0.00224435639865104
555 0.004145763582942911 -0.0054283554599653385 -0.0068624831789210385
118 0.005478031543607205 0.013509757119126877 0.020541630077510344
503 -0.0017385711381233703 -0.00018564328098634358 0.002980638735926264
463 0.015601170458037095 0.0013250876146862131 -0.023387526253059482
301 0.003165611977449243 0.0019802173822619485 -0.0017935134397580044
31 0.004529536126878729 0.002157323676808335 0.004867500005922548
398 -0.003757399593554312 0.020519219204883532 -0.008007410942100163
260 -0.027730035082657898 0.0066632574386531395 0.031144852948946828
265 0.009752869484930418 -0.012296150136429328 0.004876276728227922
220 -0.0159030194769793 -0.001275618905839545 0.015585661641685601
298 -0.002103647443307746 -0.0008332111278592994 0.0009513418124611922
436 -0.0017729237176948062 0.0034302967125447894 0.0020724083001291507
299 -0.004545806483981494 0.0033147623941503553 0.001410355439253321
433 0.003318974157330579 -0.011323488562829758 0.011217199026985758
303 0.016624764567873873 0.011655070888325349 -0.004500130051862395
440 0.005796048228282675 0.008912670850160728 -0.009583060344637741
435 0.0010223913849750502 -0.007423725406424314 -0.0017933592917293282
439 0.005702324792882242 -0.003920676148023242 0.0006551131599246084
437 0.00014628692560249003 -0.0017479981939790502 0.0027947905213048917
550 -0.0027807345395751454 -0.011627153173737343 0.029124758200894208
267 -0.0033093631926525402 0.0013681863512998377 -0.003793599418136881
293 -0.004758915680223483 0.013198454491880672 -0.001733114692485204
266 -0.008144536589986083 0.040181629159143695 -0.023957964079868246
264 -0.032574887355857576 -0.01155102665538831 -0.002578667326498929
393 -0.005679600969791943 0.0021551034748168185 -0.004226108226564683
434 -0.000311145798657903 0.0016954156308934957 0.0007635659247420249
300 -0.0018576602507919936 -0.028762885347022572 0.005340348240960578
306 -0.003672055098376549 0.0012922781736644936 0.0005384213072442072
500 0.00463405635985549 -0.0038315625188775886 0.0008832019739339332
261 -0.0064551146935759645 -0.009205466111208033 -0.01359439995776358
395 -0.0029581505574162903 -0.014391508208220254 -0.01602335291647768
304 0.006315585731227851 -0.013996233151454344 -0.004590289560459623
558 0.006259664994339366 -0.0007691692932337605 0.0004554969370394398
560 -0.0036839636013263565 0.00442050092154687 0.003968992157002178
554 -0.005696553881551453 -0.0019753729430842105 0.0010659552612215027
259 0.004127116853455334 -0.01009623978646877 -0.008407890810052158
302 0.007404521336876965 -0.004694380141850557 0.0016573098512464273
168 -0.0021391518316089516 0.0025662898880515917 -0.00036090507597108924
123 -0.004908774166467907 0.009030504446740759 0.00378223403664181
153 0.003881834289938431 0.0169739343412076 0.017777253431219445
187 0.007044196114143736 -0.0020825999742814646 -0.003595271170974336
30 -0.006064914856423954 0.0024753582982527784 0.0020105763334467668
517 -0.0013337215982723973 0.0094319712477136 0.01024094444529827

Bonds

1 13 283 281
2 15 283 285
3 15 278 116
4 13 277 280
5 14 277 275
6 13 280 283
7 13 276 277
8 13 276 278
9 4 274 276
10 5 274 117
11 5 274 273
12 17 114 116
13 13 49 47
14 14 49 50
15 13 15 13
16 13 281 278
17 17 227 116
18 4 361 356
19 5 361 363
20 5 361 360
21 5 361 362
22 13 356 351
23 17 359 357
24 1 113 274
25 5 113 115
26 5 113 158
27 5 113 157
28 13 354 356
29 15 354 357
30 4 447 281
31 5 447 446
32 5 447 450
33 5 447 448
34 15 351 173
35 6 223 357
36 2 223 379
37 5 223 224
38 5 223 222
39 13 47 174
40 14 47 45
41 13 17 15
42 14 17 18
43 4 56 15
44 4 56 177
45 5 56 132
46 5 56 57
47 13 177 49
48 13 177 124
49 17 171 173
50 16 174 169
51 13 174 176
52 13 14 17
53 14 14 16
54 13 13 11
55 14 13 53
56 6 41 285
57 2 41 43
58 5 41 40
59 5 41 42
60 10 379 193
61 9 379 378
62 8 430 380
63 2 430 379
64 5 430 428
65 5 430 432
66 3 473 472
67 8 473 467
68 5 473 471
69 5 473 443
70 12 472 466
71 11 472 474
72 7 269 466
73 3 269 472
74 5 269 271
75 5 269 270
76 5 545 576
77 5 545 572
78 5 545 546
79 14 124 127
80 13 453 575
81 14 453 452
82 13 176 124
83 14 176 120
84 13 255 217
85 14 255 256
86 14 180 179
87 13 185 136
88 13 185 180
89 13 577 578
90 14 577 574
91 13 350 343
92 14 350 517
93 13 128 180
94 14 128 126
95 7 528 527
96 3 528 531
97 5 528 507
98 5 528 529
99 12 531 527
100 11 531 533
101 18 355 193
102 13 342 348
103 14 11 10
104 16 12 9
105 13 12 14
106 13 12 11
107 13 390 386
108 14 390 391
109 16 384 380
110 13 384 388
111 13 388 392
112 14 388 387
113 14 392 335
114 13 334 390
115 13 334 392
116 13 386 384
117 14 386 382
118 4 337 342
119 4 337 334
120 5 337 338
121 5 337 336
122 3 532 531
123 8 532 534
124 5 532 508
125 5 532 530
126 8 131 129
127 3 131 251
128 5 131 134
129 5 131 133
130 12 251 125
131 11 251 248
132 13 343 342
133 14 343 339
134 13 348 352
135 14 348 284
136 16 130 129
137 13 130 128
138 7 294 291
139 3 294 123
140 5 294 297
141 5 294 249
142 3 250 251
143 7 250 125
144 5 250 103
145 5 250 102
146 5 287 289
147 5 287 288
148 5 287 489
149 16 575 573
150 13 575 577
151 3 372 368
152 7 372 370
153 5 372 375
154 5 372 373
155 17 286 285
156 4 282 280
157 1 282 287
158 5 282 279
159 5 282 483
160 13 323 321
161 14 323 324
162 16 146 143
163 13 146 149
164 8 142 143
165 2 142 140
166 5 142 144
167 5 142 141
168 6 244 173
169 2 244 247
170 5 244 245
171 5 244 242
172 4 63 64
173 1 63 545
174 5 63 98
175 5 63 539
176 18 73 139
177 17 464 317
178 10 140 139
179 9 140 138
180 17 540 542
181 17 547 542
182 4 152 322
183 5 152 154
184 5 152 151
185 5 152 150
186 17 156 327
187 15 65 542
188 13 65 67
189 13 64 65
190 13 67 70
191 4 69 67
192 5 69 46
193 5 69 44
194 5 69 48
195 15 70 72
196 13 66 64
197 14 66 100
198 13 68 66
199 13 68 70
200 17 74 72
201 6 257 72
202 2 257 140
203 5 257 254
204 5 257 258
205 13 322 325
206 13 320 322
207 15 320 317
208 15 325 327
209 18 318 559
210 4 71 68
211 5 71 75
212 5 71 101
213 8 252 461
214 2 252 247
215 5 252 459
216 5 252 253
217 13 326 323
218 13 326 325
219 13 321 320
220 13 148 146
221 14 148 145
222 1 204 71
223 5 204 203
224 5 204 202
225 5 204 205
226 14 421 420
227 10 86 559
228 9 86 88
229 3 569 568
230 7 569 564
231 5 569 451
232 5 569 567
233 4 328 326
234 5 328 385
235 5 328 332
236 8 571 573
237 3 571 568
238 5 571 566
239 5 571 570
240 6 84 317
241 2 84 86
242 5 84 82
243 5 84 552
244 4 319 321
245 1 319 510
246 5 319 316
247 5 319 465
248 17 329 327
249 1 383 328
250 5 383 512
251 5 383 381
252 5 383 389
253 16 462 461
254 13 462 255
255 13 462 421
256 13 217 424
257 14 217 220
258 10 247 243
259 9 247 246
260 18 97 1
261 6 105 95
262 2 105 108
263 5 105 106
264 5 105 104
265 18 96 107
266 8 367 369
267 3 367 368
268 5 367 364
269 5 367 365
270 13 112 91
271 8 8 9
272 2 8 4
273 5 8 7
274 5 8 6
275 10 108 107
276 9 108 19
277 10 4 1
278 9 4 5
279 12 568 564
280 11 568 565
281 4 89 111
282 5 89 225
283 5 89 62
284 13 22 23
285 14 22 20
286 4 92 112
287 5 92 93
288 5 92 94
289 5 92 38
290 13 111 268
291 13 111 91
292 2 3 4
293 6 3 95
294 5 3 99
295 5 3 2
296 13 33 32
297 14 33 36
298 14 216 215
299 13 423 421
300 14 423 422
301 4 219 424
302 4 219 218
303 5 219 221
304 5 219 427
305 12 368 370
306 11 368 366
307 15 109 155
308 13 109 112
309 13 374 371
310 14 374 376
311 14 32 535
312 17 37 155
313 13 24 148
314 14 24 28
315 15 91 95
316 16 26 534
317 13 26 22
318 13 26 32
319 13 425 374
320 14 425 426
321 13 218 425
322 13 218 216
323 16 371 369
324 13 371 188
325 13 188 216
326 14 188 184
327 8 504 501
328 2 504 108
329 5 504 506
330 5 504 582
331 13 424 423
332 13 470 585
333 14 470 468
334 13 585 516
335 14 585 584
336 13 516 333
337 16 469 467
338 13 469 470
339 13 469 331
340 14 331 330
341 7 523 519
342 3 523 521
343 5 523 522
344 5 523 526
345 13 477 479
346 14 477 562
347 13 475 477
348 13 475 478
349 4 515 516
350 4 515 475
351 5 515 513
352 5 515 514
353 13 333 331
354 14 333 272
355 13 479 482
356 14 479 563
357 14 478 476
358 13 480 478
359 14 480 481
360 5 403 401
361 5 403 407
362 5 403 399
363 4 229 233
364 4 229 231
365 5 229 228
366 5 229 226
367 4 345 349
368 1 345 403
369 5 345 346
370 5 345 340
371 18 175 243
372 13 190 186
373 14 190 192
374 7 311 313
375 3 311 312
376 5 311 308
377 5 311 314
378 13 60 190
379 14 60 61
380 12 521 519
381 11 521 525
382 16 482 484
383 13 482 480
384 12 312 313
385 11 312 315
386 18 449 39
387 13 186 182
388 13 344 349
389 14 344 341
390 13 349 354
391 1 162 165
392 5 162 160
393 5 162 161
394 5 162 159
395 4 165 347
396 5 165 164
397 5 165 166
398 10 43 39
399 9 43 170
400 13 347 344
401 13 347 351
402 13 135 130
403 14 135 137
404 3 520 521
405 8 520 358
406 5 520 518
407 5 520 524
408 13 233 235
409 7 210 213
410 3 210 211
411 5 210 207
412 5 210 212
413 13 456 453
414 14 456 457
415 13 580 456
416 13 580 578
417 4 581 417
418 4 581 580
419 5 581 460
420 5 581 549
421 14 239 240
422 3 492 490
423 7 492 486
424 5 492 493
425 5 492 494
426 13 235 239
427 14 235 236
428 3 208 211
429 8 208 413
430 5 208 206
431 5 208 209
432 8 487 484
433 3 487 490
434 5 487 485
435 5 487 491
436 13 418 417
437 14 418 419
438 16 414 413
439 13 414 415
440 13 414 412
441 13 417 455
442 13 415 418
443 14 415 416
444 13 455 412
445 14 455 454
446 14 412 411
447 16 238 241
448 13 238 234
449 13 238 239
450 12 490 486
451 11 490 488
452 12 211 213
453 11 211 214
454 3 121 123
455 8 121 241
456 5 121 119
457 5 121 122
458 16 353 358
459 13 353 350
460 13 353 352
461 14 578 579
462 13 136 135
463 14 136 191
464 14 352 290
465 13 234 232
466 14 234 118
467 3 310 312
468 8 310 306
469 5 310 309
470 5 310 377
471 13 231 201
472 13 231 445
473 16 58 59
474 13 58 60
475 13 58 181
476 3 55 79
477 8 55 59
478 5 55 54
479 5 55 52
480 12 79 77
481 11 79 81
482 13 182 181
483 14 182 178
484 14 181 51
485 14 445 444
486 7 78 77
487 3 78 79
488 5 78 80
489 5 78 76
490 13 404 400
491 14 404 409
492 8 406 402
493 3 406 405
494 5 406 410
495 5 406 408
496 12 405 543
497 11 405 538
498 3 544 405
499 7 544 543
500 5 544 548
501 5 544 541
502 5 510 583
503 5 510 509
504 5 510 511
505 16 400 402
506 13 400 397
507 13 397 445
508 14 397 396
509 7 196 199
510 3 196 197
511 5 196 198
512 5 196 194
513 12 197 199
514 11 197 200
515 13 201 404
516 14 201 237
517 8 561 558
518 2 561 86
519 5 561 90
520 5 561 537
521 13 149 25
522 14 149 147
523 14 25 27
524 3 195 197
525 8 195 394
526 5 195 163
527 5 195 398
528 16 442 394
529 13 442 438
530 13 442 393
531 4 262 267
532 1 262 263
533 5 262 261
534 5 262 260
535 14 305 307
536 1 85 89
537 5 85 110
538 5 85 83
539 5 85 87
540 5 263 264
541 5 263 259
542 5 263 265
543 13 498 497
544 14 498 496
545 13 553 554
546 14 553 550
547 13 29 24
548 13 29 25
549 13 502 503
550 14 502 463
551 14 497 495
552 13 268 267
553 14 268 266
554 13 232 233
555 14 232 230
556 14 557 440
557 16 556 558
558 13 556 560
559 13 23 30
560 14 23 21
561 13 499 502
562 13 499 497
563 4 295 299
564 4 295 499
565 5 295 293
566 5 295 458
567 13 438 435
568 14 438 437
569 13 555 553
570 13 555 557
571 13 503 500
572 14 503 505
573 13 301 298
574 14 301 300
575 4 31 30
576 4 31 29
577 5 31 35
578 5 31 34
579 13 298 299
580 14 298 296
581 13 436 439
582 13 299 302
583 13 435 436
584 14 435 433
585 13 439 393
586 14 439 441
587 13 267 109
588 14 393 395
589 4 434 436
590 4 434 555
591 5 434 431
592 5 434 429
593 16 500 501
594 13 500 498
595 16 304 306
596 13 304 301
597 13 304 305
598 13 560 557
599 14 560 536
600 13 554 556
601 14 554 551
602 13 302 305
603 14 302 303
604 8 168 169
605 2 168 43
606 5 168 172
607 5 168 167
608 12 123 291
609 11 123 292
610 17 153 155
611 4 187 186
612 4 187 185
613 5 187 189
614 5 187 183
615 13 30 33

Angles

1 24 280 283 281
2 26 281 283 285
3 26 280 283 285
4 24 276 278 281
5 26 276 278 116
6 26 281 278 116
7 24 276 277 280
8 25 276 277 275
9 25 280 277 275
10 9 282 280 277
11 24 277 280 283
12 9 282 280 283
13 9 274 276 277
14 9 274 276 278
15 24 277 276 278
16 1 113 274 276
17 2 113 274 117
18 2 113 274 273
19 23 276 274 117
20 29 117 274 273
21 23 276 274 273
22 28 278 116 227
23 28 278 116 114
24 35 227 116 114
25 24 177 49 47
26 25 177 49 50
27 25 47 49 50
28 9 56 15 17
29 24 17 15 13
30 9 56 15 13
31 9 447 281 283
32 24 283 281 278
33 9 447 281 278
34 23 356 361 363
35 23 356 361 360
36 23 356 361 362
37 29 363 361 360
38 29 363 361 362
39 29 360 361 362
40 9 361 356 354
41 24 354 356 351
42 9 361 356 351
43 2 274 113 115
44 29 115 113 158
45 29 115 113 157
46 2 274 113 158
47 29 158 113 157
48 2 274 113 157
49 11 223 357 354
50 28 354 357 359
51 12 223 357 359
52 24 349 354 356
53 26 356 354 357
54 26 349 354 357
55 23 281 447 446
56 23 281 447 450
57 23 281 447 448
58 29 446 447 450
59 29 446 447 448
60 29 450 447 448
61 24 347 351 356
62 26 356 351 173
63 26 347 351 173
64 16 379 223 357
65 30 224 223 357
66 30 222 223 357
67 15 379 223 224
68 29 224 223 222
69 15 379 223 222
70 24 49 47 174
71 25 49 47 45
72 25 174 47 45
73 11 244 173 351
74 28 351 173 171
75 12 244 173 171
76 24 14 17 15
77 25 14 17 18
78 25 15 17 18
79 22 15 56 177
80 23 15 56 132
81 23 15 56 57
82 23 177 56 132
83 29 132 56 57
84 23 177 56 57
85 9 56 177 49
86 9 56 177 124
87 24 49 177 124
88 27 47 174 169
89 24 47 174 176
90 27 176 174 169
91 24 12 14 17
92 25 12 14 16
93 25 17 14 16
94 24 15 13 11
95 25 15 13 53
96 25 11 13 53
97 16 43 41 285
98 30 40 41 285
99 30 42 41 285
100 15 43 41 40
101 29 40 41 42
102 15 43 41 42
103 14 168 169 174
104 3 223 379 430
105 5 223 379 193
106 4 223 379 378
107 4 430 379 378
108 33 378 379 193
109 5 430 379 193
110 17 379 430 380
111 15 379 430 428
112 15 379 430 432
113 32 428 430 380
114 29 428 430 432
115 32 432 430 380
116 21 472 473 467
117 19 472 473 471
118 19 472 473 443
119 32 471 473 467
120 29 471 473 443
121 32 443 473 467
122 13 269 466 472
123 6 269 472 473
124 8 269 472 466
125 7 269 472 474
126 7 473 472 474
127 34 474 472 466
128 8 473 472 466
129 31 271 269 466
130 19 472 269 271
131 29 271 269 270
132 31 270 269 466
133 19 472 269 270
134 20 472 269 466
135 2 63 545 576
136 2 63 545 572
137 2 63 545 546
138 29 576 545 572
139 29 576 545 546
140 29 572 545 546
141 24 177 124 176
142 25 177 124 127
143 25 176 124 127
144 24 456 453 575
145 25 456 453 452
146 25 575 453 452
147 24 174 176 124
148 25 174 176 120
149 25 124 176 120
150 14 473 467 469
151 24 462 255 217
152 25 462 255 256
153 25 217 255 256
154 24 185 180 128
155 25 185 180 179
156 25 128 180 179
157 9 187 185 136
158 9 187 185 180
159 24 136 185 180
160 24 575 577 578
161 25 575 577 574
162 25 578 577 574
163 24 353 350 343
164 25 353 350 517
165 25 343 350 517
166 24 130 128 180
167 25 130 128 126
168 25 180 128 126
169 31 507 528 527
170 19 531 528 507
171 29 507 528 529
172 31 529 528 527
173 19 531 528 529
174 20 531 528 527
175 14 430 380 384
176 13 528 527 531
177 6 528 531 532
178 8 528 531 527
179 7 528 531 533
180 7 532 531 533
181 34 533 531 527
182 8 532 531 527
183 18 379 193 355
184 9 337 342 343
185 24 343 342 348
186 9 337 342 348
187 24 12 11 13
188 25 12 11 10
189 25 13 11 10
190 27 14 12 9
191 27 11 12 9
192 24 14 12 11
193 24 334 390 386
194 25 334 390 391
195 25 386 390 391
196 27 386 384 380
197 24 386 384 388
198 27 388 384 380
199 24 384 388 392
200 25 384 388 387
201 25 392 388 387
202 24 334 392 388
203 25 334 392 335
204 25 388 392 335
205 9 337 334 390
206 9 337 334 392
207 24 390 334 392
208 24 390 386 384
209 25 390 386 382
210 25 384 386 382
211 22 342 337 334
212 23 342 337 338
213 23 342 337 336
214 23 334 337 338
215 29 338 337 336
216 23 334 337 336
217 14 8 9 12
218 21 531 532 534
219 19 531 532 508
220 19 531 532 530
221 32 508 532 534
222 29 508 532 530
223 32 530 532 534
224 21 251 131 129
225 32 134 131 129
226 32 133 131 129
227 19 251 131 134
228 29 134 131 133
229 19 251 131 133
230 6 131 251 250
231 8 131 251 125
232 7 131 251 248
233 7 250 251 248
234 34 248 251 125
235 8 250 251 125
236 24 350 343 342
237 25 350 343 339
238 25 342 343 339
239 24 342 348 352
240 25 342 348 284
241 25 352 348 284
242 13 250 125 251
243 14 131 129 130
244 13 294 291 123
245 27 135 130 129
246 24 135 130 128
247 27 128 130 129
248 31 297 294 291
249 19 123 294 297
250 29 297 294 249
251 31 249 294 291
252 19 123 294 249
253 20 123 294 291
254 20 251 250 125
255 19 251 250 103
256 19 251 250 102
257 31 103 250 125
258 29 103 250 102
259 31 102 250 125
260 2 282 287 289
261 2 282 287 288
262 2 282 287 489
263 29 289 287 288
264 29 289 287 489
265 29 288 287 489
266 27 453 575 573
267 24 453 575 577
268 27 577 575 573
269 20 368 372 370
270 19 368 372 375
271 19 368 372 373
272 31 375 372 370
273 29 375 372 373
274 31 373 372 370
275 11 41 285 283
276 28 283 285 286
277 12 41 285 286
278 1 287 282 280
279 23 280 282 279
280 23 280 282 483
281 2 287 282 279
282 29 279 282 483
283 2 287 282 483
284 24 326 323 321
285 25 326 323 324
286 25 321 323 324
287 27 148 146 143
288 24 148 146 149
289 27 149 146 143
290 14 142 143 146
291 17 140 142 143
292 15 140 142 144
293 15 140 142 141
294 32 144 142 143
295 29 144 142 141
296 32 141 142 143
297 16 247 244 173
298 30 245 244 173
299 30 242 244 173
300 15 247 244 245
301 29 245 244 242
302 15 247 244 242
303 1 545 63 64
304 23 64 63 98
305 23 64 63 539
306 2 545 63 98
307 29 98 63 539
308 2 545 63 539
309 3 257 140 142
310 5 257 140 139
311 4 257 140 138
312 4 142 140 138
313 33 138 140 139
314 5 142 140 139
315 23 322 152 154
316 23 322 152 151
317 23 322 152 150
318 29 154 152 151
319 29 154 152 150
320 29 151 152 150
321 26 64 65 542
322 24 64 65 67
323 26 67 65 542
324 28 65 542 547
325 28 65 542 540
326 35 547 542 540
327 9 63 64 66
328 24 66 64 65
329 9 63 64 65
330 9 69 67 65
331 24 65 67 70
332 9 69 67 70
333 23 67 69 46
334 23 67 69 44
335 23 67 69 48
336 29 46 69 44
337 29 46 69 48
338 29 44 69 48
339 24 68 70 67
340 26 68 70 72
341 26 67 70 72
342 24 68 66 64
343 25 68 66 100
344 25 64 66 100
345 11 257 72 70
346 28 70 72 74
347 12 257 72 74
348 9 71 68 66
349 9 71 68 70
350 24 66 68 70
351 16 140 257 72
352 30 254 257 72
353 30 258 257 72
354 15 140 257 254
355 29 254 257 258
356 15 140 257 258
357 28 325 327 156
358 28 325 327 329
359 35 156 327 329
360 9 152 322 320
361 24 320 322 325
362 9 152 322 325
363 18 140 139 73
364 24 321 320 322
365 26 322 320 317
366 26 321 320 317
367 24 326 325 322
368 26 326 325 327
369 26 322 325 327
370 11 84 317 320
371 28 320 317 464
372 12 84 317 464
373 13 569 564 568
374 1 204 71 68
375 2 204 71 75
376 2 204 71 101
377 23 68 71 75
378 29 75 71 101
379 23 68 71 101
380 17 247 252 461
381 15 247 252 459
382 15 247 252 253
383 32 459 252 461
384 29 459 252 253
385 32 253 252 461
386 9 328 326 323
387 9 328 326 325
388 24 323 326 325
389 9 319 321 323
390 24 323 321 320
391 9 319 321 320
392 24 24 148 146
393 25 24 148 145
394 25 146 148 145
395 18 86 559 318
396 2 71 204 203
397 29 203 204 202
398 29 203 204 205
399 2 71 204 202
400 29 202 204 205
401 2 71 204 205
402 24 462 421 423
403 25 462 421 420
404 25 423 421 420
405 3 84 86 561
406 5 84 86 559
407 4 84 86 88
408 4 561 86 88
409 33 88 86 559
410 5 561 86 559
411 20 568 569 564
412 19 568 569 451
413 19 568 569 567
414 31 451 569 564
415 29 451 569 567
416 31 567 569 564
417 1 383 328 326
418 2 383 328 385
419 2 383 328 332
420 23 326 328 385
421 29 385 328 332
422 23 326 328 332
423 21 568 571 573
424 32 566 571 573
425 32 570 571 573
426 19 568 571 566
427 29 566 571 570
428 19 568 571 570
429 16 86 84 317
430 30 82 84 317
431 30 552 84 317
432 15 86 84 82
433 29 82 84 552
434 15 86 84 552
435 1 510 319 321
436 23 321 319 316
437 23 321 319 465
438 2 510 319 316
439 29 316 319 465
440 2 510 319 465
441 2 328 383 512
442 29 512 383 381
443 29 512 383 389
444 2 328 383 381
445 29 381 383 389
446 2 328 383 389
447 27 255 462 461
448 27 421 462 461
449 24 255 462 421
450 14 252 461 462
451 24 255 217 424
452 25 255 217 220
453 25 424 217 220
454 3 244 247 252
455 5 244 247 243
456 4 244 247 246
457 4 252 247 246
458 33 246 247 243
459 5 252 247 243
460 14 504 501 500
461 16 108 105 95
462 30 106 105 95
463 30 104 105 95
464 15 108 105 106
465 29 106 105 104
466 15 108 105 104
467 21 368 367 369
468 32 364 367 369
469 32 365 367 369
470 19 368 367 364
471 29 364 367 365
472 19 368 367 365
473 9 92 112 109
474 24 109 112 91
475 9 92 112 91
476 17 4 8 9
477 15 4 8 7
478 15 4 8 6
479 32 7 8 9
480 29 7 8 6
481 32 6 8 9
482 3 105 108 504
483 5 105 108 107
484 4 105 108 19
485 4 504 108 19
486 33 19 108 107
487 5 504 108 107
488 3 3 4 8
489 5 3 4 1
490 4 3 4 5
491 4 8 4 5
492 33 5 4 1
493 5 8 4 1
494 6 571 568 569
495 8 571 568 564
496 7 571 568 565
497 7 569 568 565
498 34 565 568 564
499 8 569 568 564
500 1 85 89 111
501 2 85 89 225
502 2 85 89 62
503 23 111 89 225
504 29 225 89 62
505 23 111 89 62
506 24 26 22 23
507 25 26 22 20
508 25 23 22 20
509 23 112 92 93
510 23 112 92 94
511 23 112 92 38
512 29 93 92 94
513 29 93 92 38
514 29 94 92 38
515 9 89 111 268
516 9 89 111 91
517 24 268 111 91
518 16 4 3 95
519 30 99 3 95
520 30 2 3 95
521 15 4 3 99
522 29 99 3 2
523 15 4 3 2
524 24 30 33 32
525 25 30 33 36
526 25 32 33 36
527 24 218 216 188
528 25 218 216 215
529 25 188 216 215
530 24 424 423 421
531 25 424 423 422
532 25 421 423 422
533 22 424 219 218
534 23 424 219 221
535 23 424 219 427
536 23 218 219 221
537 29 221 219 427
538 23 218 219 427
539 6 367 368 372
540 8 367 368 370
541 7 367 368 366
542 7 372 368 366
543 34 366 368 370
544 8 372 368 370
545 26 267 109 155
546 24 267 109 112
547 26 112 109 155
548 24 425 374 371
549 25 425 374 376
550 25 371 374 376
551 24 26 32 33
552 25 26 32 535
553 25 33 32 535
554 24 29 24 148
555 25 29 24 28
556 25 148 24 28
557 24 111 91 112
558 26 111 91 95
559 26 112 91 95
560 18 4 1 97
561 14 571 573 575
562 13 372 370 368
563 27 22 26 534
564 27 32 26 534
565 24 22 26 32
566 28 109 155 153
567 28 109 155 37
568 35 153 155 37
569 24 218 425 374
570 25 218 425 426
571 25 374 425 426
572 14 367 369 371
573 11 3 95 91
574 11 105 95 91
575 10 3 95 105
576 9 219 218 425
577 9 219 218 216
578 24 425 218 216
579 27 374 371 369
580 24 374 371 188
581 27 188 371 369
582 24 371 188 216
583 25 371 188 184
584 25 216 188 184
585 17 108 504 501
586 15 108 504 506
587 15 108 504 582
588 32 506 504 501
589 29 506 504 582
590 32 582 504 501
591 18 108 107 96
592 14 532 534 26
593 9 219 424 217
594 24 217 424 423
595 9 219 424 423
596 24 469 470 585
597 25 469 470 468
598 25 585 470 468
599 24 470 585 516
600 25 470 585 584
601 25 516 585 584
602 9 515 516 585
603 24 585 516 333
604 9 515 516 333
605 27 470 469 467
606 27 331 469 467
607 24 470 469 331
608 24 469 331 333
609 25 469 331 330
610 25 333 331 330
611 31 522 523 519
612 19 521 523 522
613 29 522 523 526
614 31 526 523 519
615 19 521 523 526
616 20 521 523 519
617 24 475 477 479
618 25 475 477 562
619 25 479 477 562
620 9 515 475 477
621 9 515 475 478
622 24 477 475 478
623 22 516 515 475
624 23 516 515 513
625 23 516 515 514
626 23 475 515 513
627 29 513 515 514
628 23 475 515 514
629 24 516 333 331
630 25 516 333 272
631 25 331 333 272
632 24 477 479 482
633 25 477 479 563
634 25 482 479 563
635 24 475 478 480
636 25 475 478 476
637 25 480 478 476
638 24 482 480 478
639 25 482 480 481
640 25 478 480 481
641 2 345 403 401
642 2 345 403 407
643 2 345 403 399
644 29 401 403 407
645 29 401 403 399
646 29 407 403 399
647 22 233 229 231
648 23 233 229 228
649 23 233 229 226
650 23 231 229 228
651 29 228 229 226
652 23 231 229 226
653 1 403 345 349
654 23 349 345 346
655 23 349 345 340
656 2 403 345 346
657 29 346 345 340
658 2 403 345 340
659 24 60 190 186
660 25 60 190 192
661 25 186 190 192
662 31 308 311 313
663 19 312 311 308
664 29 308 311 314
665 31 314 311 313
666 19 312 311 314
667 20 312 311 313
668 24 58 60 190
669 25 58 60 61
670 25 190 60 61
671 13 523 519 521
672 6 523 521 520
673 8 523 521 519
674 7 523 521 525
675 7 520 521 525
676 34 525 521 519
677 8 520 521 519
678 27 479 482 484
679 24 479 482 480
680 27 480 482 484
681 13 311 313 312
682 6 311 312 310
683 8 311 312 313
684 7 311 312 315
685 7 310 312 315
686 34 315 312 313
687 8 310 312 313
688 9 187 186 190
689 24 190 186 182
690 9 187 186 182
691 24 347 344 349
692 25 347 344 341
693 25 349 344 341
694 9 345 349 344
695 24 344 349 354
696 9 345 349 354
697 2 165 162 160
698 29 160 162 161
699 29 160 162 159
700 2 165 162 161
701 29 161 162 159
702 2 165 162 159
703 1 162 165 347
704 2 162 165 164
705 2 162 165 166
706 23 347 165 164
707 29 164 165 166
708 23 347 165 166
709 18 247 243 175
710 3 41 43 168
711 5 41 43 39
712 4 41 43 170
713 4 168 43 170
714 33 170 43 39
715 5 168 43 39
716 9 165 347 344
717 9 165 347 351
718 24 344 347 351
719 18 43 39 449
720 24 136 135 130
721 25 136 135 137
722 25 130 135 137
723 21 521 520 358
724 19 521 520 518
725 19 521 520 524
726 32 518 520 358
727 29 518 520 524
728 32 524 520 358
729 9 229 233 232
730 24 232 233 235
731 9 229 233 235
732 31 207 210 213
733 19 211 210 207
734 29 207 210 212
735 31 212 210 213
736 19 211 210 212
737 20 211 210 213
738 24 580 456 453
739 25 580 456 457
740 25 453 456 457
741 14 487 484 482
742 9 581 580 456
743 9 581 580 578
744 24 456 580 578
745 22 417 581 580
746 23 417 581 460
747 23 417 581 549
748 23 580 581 460
749 29 460 581 549
750 23 580 581 549
751 14 520 358 353
752 14 121 241 238
753 24 238 239 235
754 25 238 239 240
755 25 235 239 240
756 20 490 492 486
757 19 490 492 493
758 19 490 492 494
759 31 493 492 486
760 29 493 492 494
761 31 494 492 486
762 24 233 235 239
763 25 233 235 236
764 25 239 235 236
765 21 211 208 413
766 19 211 208 206
767 19 211 208 209
768 32 206 208 413
769 29 206 208 209
770 32 209 208 413
771 21 490 487 484
772 32 485 487 484
773 32 491 487 484
774 19 490 487 485
775 29 485 487 491
776 19 490 487 491
777 24 415 418 417
778 25 415 418 419
779 25 417 418 419
780 27 415 414 413
781 27 412 414 413
782 24 415 414 412
783 9 581 417 418
784 24 418 417 455
785 9 581 417 455
786 24 414 415 418
787 25 414 415 416
788 25 418 415 416
789 14 208 413 414
790 24 417 455 412
791 25 417 455 454
792 25 412 455 454
793 24 414 412 455
794 25 414 412 411
795 25 455 412 411
796 27 234 238 241
797 27 239 238 241
798 24 234 238 239
799 6 487 490 492
800 8 487 490 486
801 7 487 490 488
802 7 492 490 488
803 34 488 490 486
804 8 492 490 486
805 6 210 211 208
806 8 210 211 213
807 7 210 211 214
808 7 208 211 214
809 34 214 211 213
810 8 208 211 213
811 13 492 486 490
812 21 123 121 241
813 19 123 121 119
814 19 123 121 122
815 32 119 121 241
816 29 119 121 122
817 32 122 121 241
818 27 350 353 358
819 27 352 353 358
820 24 350 353 352
821 24 580 578 577
822 25 580 578 579
823 25 577 578 579
824 24 185 136 135
825 25 185 136 191
826 25 135 136 191
827 24 353 352 348
828 25 353 352 290
829 25 348 352 290
830 24 238 234 232
831 25 238 234 118
832 25 232 234 118
833 21 312 310 306
834 19 312 310 309
835 19 312 310 377
836 32 309 310 306
837 29 309 310 377
838 32 377 310 306
839 13 210 213 211
840 9 229 231 201
841 9 229 231 445
842 24 201 231 445
843 27 60 58 59
844 27 181 58 59
845 24 60 58 181
846 21 79 55 59
847 19 79 55 54
848 19 79 55 52
849 32 54 55 59
850 29 54 55 52
851 32 52 55 59
852 6 78 79 55
853 8 78 79 77
854 7 78 79 81
855 7 55 79 81
856 34 81 79 77
857 8 55 79 77
858 14 55 59 58
859 13 78 77 79
860 24 186 182 181
861 25 186 182 178
862 25 181 182 178
863 24 58 181 182
864 25 58 181 51
865 25 182 181 51
866 24 231 445 397
867 25 231 445 444
868 25 397 445 444
869 31 80 78 77
870 19 79 78 80
871 29 80 78 76
872 31 76 78 77
873 19 79 78 76
874 20 79 78 77
875 24 201 404 400
876 25 201 404 409
877 25 400 404 409
878 21 405 406 402
879 32 410 406 402
880 32 408 406 402
881 19 405 406 410
882 29 410 406 408
883 19 405 406 408
884 6 406 405 544
885 8 406 405 543
886 7 406 405 538
887 7 544 405 538
888 34 538 405 543
889 8 544 405 543
890 20 405 544 543
891 19 405 544 548
892 19 405 544 541
893 31 548 544 543
894 29 548 544 541
895 31 541 544 543
896 13 544 543 405
897 14 406 402 400
898 2 319 510 583
899 2 319 510 509
900 2 319 510 511
901 29 583 510 509
902 29 583 510 511
903 29 509 510 511
904 13 196 199 197
905 27 404 400 402
906 24 404 400 397
907 27 397 400 402
908 24 400 397 445
909 25 400 397 396
910 25 445 397 396
911 31 198 196 199
912 19 197 196 198
913 29 198 196 194
914 31 194 196 199
915 19 197 196 194
916 20 197 196 199
917 6 196 197 195
918 8 196 197 199
919 7 196 197 200
920 7 195 197 200
921 34 200 197 199
922 8 195 197 199
923 24 231 201 404
924 25 231 201 237
925 25 404 201 237
926 17 86 561 558
927 15 86 561 90
928 15 86 561 537
929 32 90 561 558
930 29 90 561 537
931 32 537 561 558
932 24 146 149 25
933 25 146 149 147
934 25 25 149 147
935 24 29 25 149
936 25 29 25 27
937 25 149 25 27
938 21 197 195 394
939 19 197 195 163
940 19 197 195 398
941 32 163 195 394
942 29 163 195 398
943 32 398 195 394
944 27 438 442 394
945 27 393 442 394
946 24 438 442 393
947 1 263 262 267
948 23 267 262 261
949 23 267 262 260
950 2 263 262 261
951 29 261 262 260
952 2 263 262 260
953 24 304 305 302
954 25 304 305 307
955 25 302 305 307
956 2 89 85 110
957 29 110 85 83
958 29 110 85 87
959 2 89 85 83
960 29 83 85 87
961 2 89 85 87
962 2 262 263 264
963 2 262 263 259
964 2 262 263 265
965 29 264 263 259
966 29 264 263 265
967 29 259 263 265
968 24 500 498 497
969 25 500 498 496
970 25 497 498 496
971 24 555 553 554
972 25 555 553 550
973 25 554 553 550
974 9 31 29 24
975 9 31 29 25
976 24 24 29 25
977 24 499 502 503
978 25 499 502 463
979 25 503 502 463
980 24 499 497 498
981 25 499 497 495
982 25 498 497 495
983 24 111 268 267
984 25 111 268 266
985 25 267 268 266
986 24 234 232 233
987 25 234 232 230
988 25 233 232 230
989 24 555 557 560
990 25 555 557 440
991 25 560 557 440
992 27 554 556 558
993 24 554 556 560
994 27 560 556 558
995 24 22 23 30
996 25 22 23 21
997 25 30 23 21
998 14 195 394 442
999 9 295 499 502
1000 9 295 499 497
1001 24 502 499 497
1002 22 299 295 499
1003 23 299 295 293
1004 23 299 295 458
1005 23 499 295 293
1006 29 293 295 458
1007 23 499 295 458
1008 24 442 438 435
1009 25 442 438 437
1010 25 435 438 437
1011 9 434 555 553
1012 9 434 555 557
1013 24 553 555 557
1014 24 502 503 500
1015 25 502 503 505
1016 25 500 503 505
1017 24 304 301 298
1018 25 304 301 300
1019 25 298 301 300
1020 22 30 31 29
1021 23 30 31 35
1022 23 30 31 34
1023 23 29 31 35
1024 29 35 31 34
1025 23 29 31 34
1026 24 301 298 299
1027 25 301 298 296
1028 25 299 298 296
1029 9 434 436 435
1030 24 435 436 439
1031 9 434 436 439
1032 9 295 299 298
1033 24 298 299 302
1034 9 295 299 302
1035 24 438 435 436
1036 25 438 435 433
1037 25 436 435 433
1038 24 436 439 393
1039 25 436 439 441
1040 25 393 439 441
1041 9 262 267 268
1042 24 268 267 109
1043 9 262 267 109
1044 24 442 393 439
1045 25 442 393 395
1046 25 439 393 395
1047 22 436 434 555
1048 23 436 434 431
1049 23 436 434 429
1050 23 555 434 431
1051 29 431 434 429
1052 23 555 434 429
1053 14 310 306 304
1054 27 503 500 501
1055 24 503 500 498
1056 27 498 500 501
1057 27 301 304 306
1058 27 305 304 306
1059 24 301 304 305
1060 14 561 558 556
1061 24 556 560 557
1062 25 556 560 536
1063 25 557 560 536
1064 24 553 554 556
1065 25 553 554 551
1066 25 556 554 551
1067 24 299 302 305
1068 25 299 302 303
1069 25 305 302 303
1070 17 43 168 169
1071 15 43 168 172
1072 15 43 168 167
1073 32 172 168 169
1074 29 172 168 167
1075 32 167 168 169
1076 6 294 123 121
1077 8 294 123 291
1078 7 294 123 292
1079 7 121 123 292
1080 34 292 123 291
1081 8 121 123 291
1082 22 186 187 185
1083 23 186 187 189
1084 23 186 187 183
1085 23 185 187 189
1086 29 189 187 183
1087 23 185 187 183
1088 9 31 30 23
1089 24 23 30 33
1090 9 31 30 33

Dihedrals

1 26 280 283 281 278
2 30 281 283 285 286
3 30 280 283 285 286
4 26 276 278 281 283
5 30 276 278 116 227
6 30 276 278 116 114
7 30 281 278 116 227
8 30 281 278 116 114
9 26 276 277 280 283
10 26 280 277 276 278
11 10 282 280 277 276
12 25 277 280 282 279
13 25 277 280 282 483
14 26 277 280 283 281
15 11 282 280 277 275
16 27 283 280 277 275
17 25 283 280 282 279
18 25 283 280 282 483
19 10 282 280 283 281
20 12 282 280 283 285
21 28 277 280 283 285
22 10 274 276 277 280
23 11 274 276 277 275
24 10 274 276 278 281
25 12 274 276 278 116
26 25 277 276 274 117
27 25 278 276 274 117
28 25 277 276 274 273
29 25 278 276 274 273
30 26 277 276 278 281
31 28 277 276 278 116
32 27 278 276 277 275
33 1 113 274 276 277
34 1 113 274 276 278
35 23 276 274 113 115
36 23 276 274 113 158
37 23 276 274 113 157
38 26 177 49 47 174
39 27 177 49 47 45
40 44 50 49 47 45
41 26 47 49 177 124
42 10 56 15 17 14
43 25 17 15 56 132
44 25 17 15 56 57
45 26 17 15 13 11
46 27 17 15 13 53
47 11 56 15 17 18
48 27 13 15 17 18
49 25 13 15 56 132
50 25 13 15 56 57
51 11 56 15 13 53
52 10 56 15 13 11
53 10 447 281 278 276
54 10 447 281 283 280
55 25 283 281 447 446
56 25 283 281 447 450
57 25 283 281 447 448
58 28 283 281 278 116
59 25 278 281 447 446
60 25 278 281 447 450
61 25 278 281 447 448
62 12 447 281 278 116
63 12 447 281 283 285
64 28 278 281 283 285
65 10 361 356 351 347
66 10 361 356 354 349
67 25 354 356 361 363
68 25 354 356 361 360
69 25 354 356 361 362
70 25 351 356 361 363
71 25 351 356 361 360
72 25 351 356 361 362
73 12 361 356 351 173
74 28 354 356 351 173
75 12 361 356 354 357
76 28 351 356 354 357
77 33 115 113 274 117
78 33 115 113 274 273
79 33 158 113 274 117
80 33 158 113 274 273
81 33 157 113 274 117
82 33 157 113 274 273
83 15 223 357 354 356
84 31 354 357 223 224
85 31 354 357 223 222
86 15 223 357 354 349
87 26 349 354 356 351
88 30 356 354 357 359
89 30 349 354 357 359
90 26 347 351 356 354
91 30 356 351 173 171
92 30 347 351 173 171
93 18 379 223 357 354
94 46 357 223 379 193
95 19 379 223 357 359
96 38 224 223 357 359
97 38 222 223 357 359
98 35 224 223 379 193
99 34 224 223 379 378
100 35 222 223 379 193
101 34 222 223 379 378
102 29 49 47 174 169
103 26 49 47 174 176
104 27 174 47 49 50
105 45 45 47 174 169
106 15 244 173 351 356
107 31 351 173 244 245
108 31 351 173 244 242
109 15 244 173 351 347
110 26 14 17 15 13
111 27 15 17 14 16
112 24 177 56 15 17
113 24 15 56 177 49
114 24 15 56 177 124
115 24 177 56 15 13
116 10 56 177 49 47
117 11 56 177 49 50
118 10 56 177 124 176
119 11 56 177 124 127
120 25 49 177 56 132
121 25 124 177 56 132
122 25 49 177 56 57
123 25 124 177 56 57
124 26 49 177 124 176
125 27 49 177 124 127
126 27 124 177 49 50
127 26 47 174 176 124
128 27 47 174 176 120
129 27 176 174 47 45
130 29 17 14 12 9
131 45 16 14 12 9
132 26 12 14 17 15
133 27 12 14 17 18
134 44 16 14 17 18
135 26 17 14 12 11
136 27 15 13 11 10
137 44 53 13 11 10
138 18 43 41 285 283
139 46 285 41 43 39
140 19 43 41 285 286
141 38 40 41 285 286
142 38 42 41 285 286
143 35 40 41 43 39
144 34 40 41 43 170
145 35 42 41 43 39
146 34 42 41 43 170
147 17 168 169 174 47
148 17 168 169 174 176
149 32 174 169 168 167
150 32 174 169 168 172
151 3 430 379 223 357
152 39 378 379 223 357
153 4 223 379 430 380
154 2 223 379 430 428
155 2 223 379 430 432
156 5 223 379 193 355
157 2 430 379 223 224
158 2 430 379 223 222
159 40 378 379 430 380
160 41 378 379 193 355
161 5 430 379 193 355
162 20 379 430 380 384
163 34 428 430 379 378
164 34 432 430 379 378
165 48 380 430 379 193
166 35 428 430 379 193
167 35 432 430 379 193
168 21 472 473 467 469
169 36 471 473 472 474
170 36 443 473 472 474
171 37 471 473 472 466
172 37 443 473 472 466
173 16 269 466 472 474
174 22 472 466 269 271
175 22 472 466 269 270
176 9 473 472 466 269
177 8 269 472 473 467
178 6 269 472 473 471
179 6 269 472 473 443
180 6 473 472 269 271
181 6 473 472 269 270
182 42 474 472 269 466
183 43 474 472 473 467
184 47 466 472 473 467
185 7 473 472 269 466
186 37 271 269 472 466
187 36 271 269 472 474
188 37 270 269 472 466
189 36 270 269 472 474
190 26 177 124 176 174
191 27 177 124 176 120
192 29 456 453 575 573
193 26 456 453 575 577
194 27 575 453 456 457
195 45 452 453 575 573
196 27 174 176 124 127
197 45 120 176 174 169
198 44 120 176 124 127
199 29 124 176 174 169
200 17 473 467 469 470
201 17 473 467 469 331
202 32 469 467 473 471
203 32 469 467 473 443
204 29 217 255 462 461
205 45 256 255 462 461
206 26 462 255 217 424
207 27 462 255 217 220
208 44 256 255 217 220
209 26 217 255 462 421
210 26 185 180 128 130
211 27 185 180 128 126
212 10 187 185 136 135
213 11 187 185 136 191
214 10 187 185 180 128
215 11 187 185 180 179
216 25 136 185 187 189
217 25 180 185 187 189
218 25 136 185 187 183
219 25 180 185 187 183
220 26 136 185 180 128
221 27 136 185 180 179
222 27 180 185 136 191
223 27 575 577 578 579
224 45 574 577 575 573
225 44 574 577 578 579
226 29 578 577 575 573
227 29 343 350 353 358
228 45 517 350 353 358
229 26 353 350 343 342
230 27 353 350 343 339
231 44 517 350 343 339
232 26 343 350 353 352
233 27 130 128 180 179
234 45 126 128 130 129
235 44 126 128 180 179
236 29 180 128 130 129
237 37 507 528 531 527
238 36 507 528 531 533
239 37 529 528 531 527
240 36 529 528 531 533
241 17 430 380 384 386
242 17 430 380 384 388
243 32 384 380 430 432
244 32 384 380 430 428
245 16 528 527 531 533
246 22 531 527 528 507
247 22 531 527 528 529
248 9 532 531 527 528
249 8 528 531 532 534
250 6 528 531 532 508
251 6 528 531 532 530
252 6 532 531 528 507
253 6 532 531 528 529
254 42 533 531 528 527
255 43 533 531 532 534
256 47 527 531 532 534
257 7 532 531 528 527
258 10 337 342 343 350
259 25 343 342 337 338
260 25 343 342 337 336
261 26 343 342 348 352
262 27 343 342 348 284
263 11 337 342 343 339
264 27 348 342 343 339
265 25 348 342 337 338
266 25 348 342 337 336
267 11 337 342 348 284
268 10 337 342 348 352
269 29 13 11 12 9
270 45 10 11 12 9
271 26 12 11 13 15
272 27 12 11 13 53
273 26 14 12 11 13
274 27 14 12 11 10
275 27 11 12 14 16
276 26 334 390 386 384
277 27 334 390 386 382
278 44 391 390 386 382
279 26 386 390 334 392
280 26 386 384 388 392
281 27 386 384 388 387
282 27 388 384 386 382
283 27 384 388 392 335
284 45 387 388 384 380
285 44 387 388 392 335
286 29 392 388 384 380
287 26 334 392 388 384
288 27 334 392 388 387
289 10 337 334 390 386
290 11 337 334 390 391
291 10 337 334 392 388
292 11 337 334 392 335
293 25 390 334 337 338
294 25 392 334 337 338
295 25 390 334 337 336
296 25 392 334 337 336
297 26 390 334 392 388
298 27 390 334 392 335
299 27 392 334 390 391
300 29 390 386 384 380
301 26 390 386 384 388
302 27 384 386 390 391
303 45 382 386 384 380
304 24 334 337 342 343
305 24 342 337 334 390
306 24 342 337 334 392
307 24 334 337 342 348
308 17 8 9 12 14
309 17 8 9 12 11
310 32 12 9 8 6
311 32 12 9 8 7
312 21 531 532 534 26
313 36 508 532 531 533
314 36 530 532 531 533
315 37 508 532 531 527
316 37 530 532 531 527
317 21 251 131 129 130
318 37 134 131 251 125
319 36 134 131 251 248
320 37 133 131 251 125
321 36 133 131 251 248
322 8 250 251 131 129
323 47 125 251 131 129
324 43 248 251 131 129
325 7 131 251 250 125
326 6 131 251 250 103
327 6 131 251 250 102
328 9 131 251 125 250
329 6 250 251 131 134
330 6 250 251 131 133
331 42 248 251 250 125
332 26 350 343 342 348
333 27 342 343 350 517
334 27 342 348 352 290
335 44 284 348 352 290
336 22 251 125 250 103
337 22 251 125 250 102
338 16 250 125 251 248
339 17 131 129 130 135
340 32 130 129 131 134
341 32 130 129 131 133
342 17 131 129 130 128
343 16 294 291 123 292
344 22 123 291 294 297
345 22 123 291 294 249
346 26 135 130 128 180
347 27 135 130 128 126
348 27 128 130 135 137
349 37 297 294 123 291
350 36 297 294 123 292
351 37 249 294 123 291
352 36 249 294 123 292
353 36 103 250 251 248
354 36 102 250 251 248
355 37 103 250 251 125
356 37 102 250 251 125
357 26 453 575 577 578
358 27 453 575 577 574
359 27 577 575 453 452
360 36 375 372 368 366
361 36 373 372 368 366
362 37 375 372 368 370
363 37 373 372 368 370
364 15 41 285 283 281
365 31 283 285 41 40
366 31 283 285 41 42
367 15 41 285 283 280
368 1 287 282 280 277
369 23 280 282 287 289
370 23 280 282 287 288
371 23 280 282 287 489
372 1 287 282 280 283
373 33 279 282 287 289
374 33 279 282 287 288
375 33 279 282 287 489
376 33 483 282 287 289
377 33 483 282 287 288
378 33 483 282 287 489
379 26 326 323 321 320
380 26 321 323 326 325
381 26 148 146 149 25
382 27 148 146 149 147
383 27 149 146 148 145
384 17 142 143 146 148
385 17 142 143 146 149
386 32 146 143 142 141
387 32 146 143 142 144
388 20 140 142 143 146
389 34 144 142 140 138
390 34 141 142 140 138
391 48 143 142 140 139
392 35 144 142 140 139
393 35 141 142 140 139
394 18 247 244 173 351
395 46 173 244 247 243
396 19 247 244 173 171
397 38 245 244 173 171
398 38 242 244 173 171
399 35 245 244 247 243
400 34 245 244 247 246
401 35 242 244 247 243
402 34 242 244 247 246
403 1 545 63 64 66
404 23 64 63 545 576
405 23 64 63 545 572
406 23 64 63 545 546
407 1 545 63 64 65
408 33 98 63 545 576
409 33 98 63 545 572
410 33 98 63 545 546
411 33 539 63 545 576
412 33 539 63 545 572
413 33 539 63 545 546
414 3 142 140 257 72
415 39 138 140 257 72
416 4 257 140 142 143
417 2 257 140 142 144
418 2 257 140 142 141
419 5 257 140 139 73
420 2 142 140 257 254
421 2 142 140 257 258
422 40 138 140 142 143
423 41 138 140 139 73
424 5 142 140 139 73
425 30 64 65 542 547
426 30 64 65 542 540
427 26 64 65 67 70
428 30 67 65 542 547
429 30 67 65 542 540
430 10 63 64 66 68
431 25 66 64 63 98
432 25 66 64 63 539
433 28 66 64 65 542
434 26 66 64 65 67
435 11 63 64 66 100
436 27 65 64 66 100
437 25 65 64 63 98
438 25 65 64 63 539
439 10 63 64 65 67
440 12 63 64 65 542
441 10 69 67 70 68
442 10 69 67 65 64
443 25 65 67 69 46
444 25 65 67 69 44
445 25 65 67 69 48
446 28 70 67 65 542
447 25 70 67 69 46
448 25 70 67 69 44
449 25 70 67 69 48
450 12 69 67 65 542
451 12 69 67 70 72
452 28 65 67 70 72
453 26 68 70 67 65
454 30 68 70 72 74
455 30 67 70 72 74
456 26 68 66 64 65
457 26 64 66 68 70
458 15 257 72 70 68
459 31 70 72 257 254
460 31 70 72 257 258
461 15 257 72 70 67
462 10 71 68 66 64
463 11 71 68 66 100
464 10 71 68 70 67
465 25 66 68 71 75
466 25 70 68 71 75
467 25 66 68 71 101
468 25 70 68 71 101
469 26 66 68 70 67
470 27 70 68 66 100
471 12 71 68 70 72
472 28 66 68 70 72
473 18 140 257 72 70
474 46 72 257 140 139
475 19 140 257 72 74
476 38 254 257 72 74
477 38 258 257 72 74
478 35 254 257 140 139
479 34 254 257 140 138
480 35 258 257 140 139
481 34 258 257 140 138
482 10 152 322 325 326
483 10 152 322 320 321
484 25 320 322 152 154
485 25 320 322 152 151
486 25 320 322 152 150
487 28 320 322 325 327
488 25 325 322 152 154
489 25 325 322 152 151
490 25 325 322 152 150
491 12 152 322 325 327
492 12 152 322 320 317
493 28 325 322 320 317
494 26 321 320 322 325
495 30 322 320 317 464
496 30 321 320 317 464
497 26 326 325 322 320
498 30 326 325 327 156
499 30 326 325 327 329
500 30 322 325 327 156
501 30 322 325 327 329
502 15 84 317 320 322
503 31 320 317 84 82
504 31 320 317 84 552
505 15 84 317 320 321
506 22 568 564 569 451
507 22 568 564 569 567
508 16 569 564 568 565
509 1 204 71 68 66
510 1 204 71 68 70
511 23 68 71 204 203
512 23 68 71 204 202
513 23 68 71 204 205
514 20 247 252 461 462
515 34 459 252 247 246
516 34 253 252 247 246
517 48 461 252 247 243
518 35 459 252 247 243
519 35 253 252 247 243
520 10 328 326 323 321
521 11 328 326 323 324
522 10 328 326 325 322
523 12 328 326 325 327
524 25 323 326 328 385
525 25 325 326 328 385
526 25 323 326 328 332
527 25 325 326 328 332
528 26 323 326 325 322
529 28 323 326 325 327
530 27 325 326 323 324
531 10 319 321 323 326
532 25 323 321 319 316
533 25 323 321 319 465
534 26 323 321 320 322
535 11 319 321 323 324
536 27 320 321 323 324
537 25 320 321 319 316
538 25 320 321 319 465
539 10 319 321 320 322
540 12 319 321 320 317
541 28 323 321 320 317
542 29 24 148 146 143
543 26 24 148 146 149
544 27 146 148 24 28
545 45 145 148 146 143
546 33 203 204 71 75
547 33 203 204 71 101
548 33 202 204 71 75
549 33 202 204 71 101
550 33 205 204 71 75
551 33 205 204 71 101
552 29 423 421 462 461
553 45 420 421 462 461
554 26 462 421 423 424
555 27 462 421 423 422
556 3 561 86 84 317
557 39 88 86 84 317
558 4 84 86 561 558
559 2 84 86 561 90
560 2 84 86 561 537
561 5 84 86 559 318
562 2 561 86 84 82
563 2 561 86 84 552
564 40 88 86 561 558
565 41 88 86 559 318
566 5 561 86 559 318
567 36 451 569 568 565
568 36 567 569 568 565
569 37 451 569 568 564
570 37 567 569 568 564
571 1 383 328 326 323
572 1 383 328 326 325
573 23 326 328 383 512
574 23 326 328 383 381
575 23 326 328 383 389
576 21 568 571 573 575
577 37 566 571 568 564
578 36 566 571 568 565
579 37 570 571 568 564
580 36 570 571 568 565
581 18 86 84 317 320
582 46 317 84 86 559
583 19 86 84 317 464
584 38 82 84 317 464
585 38 552 84 317 464
586 35 82 84 86 559
587 34 82 84 86 88
588 35 552 84 86 559
589 34 552 84 86 88
590 1 510 319 321 323
591 23 321 319 510 583
592 23 321 319 510 509
593 23 321 319 510 511
594 1 510 319 321 320
595 33 316 319 510 583
596 33 316 319 510 509
597 33 316 319 510 511
598 33 465 319 510 583
599 33 465 319 510 509
600 33 465 319 510 511
601 33 512 383 328 385
602 33 512 383 328 332
603 33 381 383 328 385
604 33 381 383 328 332
605 33 389 383 328 385
606 33 389 383 328 332
607 26 255 462 421 423
608 27 255 462 421 420
609 27 421 462 255 256
610 17 252 461 462 255
611 17 252 461 462 421
612 32 462 461 252 253
613 32 462 461 252 459
614 26 255 217 424 423
615 27 424 217 255 256
616 3 252 247 244 173
617 39 246 247 244 173
618 4 244 247 252 461
619 2 244 247 252 459
620 2 244 247 252 253
621 5 244 247 243 175
622 2 252 247 244 245
623 2 252 247 244 242
624 40 246 247 252 461
625 41 246 247 243 175
626 5 252 247 243 175
627 17 504 501 500 503
628 17 504 501 500 498
629 32 500 501 504 582
630 32 500 501 504 506
631 18 108 105 95 91
632 46 95 105 108 107
633 35 106 105 108 107
634 34 106 105 108 19
635 35 104 105 108 107
636 34 104 105 108 19
637 21 368 367 369 371
638 37 364 367 368 370
639 36 364 367 368 366
640 37 365 367 368 370
641 36 365 367 368 366
642 10 92 112 91 111
643 10 92 112 109 267
644 25 109 112 92 93
645 25 109 112 92 94
646 25 109 112 92 38
647 28 91 112 109 155
648 25 91 112 92 93
649 25 91 112 92 94
650 25 91 112 92 38
651 12 92 112 109 155
652 12 92 112 91 95
653 28 109 112 91 95
654 20 4 8 9 12
655 34 7 8 4 5
656 34 6 8 4 5
657 48 9 8 4 1
658 35 7 8 4 1
659 35 6 8 4 1
660 3 504 108 105 95
661 39 19 108 105 95
662 4 105 108 504 501
663 2 105 108 504 506
664 2 105 108 504 582
665 5 105 108 107 96
666 2 504 108 105 106
667 2 504 108 105 104
668 40 19 108 504 501
669 41 19 108 107 96
670 5 504 108 107 96
671 4 3 4 8 9
672 2 3 4 8 7
673 2 3 4 8 6
674 40 5 4 8 9
675 3 8 4 3 95
676 39 5 4 3 95
677 5 8 4 1 97
678 41 5 4 1 97
679 2 8 4 3 2
680 5 3 4 1 97
681 2 8 4 3 99
682 8 569 568 571 573
683 47 564 568 571 573
684 43 565 568 571 573
685 7 571 568 569 564
686 6 571 568 569 451
687 6 571 568 569 567
688 9 571 568 564 569
689 6 569 568 571 566
690 6 569 568 571 570
691 42 565 568 569 564
692 1 85 89 111 268
693 1 85 89 111 91
694 23 111 89 85 110
695 23 111 89 85 83
696 23 111 89 85 87
697 29 23 22 26 534
698 45 20 22 26 534
699 26 26 22 23 30
700 27 26 22 23 21
701 44 20 22 23 21
702 26 23 22 26 32
703 10 89 111 268 267
704 11 89 111 268 266
705 10 89 111 91 112
706 25 268 111 89 225
707 25 91 111 89 225
708 25 268 111 89 62
709 25 91 111 89 62
710 26 268 111 91 112
711 27 91 111 268 266
712 28 268 111 91 95
713 12 89 111 91 95
714 18 4 3 95 91
715 46 95 3 4 1
716 35 99 3 4 1
717 34 99 3 4 5
718 35 2 3 4 1
719 34 2 3 4 5
720 27 30 33 32 535
721 44 36 33 32 535
722 26 218 216 188 371
723 27 218 216 188 184
724 27 424 423 421 420
725 44 422 423 421 420
726 24 218 219 424 217
727 24 424 219 218 425
728 24 424 219 218 216
729 24 218 219 424 423
730 8 372 368 367 369
731 47 370 368 367 369
732 43 366 368 367 369
733 7 367 368 372 370
734 6 367 368 372 375
735 6 367 368 372 373
736 9 367 368 370 372
737 6 372 368 367 364
738 6 372 368 367 365
739 42 366 368 372 370
740 30 267 109 155 153
741 30 267 109 155 37
742 26 267 109 112 91
743 30 112 109 155 153
744 30 112 109 155 37
745 29 425 374 371 369
746 26 425 374 371 188
747 27 371 374 425 426
748 45 376 374 371 369
749 29 33 32 26 534
750 45 535 32 26 534
751 26 26 32 33 30
752 27 26 32 33 36
753 26 29 24 148 146
754 27 29 24 148 145
755 44 28 24 148 145
756 26 148 24 29 25
757 26 111 91 112 109
758 17 571 573 575 453
759 32 575 573 571 566
760 32 575 573 571 570
761 17 571 573 575 577
762 22 368 370 372 375
763 22 368 370 372 373
764 16 372 370 368 366
765 26 22 26 32 33
766 27 22 26 32 535
767 27 32 26 22 20
768 26 218 425 374 371
769 27 218 425 374 376
770 44 426 425 374 376
771 26 374 425 218 216
772 17 367 369 371 374
773 32 371 369 367 364
774 32 371 369 367 365
775 17 367 369 371 188
776 15 3 95 91 111
777 15 105 95 91 111
778 15 3 95 91 112
779 15 105 95 91 112
780 31 91 95 3 99
781 31 91 95 3 2
782 31 91 95 105 106
783 31 91 95 105 104
784 13 3 95 105 108
785 14 3 95 105 106
786 14 3 95 105 104
787 14 105 95 3 99
788 14 105 95 3 2
789 13 105 95 3 4
790 10 219 218 425 374
791 11 219 218 425 426
792 10 219 218 216 188
793 11 219 218 216 215
794 25 425 218 219 221
795 25 216 218 219 221
796 25 425 218 219 427
797 25 216 218 219 427
798 26 425 218 216 188
799 27 425 218 216 215
800 27 216 218 425 426
801 26 374 371 188 216
802 27 374 371 188 184
803 27 188 371 374 376
804 27 371 188 216 215
805 45 184 188 371 369
806 44 184 188 216 215
807 29 216 188 371 369
808 20 108 504 501 500
809 34 506 504 108 19
810 34 582 504 108 19
811 48 501 504 108 107
812 35 506 504 108 107
813 35 582 504 108 107
814 17 532 534 26 22
815 17 532 534 26 32
816 32 26 534 532 508
817 32 26 534 532 530
818 10 219 424 217 255
819 25 217 424 219 221
820 25 217 424 219 427
821 26 217 424 423 421
822 27 217 424 423 422
823 11 219 424 217 220
824 27 423 424 217 220
825 25 423 424 219 221
826 25 423 424 219 427
827 11 219 424 423 422
828 10 219 424 423 421
829 29 585 470 469 467
830 45 468 470 469 467
831 26 469 470 585 516
832 27 469 470 585 584
833 44 468 470 585 584
834 26 585 470 469 331
835 26 470 585 516 333
836 27 516 585 470 468
837 10 515 516 585 470
838 25 585 516 515 513
839 25 585 516 515 514
840 26 585 516 333 331
841 27 585 516 333 272
842 11 515 516 585 584
843 27 333 516 585 584
844 25 333 516 515 513
845 25 333 516 515 514
846 11 515 516 333 272
847 10 515 516 333 331
848 26 470 469 331 333
849 27 470 469 331 330
850 27 331 469 470 468
851 29 333 331 469 467
852 45 330 331 469 467
853 26 469 331 333 516
854 27 469 331 333 272
855 37 522 523 521 519
856 36 522 523 521 525
857 37 526 523 521 519
858 36 526 523 521 525
859 26 475 477 479 482
860 27 475 477 479 563
861 44 562 477 479 563
862 26 479 477 475 478
863 10 515 475 477 479
864 11 515 475 477 562
865 10 515 475 478 480
866 11 515 475 478 476
867 25 477 475 515 513
868 25 478 475 515 513
869 25 477 475 515 514
870 25 478 475 515 514
871 26 477 475 478 480
872 27 477 475 478 476
873 27 478 475 477 562
874 24 475 515 516 585
875 24 516 515 475 477
876 24 516 515 475 478
877 24 475 515 516 333
878 27 516 333 331 330
879 44 272 333 331 330
880 29 477 479 482 484
881 26 477 479 482 480
882 27 482 479 477 562
883 45 563 479 482 484
884 26 475 478 480 482
885 27 475 478 480 481
886 27 482 480 478 476
887 45 481 480 482 484
888 44 481 480 478 476
889 29 478 480 482 484
890 24 231 229 233 232
891 24 233 229 231 201
892 24 233 229 231 445
893 24 231 229 233 235
894 1 403 345 349 344
895 23 349 345 403 401
896 23 349 345 403 407
897 23 349 345 403 399
898 1 403 345 349 354
899 33 346 345 403 401
900 33 346 345 403 407
901 33 346 345 403 399
902 33 340 345 403 401
903 33 340 345 403 407
904 33 340 345 403 399
905 26 60 190 186 182
906 27 186 190 60 61
907 37 308 311 312 313
908 36 308 311 312 315
909 37 314 311 312 313
910 36 314 311 312 315
911 29 190 60 58 59
912 45 61 60 58 59
913 26 58 60 190 186
914 27 58 60 190 192
915 44 61 60 190 192
916 26 190 60 58 181
917 16 523 519 521 525
918 22 521 519 523 522
919 22 521 519 523 526
920 9 520 521 519 523
921 8 523 521 520 358
922 6 523 521 520 518
923 6 523 521 520 524
924 6 520 521 523 522
925 6 520 521 523 526
926 42 525 521 523 519
927 43 525 521 520 358
928 47 519 521 520 358
929 7 520 521 523 519
930 26 479 482 480 478
931 27 479 482 480 481
932 27 480 482 479 563
933 16 311 313 312 315
934 22 312 313 311 308
935 22 312 313 311 314
936 9 310 312 313 311
937 8 311 312 310 306
938 6 311 312 310 309
939 6 311 312 310 377
940 6 310 312 311 308
941 6 310 312 311 314
942 42 315 312 311 313
943 43 315 312 310 306
944 47 313 312 310 306
945 7 310 312 311 313
946 10 187 186 190 60
947 25 190 186 187 189
948 25 190 186 187 183
949 26 190 186 182 181
950 27 190 186 182 178
951 11 187 186 190 192
952 27 182 186 190 192
953 25 182 186 187 189
954 25 182 186 187 183
955 11 187 186 182 178
956 10 187 186 182 181
957 26 347 344 349 354
958 26 349 344 347 351
959 10 345 349 344 347
960 25 344 349 345 346
961 25 344 349 345 340
962 26 344 349 354 356
963 11 345 349 344 341
964 27 354 349 344 341
965 25 354 349 345 346
966 25 354 349 345 340
967 10 345 349 354 356
968 12 345 349 354 357
969 28 344 349 354 357
970 33 160 162 165 164
971 33 160 162 165 166
972 33 161 162 165 164
973 33 161 162 165 166
974 33 159 162 165 164
975 33 159 162 165 166
976 1 162 165 347 344
977 1 162 165 347 351
978 23 347 165 162 160
979 23 347 165 162 161
980 23 347 165 162 159
981 3 168 43 41 285
982 39 170 43 41 285
983 4 41 43 168 169
984 2 41 43 168 172
985 2 41 43 168 167
986 5 41 43 39 449
987 2 168 43 41 40
988 2 168 43 41 42
989 40 170 43 168 169
990 41 170 43 39 449
991 5 168 43 39 449
992 10 165 347 344 349
993 11 165 347 344 341
994 10 165 347 351 356
995 25 344 347 165 164
996 25 351 347 165 164
997 25 344 347 165 166
998 25 351 347 165 166
999 26 344 347 351 356
1000 27 351 347 344 341
1001 12 165 347 351 173
1002 28 344 347 351 173
1003 29 136 135 130 129
1004 26 136 135 130 128
1005 27 130 135 136 191
1006 45 137 135 130 129
1007 21 521 520 358 353
1008 36 518 520 521 525
1009 36 524 520 521 525
1010 37 518 520 521 519
1011 37 524 520 521 519
1012 10 229 233 232 234
1013 25 232 233 229 228
1014 25 232 233 229 226
1015 26 232 233 235 239
1016 27 232 233 235 236
1017 11 229 233 232 230
1018 27 235 233 232 230
1019 25 235 233 229 228
1020 25 235 233 229 226
1021 11 229 233 235 236
1022 10 229 233 235 239
1023 37 207 210 211 213
1024 36 207 210 211 214
1025 37 212 210 211 213
1026 36 212 210 211 214
1027 26 580 456 453 575
1028 27 580 456 453 452
1029 44 457 456 453 452
1030 26 453 456 580 578
1031 17 487 484 482 479
1032 32 482 484 487 485
1033 32 482 484 487 491
1034 17 487 484 482 480
1035 10 581 580 456 453
1036 11 581 580 456 457
1037 10 581 580 578 577
1038 11 581 580 578 579
1039 25 456 580 581 460
1040 25 578 580 581 460
1041 25 456 580 581 549
1042 25 578 580 581 549
1043 26 456 580 578 577
1044 27 456 580 578 579
1045 27 578 580 456 457
1046 24 580 581 417 418
1047 24 417 581 580 456
1048 24 417 581 580 578
1049 24 580 581 417 455
1050 17 520 358 353 350
1051 17 520 358 353 352
1052 32 353 358 520 518
1053 32 353 358 520 524
1054 17 121 241 238 234
1055 17 121 241 238 239
1056 32 238 241 121 119
1057 32 238 241 121 122
1058 29 235 239 238 241
1059 45 240 239 238 241
1060 26 238 239 235 233
1061 27 238 239 235 236
1062 36 493 492 490 488
1063 36 494 492 490 488
1064 37 493 492 490 486
1065 37 494 492 490 486
1066 27 233 235 239 240
1067 44 236 235 239 240
1068 21 211 208 413 414
1069 36 206 208 211 214
1070 36 209 208 211 214
1071 37 206 208 211 213
1072 37 209 208 211 213
1073 21 490 487 484 482
1074 37 485 487 490 486
1075 36 485 487 490 488
1076 37 491 487 490 486
1077 36 491 487 490 488
1078 26 415 418 417 455
1079 27 417 418 415 416
1080 26 415 414 412 455
1081 27 415 414 412 411
1082 27 412 414 415 416
1083 10 581 417 418 415
1084 25 418 417 581 460
1085 25 418 417 581 549
1086 26 418 417 455 412
1087 27 418 417 455 454
1088 11 581 417 418 419
1089 27 455 417 418 419
1090 25 455 417 581 460
1091 25 455 417 581 549
1092 11 581 417 455 454
1093 10 581 417 455 412
1094 29 418 415 414 413
1095 45 416 415 414 413
1096 26 414 415 418 417
1097 27 414 415 418 419
1098 44 416 415 418 419
1099 26 418 415 414 412
1100 17 208 413 414 415
1101 17 208 413 414 412
1102 32 414 413 208 206
1103 32 414 413 208 209
1104 27 417 455 412 411
1105 44 454 455 412 411
1106 29 455 412 414 413
1107 45 411 412 414 413
1108 26 414 412 455 417
1109 27 414 412 455 454
1110 26 234 238 239 235
1111 27 234 238 239 240
1112 27 239 238 234 118
1113 8 492 490 487 484
1114 47 486 490 487 484
1115 43 488 490 487 484
1116 7 487 490 492 486
1117 6 487 490 492 493
1118 6 487 490 492 494
1119 9 487 490 486 492
1120 6 492 490 487 485
1121 6 492 490 487 491
1122 42 488 490 492 486
1123 9 208 211 213 210
1124 8 210 211 208 413
1125 6 210 211 208 206
1126 6 210 211 208 209
1127 6 208 211 210 207
1128 6 208 211 210 212
1129 42 214 211 210 213
1130 43 214 211 208 413
1131 47 213 211 208 413
1132 7 208 211 210 213
1133 22 490 486 492 493
1134 22 490 486 492 494
1135 16 492 486 490 488
1136 21 123 121 241 238
1137 36 119 121 123 292
1138 36 122 121 123 292
1139 37 119 121 123 291
1140 37 122 121 123 291
1141 26 350 353 352 348
1142 27 350 353 352 290
1143 27 352 353 350 517
1144 26 580 578 577 575
1145 27 580 578 577 574
1146 26 185 136 135 130
1147 27 185 136 135 137
1148 44 191 136 135 137
1149 26 135 136 185 180
1150 29 348 352 353 358
1151 45 290 352 353 358
1152 26 353 352 348 342
1153 27 353 352 348 284
1154 29 232 234 238 241
1155 45 118 234 238 241
1156 26 238 234 232 233
1157 27 238 234 232 230
1158 44 118 234 232 230
1159 26 232 234 238 239
1160 21 312 310 306 304
1161 36 309 310 312 315
1162 36 377 310 312 315
1163 37 309 310 312 313
1164 37 377 310 312 313
1165 16 210 213 211 214
1166 22 211 213 210 207
1167 22 211 213 210 212
1168 10 229 231 201 404
1169 11 229 231 201 237
1170 10 229 231 445 397
1171 11 229 231 445 444
1172 25 201 231 229 228
1173 25 445 231 229 228
1174 25 201 231 229 226
1175 25 445 231 229 226
1176 26 201 231 445 397
1177 27 201 231 445 444
1178 27 445 231 201 237
1179 26 60 58 181 182
1180 27 60 58 181 51
1181 27 181 58 60 61
1182 21 79 55 59 58
1183 36 54 55 79 81
1184 36 52 55 79 81
1185 37 54 55 79 77
1186 37 52 55 79 77
1187 9 55 79 77 78
1188 8 78 79 55 59
1189 6 78 79 55 54
1190 6 78 79 55 52
1191 6 55 79 78 80
1192 6 55 79 78 76
1193 42 81 79 78 77
1194 43 81 79 55 59
1195 47 77 79 55 59
1196 7 55 79 78 77
1197 17 55 59 58 60
1198 17 55 59 58 181
1199 32 58 59 55 54
1200 32 58 59 55 52
1201 16 78 77 79 81
1202 22 79 77 78 80
1203 22 79 77 78 76
1204 27 186 182 181 51
1205 44 178 182 181 51
1206 29 182 181 58 59
1207 45 51 181 58 59
1208 26 58 181 182 186
1209 27 58 181 182 178
1210 26 231 445 397 400
1211 27 231 445 397 396
1212 37 80 78 79 77
1213 36 80 78 79 81
1214 37 76 78 79 77
1215 36 76 78 79 81
1216 29 201 404 400 402
1217 26 201 404 400 397
1218 27 400 404 201 237
1219 45 409 404 400 402
1220 21 405 406 402 400
1221 37 410 406 405 543
1222 36 410 406 405 538
1223 37 408 406 405 543
1224 36 408 406 405 538
1225 8 544 405 406 402
1226 47 543 405 406 402
1227 43 538 405 406 402
1228 7 406 405 544 543
1229 6 406 405 544 548
1230 6 406 405 544 541
1231 9 406 405 543 544
1232 6 544 405 406 410
1233 6 544 405 406 408
1234 42 538 405 544 543
1235 36 548 544 405 538
1236 36 541 544 405 538
1237 37 548 544 405 543
1238 37 541 544 405 543
1239 22 405 543 544 548
1240 22 405 543 544 541
1241 16 544 543 405 538
1242 17 406 402 400 404
1243 32 400 402 406 410
1244 32 400 402 406 408
1245 17 406 402 400 397
1246 16 196 199 197 200
1247 22 197 199 196 198
1248 22 197 199 196 194
1249 26 404 400 397 445
1250 27 404 400 397 396
1251 27 397 400 404 409
1252 27 400 397 445 444
1253 45 396 397 400 402
1254 44 396 397 445 444
1255 29 445 397 400 402
1256 37 198 196 197 199
1257 36 198 196 197 200
1258 37 194 196 197 199
1259 36 194 196 197 200
1260 9 195 197 199 196
1261 8 196 197 195 394
1262 6 196 197 195 163
1263 6 196 197 195 398
1264 6 195 197 196 198
1265 6 195 197 196 194
1266 42 200 197 196 199
1267 43 200 197 195 394
1268 47 199 197 195 394
1269 7 195 197 196 199
1270 26 231 201 404 400
1271 27 231 201 404 409
1272 44 237 201 404 409
1273 26 404 201 231 445
1274 20 86 561 558 556
1275 34 90 561 86 88
1276 34 537 561 86 88
1277 48 558 561 86 559
1278 35 90 561 86 559
1279 35 537 561 86 559
1280 27 146 149 25 27
1281 45 147 149 146 143
1282 44 147 149 25 27
1283 29 25 149 146 143
1284 26 29 25 149 146
1285 27 29 25 149 147
1286 21 197 195 394 442
1287 36 163 195 197 200
1288 36 398 195 197 200
1289 37 163 195 197 199
1290 37 398 195 197 199
1291 26 438 442 393 439
1292 27 438 442 393 395
1293 27 393 442 438 437
1294 1 263 262 267 268
1295 23 267 262 263 264
1296 23 267 262 263 259
1297 23 267 262 263 265
1298 1 263 262 267 109
1299 33 261 262 263 264
1300 33 261 262 263 259
1301 33 261 262 263 265
1302 33 260 262 263 264
1303 33 260 262 263 259
1304 33 260 262 263 265
1305 29 302 305 304 306
1306 45 307 305 304 306
1307 26 304 305 302 299
1308 27 304 305 302 303
1309 33 110 85 89 225
1310 33 110 85 89 62
1311 33 83 85 89 225
1312 33 83 85 89 62
1313 33 87 85 89 225
1314 33 87 85 89 62
1315 27 500 498 497 495
1316 45 496 498 500 501
1317 44 496 498 497 495
1318 29 497 498 500 501
1319 26 555 553 554 556
1320 27 555 553 554 551
1321 44 550 553 554 551
1322 26 554 553 555 557
1323 10 31 29 24 148
1324 11 31 29 24 28
1325 10 31 29 25 149
1326 11 31 29 25 27
1327 25 24 29 31 35
1328 25 25 29 31 35
1329 25 24 29 31 34
1330 25 25 29 31 34
1331 26 24 29 25 149
1332 27 24 29 25 27
1333 27 25 29 24 28
1334 26 499 502 503 500
1335 27 499 502 503 505
1336 44 463 502 503 505
1337 26 503 502 499 497
1338 26 499 497 498 500
1339 27 499 497 498 496
1340 26 111 268 267 109
1341 26 267 268 111 91
1342 26 234 232 233 235
1343 27 233 232 234 118
1344 26 555 557 560 556
1345 27 555 557 560 536
1346 26 554 556 560 557
1347 27 554 556 560 536
1348 27 560 556 554 551
1349 26 22 23 30 33
1350 27 30 23 22 20
1351 17 195 394 442 438
1352 17 195 394 442 393
1353 32 442 394 195 163
1354 32 442 394 195 398
1355 10 295 499 502 503
1356 11 295 499 502 463
1357 10 295 499 497 498
1358 11 295 499 497 495
1359 25 502 499 295 293
1360 25 497 499 295 293
1361 25 502 499 295 458
1362 25 497 499 295 458
1363 26 502 499 497 498
1364 27 502 499 497 495
1365 27 497 499 502 463
1366 24 499 295 299 298
1367 24 299 295 499 502
1368 24 299 295 499 497
1369 24 499 295 299 302
1370 29 435 438 442 394
1371 45 437 438 442 394
1372 26 442 438 435 436
1373 27 442 438 435 433
1374 44 437 438 435 433
1375 26 435 438 442 393
1376 10 434 555 553 554
1377 11 434 555 553 550
1378 10 434 555 557 560
1379 11 434 555 557 440
1380 25 553 555 434 431
1381 25 557 555 434 431
1382 25 553 555 434 429
1383 25 557 555 434 429
1384 26 553 555 557 560
1385 27 553 555 557 440
1386 27 557 555 553 550
1387 29 502 503 500 501
1388 26 502 503 500 498
1389 27 500 503 502 463
1390 45 505 503 500 501
1391 29 298 301 304 306
1392 45 300 301 304 306
1393 26 304 301 298 299
1394 27 304 301 298 296
1395 44 300 301 298 296
1396 26 298 301 304 305
1397 24 29 31 30 23
1398 24 30 31 29 24
1399 24 30 31 29 25
1400 24 29 31 30 33
1401 26 301 298 299 302
1402 27 299 298 301 300
1403 10 434 436 435 438
1404 25 435 436 434 431
1405 25 435 436 434 429
1406 26 435 436 439 393
1407 27 435 436 439 441
1408 11 434 436 435 433
1409 27 439 436 435 433
1410 25 439 436 434 431
1411 25 439 436 434 429
1412 11 434 436 439 441
1413 10 434 436 439 393
1414 10 295 299 298 301
1415 25 298 299 295 293
1416 25 298 299 295 458
1417 26 298 299 302 305
1418 27 298 299 302 303
1419 11 295 299 298 296
1420 27 302 299 298 296
1421 25 302 299 295 293
1422 25 302 299 295 458
1423 11 295 299 302 303
1424 10 295 299 302 305
1425 26 438 435 436 439
1426 27 436 435 438 437
1427 27 436 439 393 395
1428 44 441 439 393 395
1429 10 262 267 268 111
1430 25 268 267 262 261
1431 25 268 267 262 260
1432 28 268 267 109 155
1433 26 268 267 109 112
1434 11 262 267 268 266
1435 27 109 267 268 266
1436 25 109 267 262 261
1437 25 109 267 262 260
1438 10 262 267 109 112
1439 12 262 267 109 155
1440 29 439 393 442 394
1441 45 395 393 442 394
1442 26 442 393 439 436
1443 27 442 393 439 441
1444 24 555 434 436 435
1445 24 436 434 555 553
1446 24 436 434 555 557
1447 24 555 434 436 439
1448 17 310 306 304 301
1449 17 310 306 304 305
1450 32 304 306 310 309
1451 32 304 306 310 377
1452 26 503 500 498 497
1453 27 503 500 498 496
1454 27 498 500 503 505
1455 26 301 304 305 302
1456 27 301 304 305 307
1457 27 305 304 301 300
1458 17 561 558 556 554
1459 17 561 558 556 560
1460 32 556 558 561 537
1461 32 556 558 561 90
1462 27 556 560 557 440
1463 45 536 560 556 558
1464 44 536 560 557 440
1465 29 557 560 556 558
1466 29 553 554 556 558
1467 26 553 554 556 560
1468 27 556 554 553 550
1469 45 551 554 556 558
1470 27 299 302 305 307
1471 44 303 302 305 307
1472 20 43 168 169 174
1473 34 172 168 43 170
1474 34 167 168 43 170
1475 48 169 168 43 39
1476 35 172 168 43 39
1477 35 167 168 43 39
1478 9 121 123 291 294
1479 8 294 123 121 241
1480 6 294 123 121 119
1481 6 294 123 121 122
1482 6 121 123 294 297
1483 6 121 123 294 249
1484 42 292 123 294 291
1485 43 292 123 121 241
1486 47 291 123 121 241
1487 7 121 123 294 291
1488 24 185 187 186 190
1489 24 186 187 185 136
1490 24 186 187 185 180
1491 24 185 187 186 182
1492 10 31 30 23 22
1493 25 23 30 31 35
1494 25 23 30 31 34
1495 26 23 30 33 32
1496 27 23 30 33 36
1497 11 31 30 23 21
1498 27 33 30 23 21
1499 25 33 30 31 35
1500 25 33 30 31 34
1501 11 31 30 33 36
1502 10 31 30 33 32

Impropers

1 26 280 283 281 285
2 26 276 278 281 116
3 25 276 277 280 275
4 24 282 280 283 277
5 24 274 276 277 278
6 1 113 274 276 117
7 1 113 274 276 273
8 3 113 274 117 273
9 13 276 274 117 273
10 30 278 116 227 114
11 25 177 49 47 50
12 24 56 15 13 17
13 24 447 281 278 283
14 13 356 361 363 360
15 13 356 361 363 362
16 13 356 361 360 362
17 14 363 361 360 362
18 24 361 356 351 354
19 3 274 113 115 158
20 3 274 113 115 157
21 3 274 113 158 157
22 14 115 113 158 157
23 29 223 357 359 354
24 26 349 354 356 357
25 13 281 447 446 450
26 13 281 447 446 448
27 13 281 447 450 448
28 14 446 447 450 448
29 26 347 351 356 173
30 5 379 223 224 357
31 5 379 223 222 357
32 15 224 223 222 357
33 4 379 223 224 222
34 25 49 47 174 45
35 29 244 173 171 351
36 25 14 17 15 18
37 12 15 56 177 132
38 12 15 56 177 57
39 13 15 56 132 57
40 13 177 56 132 57
41 24 56 177 49 124
42 27 176 174 47 169
43 25 12 14 17 16
44 25 15 13 11 53
45 5 43 41 40 285
46 5 43 41 42 285
47 15 40 41 42 285
48 4 43 41 40 42
49 19 223 379 430 193
50 18 223 379 430 378
51 20 223 379 193 378
52 20 430 379 193 378
53 6 379 430 380 428
54 6 379 430 380 432
55 4 379 430 428 432
56 17 428 430 432 380
57 11 472 473 467 471
58 11 472 473 467 443
59 7 472 473 471 443
60 17 471 473 443 467
61 22 269 472 473 466
62 21 269 472 473 474
63 23 269 472 466 474
64 23 473 472 466 474
65 8 472 269 271 466
66 8 472 269 270 466
67 16 271 269 270 466
68 7 472 269 271 270
69 3 63 545 576 572
70 3 63 545 576 546
71 3 63 545 572 546
72 14 576 545 572 546
73 25 176 124 177 127
74 25 456 453 575 452
75 25 174 176 124 120
76 25 462 255 217 256
77 25 128 180 185 179
78 24 187 185 136 180
79 25 575 577 578 574
80 25 353 350 343 517
81 25 130 128 180 126
82 8 531 528 507 527
83 8 531 528 529 527
84 16 507 528 529 527
85 7 531 528 507 529
86 22 528 531 532 527
87 21 528 531 532 533
88 23 528 531 527 533
89 23 532 531 527 533
90 24 337 342 348 343
91 25 13 11 12 10
92 27 14 12 11 9
93 25 334 390 386 391
94 27 388 384 386 380
95 25 384 388 392 387
96 25 388 392 334 335
97 24 337 334 390 392
98 25 390 386 384 382
99 12 342 337 334 338
100 12 342 337 334 336
101 13 342 337 338 336
102 13 334 337 338 336
103 11 531 532 534 508
104 11 531 532 534 530
105 7 531 532 508 530
106 17 508 532 530 534
107 9 251 131 134 129
108 9 251 131 133 129
109 17 134 131 133 129
110 7 251 131 134 133
111 22 131 251 250 125
112 21 131 251 250 248
113 23 131 251 125 248
114 23 250 251 125 248
115 25 350 343 342 339
116 25 342 348 352 284
117 27 128 130 135 129
118 8 123 294 297 291
119 8 123 294 249 291
120 16 297 294 249 291
121 7 123 294 297 249
122 10 251 250 125 103
123 10 251 250 125 102
124 7 251 250 103 102
125 16 103 250 102 125
126 3 282 287 289 288
127 3 282 287 289 489
128 3 282 287 288 489
129 14 289 287 288 489
130 27 577 575 453 573
131 10 368 372 370 375
132 10 368 372 370 373
133 7 368 372 375 373
134 16 375 372 373 370
135 29 41 285 286 283
136 2 287 282 279 280
137 2 287 282 483 280
138 13 280 282 279 483
139 3 287 282 279 483
140 25 326 323 321 324
141 27 149 146 148 143
142 6 140 142 143 144
143 6 140 142 143 141
144 4 140 142 144 141
145 17 144 142 141 143
146 5 247 244 245 173
147 5 247 244 242 173
148 15 245 244 242 173
149 4 247 244 245 242
150 2 545 63 98 64
151 2 545 63 539 64
152 13 64 63 98 539
153 3 545 63 98 539
154 19 257 140 142 139
155 18 257 140 142 138
156 20 257 140 139 138
157 20 142 140 139 138
158 13 322 152 154 151
159 13 322 152 154 150
160 13 322 152 151 150
161 14 154 152 151 150
162 26 67 65 64 542
163 30 65 542 547 540
164 24 63 64 65 66
165 24 69 67 70 65
166 13 67 69 46 44
167 13 67 69 46 48
168 13 67 69 44 48
169 14 46 69 44 48
170 26 67 70 68 72
171 25 68 66 64 100
172 29 257 72 74 70
173 24 71 68 66 70
174 5 140 257 254 72
175 5 140 257 258 72
176 15 254 257 258 72
177 4 140 257 254 258
178 30 325 327 156 329
179 24 152 322 325 320
180 26 321 320 322 317
181 26 326 325 322 327
182 29 84 317 464 320
183 1 204 71 68 75
184 1 204 71 68 101
185 3 204 71 75 101
186 13 68 71 75 101
187 6 247 252 461 459
188 6 247 252 461 253
189 4 247 252 459 253
190 17 459 252 253 461
191 24 328 326 323 325
192 24 319 321 320 323
193 25 24 148 146 145
194 3 71 204 203 202
195 3 71 204 203 205
196 3 71 204 202 205
197 14 203 204 202 205
198 25 423 421 462 420
199 19 84 86 561 559
200 18 84 86 561 88
201 20 84 86 559 88
202 20 561 86 559 88
203 10 568 569 564 451
204 10 568 569 564 567
205 7 568 569 451 567
206 16 451 569 567 564
207 1 383 328 326 385
208 1 383 328 326 332
209 3 383 328 385 332
210 13 326 328 385 332
211 9 568 571 566 573
212 9 568 571 570 573
213 17 566 571 570 573
214 7 568 571 566 570
215 5 86 84 82 317
216 5 86 84 552 317
217 15 82 84 552 317
218 4 86 84 82 552
219 2 510 319 316 321
220 2 510 319 465 321
221 13 321 319 316 465
222 3 510 319 316 465
223 3 328 383 512 381
224 3 328 383 512 389
225 3 328 383 381 389
226 14 512 383 381 389
227 27 255 462 421 461
228 25 255 217 424 220
229 19 244 247 252 243
230 18 244 247 252 246
231 20 244 247 243 246
232 20 252 247 243 246
233 5 108 105 106 95
234 5 108 105 104 95
235 15 106 105 104 95
236 4 108 105 106 104
237 9 368 367 364 369
238 9 368 367 365 369
239 17 364 367 365 369
240 7 368 367 364 365
241 24 92 112 91 109
242 6 4 8 9 7
243 6 4 8 9 6
244 4 4 8 7 6
245 17 7 8 6 9
246 19 105 108 504 107
247 18 105 108 504 19
248 20 105 108 107 19
249 20 504 108 107 19
250 19 3 4 8 1
251 18 3 4 8 5
252 20 3 4 1 5
253 20 8 4 1 5
254 22 571 568 569 564
255 21 571 568 569 565
256 23 571 568 564 565
257 23 569 568 564 565
258 1 85 89 111 225
259 1 85 89 111 62
260 3 85 89 225 62
261 13 111 89 225 62
262 25 26 22 23 20
263 13 112 92 93 94
264 13 112 92 93 38
265 13 112 92 94 38
266 14 93 92 94 38
267 24 89 111 268 91
268 5 4 3 99 95
269 5 4 3 2 95
270 15 99 3 2 95
271 4 4 3 99 2
272 25 30 33 32 36
273 25 188 216 218 215
274 25 424 423 421 422
275 12 424 219 218 221
276 12 424 219 218 427
277 13 424 219 221 427
278 13 218 219 221 427
279 22 367 368 372 370
280 21 367 368 372 366
281 23 367 368 370 366
282 23 372 368 370 366
283 26 112 109 267 155
284 25 425 374 371 376
285 25 33 32 26 535
286 25 29 24 148 28
287 26 111 91 112 95
288 27 22 26 32 534
289 30 109 155 153 37
290 25 218 425 374 426
291 28 3 95 105 91
292 24 219 218 425 216
293 27 188 371 374 369
294 25 371 188 216 184
295 6 108 504 501 506
296 6 108 504 501 582
297 4 108 504 506 582
298 17 506 504 582 501
299 24 219 424 423 217
300 25 469 470 585 468
301 25 470 585 516 584
302 24 515 516 333 585
303 27 470 469 331 467
304 25 333 331 469 330
305 8 521 523 522 519
306 8 521 523 526 519
307 16 522 523 526 519
308 7 521 523 522 526
309 25 475 477 479 562
310 24 515 475 477 478
311 12 516 515 475 513
312 12 516 515 475 514
313 13 516 515 513 514
314 13 475 515 513 514
315 25 516 333 331 272
316 25 477 479 482 563
317 25 480 478 475 476
318 25 482 480 478 481
319 3 345 403 401 407
320 3 345 403 401 399
321 3 345 403 407 399
322 14 401 403 407 399
323 12 233 229 231 228
324 12 233 229 231 226
325 13 233 229 228 226
326 13 231 229 228 226
327 2 403 345 346 349
328 2 403 345 340 349
329 13 349 345 346 340
330 3 403 345 346 340
331 25 60 190 186 192
332 8 312 311 308 313
333 8 312 311 314 313
334 16 308 311 314 313
335 7 312 311 308 314
336 25 58 60 190 61
337 22 523 521 520 519
338 21 523 521 520 525
339 23 523 521 519 525
340 23 520 521 519 525
341 27 480 482 479 484
342 22 311 312 310 313
343 21 311 312 310 315
344 23 311 312 313 315
345 23 310 312 313 315
346 24 187 186 182 190
347 25 347 344 349 341
348 24 345 349 354 344
349 3 165 162 160 161
350 3 165 162 160 159
351 3 165 162 161 159
352 14 160 162 161 159
353 1 162 165 347 164
354 1 162 165 347 166
355 3 162 165 164 166
356 13 347 165 164 166
357 19 41 43 168 39
358 18 41 43 168 170
359 20 41 43 39 170
360 20 168 43 39 170
361 24 165 347 344 351
362 25 136 135 130 137
363 11 521 520 358 518
364 11 521 520 358 524
365 7 521 520 518 524
366 17 518 520 524 358
367 24 229 233 235 232
368 8 211 210 207 213
369 8 211 210 212 213
370 16 207 210 212 213
371 7 211 210 207 212
372 25 580 456 453 457
373 24 581 580 456 578
374 12 417 581 580 460
375 12 417 581 580 549
376 13 417 581 460 549
377 13 580 581 460 549
378 25 235 239 238 240
379 10 490 492 486 493
380 10 490 492 486 494
381 7 490 492 493 494
382 16 493 492 494 486
383 25 233 235 239 236
384 11 211 208 413 206
385 11 211 208 413 209
386 7 211 208 206 209
387 17 206 208 209 413
388 9 490 487 485 484
389 9 490 487 491 484
390 17 485 487 491 484
391 7 490 487 485 491
392 25 415 418 417 419
393 27 415 414 412 413
394 24 581 417 455 418
395 25 414 415 418 416
396 25 417 455 412 454
397 25 455 412 414 411
398 27 234 238 239 241
399 22 487 490 492 486
400 21 487 490 492 488
401 23 487 490 486 488
402 23 492 490 486 488
403 22 210 211 208 213
404 21 210 211 208 214
405 23 210 211 213 214
406 23 208 211 213 214
407 11 123 121 241 119
408 11 123 121 241 122
409 7 123 121 119 122
410 17 119 121 122 241
411 27 350 353 352 358
412 25 577 578 580 579
413 25 185 136 135 191
414 25 348 352 353 290
415 25 238 234 232 118
416 11 312 310 306 309
417 11 312 310 306 377
418 7 312 310 309 377
419 17 309 310 377 306
420 24 229 231 201 445
421 27 60 58 181 59
422 11 79 55 59 54
423 11 79 55 59 52
424 7 79 55 54 52
425 17 54 55 52 59
426 22 78 79 55 77
427 21 78 79 55 81
428 23 78 79 77 81
429 23 55 79 77 81
430 25 186 182 181 178
431 25 182 181 58 51
432 25 397 445 231 444
433 8 79 78 80 77
434 8 79 78 76 77
435 16 80 78 76 77
436 7 79 78 80 76
437 25 201 404 400 409
438 9 405 406 410 402
439 9 405 406 408 402
440 17 410 406 408 402
441 7 405 406 410 408
442 22 406 405 544 543
443 21 406 405 544 538
444 23 406 405 543 538
445 23 544 405 543 538
446 10 405 544 543 548
447 10 405 544 543 541
448 7 405 544 548 541
449 16 548 544 541 543
450 3 319 510 583 509
451 3 319 510 583 511
452 3 319 510 509 511
453 14 583 510 509 511
454 27 397 400 404 402
455 25 400 397 445 396
456 8 197 196 198 199
457 8 197 196 194 199
458 16 198 196 194 199
459 7 197 196 198 194
460 22 196 197 195 199
461 21 196 197 195 200
462 23 196 197 199 200
463 23 195 197 199 200
464 25 231 201 404 237
465 6 86 561 558 90
466 6 86 561 558 537
467 4 86 561 90 537
468 17 90 561 537 558
469 25 146 149 25 147
470 25 149 25 29 27
471 11 197 195 394 163
472 11 197 195 394 398
473 7 197 195 163 398
474 17 163 195 398 394
475 27 438 442 393 394
476 2 263 262 261 267
477 2 263 262 260 267
478 13 267 262 261 260
479 3 263 262 261 260
480 25 302 305 304 307
481 3 89 85 110 83
482 3 89 85 110 87
483 3 89 85 83 87
484 14 110 85 83 87
485 3 262 263 264 259
486 3 262 263 264 265
487 3 262 263 259 265
488 14 264 263 259 265
489 25 500 498 497 496
490 25 555 553 554 550
491 24 31 29 24 25
492 25 499 502 503 463
493 25 498 497 499 495
494 25 111 268 267 266
495 25 234 232 233 230
496 25 560 557 555 440
497 27 560 556 554 558
498 25 22 23 30 21
499 24 295 499 502 497
500 12 299 295 499 293
501 12 299 295 499 458
502 13 299 295 293 458
503 13 499 295 293 458
504 25 442 438 435 437
505 24 434 555 553 557
506 25 502 503 500 505
507 25 304 301 298 300
508 12 30 31 29 35
509 12 30 31 29 34
510 13 30 31 35 34
511 13 29 31 35 34
512 25 301 298 299 296
513 24 434 436 439 435
514 24 295 299 302 298
515 25 438 435 436 433
516 25 436 439 393 441
517 24 262 267 109 268
518 25 439 393 442 395
519 12 436 434 555 431
520 12 436 434 555 429
521 13 436 434 431 429
522 13 555 434 431 429
523 27 498 500 503 501
524 27 301 304 305 306
525 25 556 560 557 536
526 25 553 554 556 551
527 25 299 302 305 303
528 6 43 168 169 172
529 6 43 168 169 167
530 4 43 168 172 167
531 17 172 168 167 169
532 22 294 123 121 291
533 21 294 123 121 292
534 23 294 123 291 292
535 23 121 123 291 292
536 12 186 187 185 189
537 12 186 187 185 183
538 13 186 187 189 183
539 13 185 187 189 183
540 24 31 30 33 23
