LAMMPS data file via write_data, version 4 Jul 2026, timestep = 1696000, units = real

585 atoms
11 atom types
615 bonds
18 bond types
1090 angles
35 angle types
1508 dihedrals
48 dihedral types
540 impropers
30 improper types

1.4264561292842206 19.727322880713103 xlo xhi
1.4264561292842206 19.727322880713103 ylo yhi
1.4264561292842206 19.727322880713103 zlo zhi

Masses

1 12.01115
2 12.01115
3 12.01115
4 12.01115
5 1.00797
6 1.00797
7 1.00797
8 14.0067
9 15.9994
10 15.9994
11 15.9994

Pair Coeffs # lj/class2/coul/long

1 0.054 4.01
2 0.054 4.01
3 0.054 4.01
4 0.064 4.01
5 0.02 2.995
6 0.013 1.098
7 0.013 1.098
8 0.065 4.07
9 0.24 3.535
10 0.24 3.535
11 0.24 3.535

Bond Coeffs # class2

1 1.53 299.67 -501.77 679.81
2 1.53 299.67 -501.77 679.81
3 1.53 299.67 -501.77 679.81
4 1.501 321.902 -521.821 572.163
5 1.101 345 -691.89 844.6
6 1.457 365.805 -699.637 998.484
7 1.42 400.395 -835.195 1313.01
8 1.42 400.395 -835.195 1313.01
9 1.101 345 -691.89 844.6
10 1.42 400.395 -835.195 1313.01
11 1.101 345 -691.89 844.6
12 1.42 400.395 -835.195 1313.01
13 1.417 470.836 -627.618 1327.63
14 1.0982 372.825 -803.453 894.317
15 1.412 257.775 0 0
16 1.3768 428.88 -738.235 1114.97
17 1.006 466.74 -1073.6 1251.11
18 0.965 532.506 -1282.9 2004.77

Angle Coeffs # class2

1 108.4 43.9594 -8.3924 -9.3379
2 110.77 41.453 -10.604 5.129
3 112.67 39.516 -7.443 -9.5583
4 110.77 41.453 -10.604 5.129
5 111.27 54.5381 -8.3642 -13.0838
6 112.67 39.516 -7.443 -9.5583
7 110.77 41.453 -10.604 5.129
8 111.27 54.5381 -8.3642 -13.0838
9 120.05 44.7148 -22.7352 0
10 112.444 47.2337 -10.6612 -10.2062
11 109 80 0 0
12 110.954 50.8652 -4.4522 -10.0298
13 104.5 35.7454 -10.0067 -6.2729
14 102.969 38.9739 -6.2595 -8.171
15 110.77 41.453 -10.604 5.129
16 111.91 60.7147 -13.3366 -13.0785
17 111.27 54.5381 -8.3642 -13.0838
18 105.8 52.7061 -12.109 -9.8681
19 110.77 41.453 -10.604 5.129
20 111.27 54.5381 -8.3642 -13.0838
21 111.27 54.5381 -8.3642 -13.0838
22 111 44.3234 -9.4454 0
23 111 44.3234 -9.4454 0
24 118.9 61.0226 -34.9931 0
25 117.94 35.1558 -12.4682 0
26 120 102 0 0
27 123.42 73.6781 -21.6787 0
28 110 41.6 0 0
29 107.66 39.641 -12.921 -2.4318
30 110.62 51.3137 -6.7198 -2.6003
31 108.728 58.5446 -10.8088 -12.4006
32 108.728 58.5446 -10.8088 -12.4006
33 108.728 58.5446 -10.8088 -12.4006
34 108.728 58.5446 -10.8088 -12.4006
35 107.067 45.252 -7.5558 -9.512

BondBond Coeffs

1 0 1.53 1.501
2 3.3872 1.53 1.101
3 0 1.53 1.53
4 3.3872 1.53 1.101
5 11.4318 1.53 1.42
6 0 1.53 1.53
7 3.3872 1.53 1.101
8 11.4318 1.53 1.42
9 12.0676 1.501 1.417
10 -2.1113 1.457 1.457
11 0 1.457 1.412
12 -6.4168 1.457 1.006
13 -7.1131 1.42 1.42
14 0 1.42 1.3768
15 3.3872 1.53 1.101
16 4.6217 1.53 1.457
17 11.4318 1.53 1.42
18 -9.6879 1.42 0.965
19 3.3872 1.53 1.101
20 11.4318 1.53 1.42
21 11.4318 1.53 1.42
22 0 1.501 1.501
23 2.9168 1.501 1.101
24 68.2856 1.417 1.417
25 1.0795 1.417 1.0982
26 0 1.417 1.412
27 48.4754 1.417 1.3768
28 0 1.412 1.006
29 5.3316 1.101 1.101
30 12.426 1.101 1.457
31 23.1979 1.101 1.42
32 23.1979 1.101 1.42
33 23.1979 1.101 1.42
34 23.1979 1.101 1.42
35 -1.8749 1.006 1.006

BondAngle Coeffs

1 0 0 1.53 1.501
2 20.754 11.421 1.53 1.101
3 8.016 8.016 1.53 1.53
4 20.754 11.421 1.53 1.101
5 2.6868 20.4033 1.53 1.42
6 8.016 8.016 1.53 1.53
7 20.754 11.421 1.53 1.101
8 2.6868 20.4033 1.53 1.42
9 47.0579 31.0771 1.501 1.417
10 -7.2229 -7.2229 1.457 1.457
11 0 0 1.457 1.412
12 31.8096 20.5799 1.457 1.006
13 -2.8112 -2.8112 1.42 1.42
14 0 0 1.42 1.3768
15 20.754 11.421 1.53 1.101
16 6.0876 16.5702 1.53 1.457
17 2.6868 20.4033 1.53 1.42
18 28.58 18.9277 1.42 0.965
19 20.754 11.421 1.53 1.101
20 2.6868 20.4033 1.53 1.42
21 2.6868 20.4033 1.53 1.42
22 0 0 1.501 1.501
23 26.4608 11.7717 1.501 1.101
24 28.8708 28.8708 1.417 1.417
25 20.0033 24.2183 1.417 1.0982
26 0 0 1.417 1.412
27 58.479 107.681 1.417 1.3768
28 0 0 1.412 1.006
29 18.103 18.103 1.101 1.101
30 13.4582 42.4332 1.101 1.457
31 4.6189 55.327 1.101 1.42
32 4.6189 55.327 1.101 1.42
33 4.6189 55.327 1.101 1.42
34 4.6189 55.327 1.101 1.42
35 28.0322 28.0322 1.006 1.006

Dihedral Coeffs # class2

1 -0.2802 0 -0.0678 0 -0.0122 0
2 0 0 0.0316 0 -0.1681 0
3 0.1764 0 0.1766 0 -0.5206 0
4 0.7137 0 0.266 0 -0.2545 0
5 -0.6732 0 -0.4778 0 -0.167 0
6 0 0 0.0316 0 -0.1681 0
7 0.7137 0 0.266 0 -0.2545 0
8 0.7137 0 0.266 0 -0.2545 0
9 -0.5203 0 -0.3028 0 -0.345 0
10 0 0 4.4072 0 0 0
11 0 0 1.559 0 0 0
12 0 0 3 0 0 0
13 -0.1406 0 0.4168 0 0.015 0
14 0.1904 0 -0.1342 0 -0.246 0
15 0 0 2.25 0 0 0
16 0.5302 0 0 0 -0.3966 0
17 0 0 1.5 0 0 0
18 0 0 0 0 0.05 180
19 -1.1506 0 -0.6344 0 -0.1845 0
20 0 0 0 0 0.13 180
21 0 0 0 0 0.13 180
22 0.5302 0 0 0 -0.3966 0
23 -0.0228 0 0.028 0 -0.1863 0
24 -0.2802 0 -0.0678 0 -0.0122 0
25 -0.2801 0 -0.0678 0 -0.0122 0
26 8.3667 0 1.1932 0 0 0
27 0 0 3.9661 0 0 0
28 0 0 3 0 0 0
29 0 0 4.8498 0 0 0
30 0 0 2.25 0 0 0
31 0 0 0 0 0.05 180
32 0.9513 0 0.1155 0 0.072 0
33 -0.1432 0 0.0617 0 -0.1083 0
34 -0.1432 0 0.0617 0 -0.1083 0
35 -0.1435 0 0.253 0 -0.0905 0
36 -0.1432 0 0.0617 0 -0.1083 0
37 -0.1435 0 0.253 0 -0.0905 0
38 -0.5187 0 -0.4837 0 -0.1692 0
39 -0.2428 0 0.4065 0 -0.3079 0
40 -0.1435 0 0.253 0 -0.0905 0
41 0.1863 0 -0.4338 0 -0.2121 0
42 -0.1435 0 0.253 0 -0.0905 0
43 -0.1435 0 0.253 0 -0.0905 0
44 0 0 1.8769 0 0 0
45 0 0 1.7234 0 0 0
46 0 0 0 0 0.158 180
47 -0.182 0 -0.1084 0 -0.7047 0
48 -0.182 0 -0.1084 0 -0.7047 0

AngleAngleTorsion Coeffs

1 0 108.4 120.05
2 -16.164 112.67 110.77
3 -27.3953 112.67 111.91
4 -29.042 112.67 111.27
5 -12.1038 111.27 105.8
6 -16.164 112.67 110.77
7 -29.042 112.67 111.27
8 -29.042 112.67 111.27
9 -19.0059 111.27 104.5
10 -14.4097 120.05 118.9
11 4.4444 120.05 117.94
12 0 120.05 120
13 -24.3818 112.444 111.91
14 -12.5567 112.444 110.62
15 0 109 120
16 -16.4438 104.5 108.728
17 0 102.969 123.42
18 0 111.91 109
19 -7.5499 111.91 110.954
20 0 111.27 102.969
21 0 111.27 102.969
22 -16.4438 104.5 108.728
23 0 108.4 110.77
24 0 111 120.05
25 -5.8888 120.05 111
26 0 118.9 118.9
27 -4.8141 118.9 117.94
28 0 118.9 120
29 -21.0247 118.9 123.42
30 0 120 110
31 0 109 110.62
32 0 102.969 108.728
33 -12.564 110.77 110.77
34 -12.564 110.77 110.77
35 -20.2006 110.77 111.27
36 -12.564 110.77 110.77
37 -20.2006 110.77 111.27
38 -10.4258 110.62 110.954
39 -15.7572 110.77 111.91
40 -20.2006 110.77 111.27
41 -10.5093 108.728 105.8
42 -20.2006 110.77 111.27
43 -20.2006 110.77 111.27
44 0.3598 117.94 117.94
45 4.2296 117.94 123.42
46 0 111.91 111.27
47 -14.0484 111.27 111.27
48 -14.0484 111.27 111.27

EndBondTorsion Coeffs

1 0 0 0 0 0 0 1.53 1.417
2 0.2486 0.2422 -0.0925 0.0814 0.0591 0.2219 1.53 1.101
3 0.1032 0.5896 -0.4836 0.0579 -0.0043 -0.1906 1.53 1.457
4 -0.319 0.4411 -0.7174 1.1538 0.8409 -0.9138 1.53 1.42
5 -0.58 0.9004 0 0 0.5343 0.9025 1.53 0.965
6 0.2486 0.2422 -0.0925 0.0814 0.0591 0.2219 1.53 1.101
7 -0.319 0.4411 -0.7174 1.1538 0.8409 -0.9138 1.53 1.42
8 -0.319 0.4411 -0.7174 1.1538 0.8409 -0.9138 1.53 1.42
9 -0.2456 1.0517 -0.7795 0.4741 1.2635 0.5576 1.53 1.42
10 0 0.2421 0 0 -0.6918 0 1.501 1.417
11 0 -1.797 0 0 -0.4879 0 1.501 1.0982
12 0 0 0 0 0 0 1.501 1.412
13 -0.0128 -0.0495 -0.1079 0.0997 -0.0046 -0.2657 1.457 1.53
14 0.0628 0.0873 -0.0882 -0.5892 0.714 0.3505 1.457 1.101
15 0 0 0 0 0 0 1.457 1.417
16 -0.162 0.1564 -1.1408 -0.6054 1.3339 0.9648 1.42 1.101
17 0 0 0 0 0 0 1.42 1.417
18 0 0 0 0 0 0 1.53 1.412
19 -0.9466 0.9356 -0.5542 0.057 0.0625 0.4112 1.53 1.006
20 0 0 0 0 0 0 1.53 1.3768
21 0 0 0 0 0 0 1.53 1.3768
22 -0.162 0.1564 -1.1408 -0.6054 1.3339 0.9648 1.42 1.101
23 0 0 0 0 0 0 1.501 1.101
24 0 0 0 0 0 0 1.501 1.417
25 -0.5835 1.122 0.3978 1.3997 0.7756 0 1.417 1.101
26 -0.1185 6.3204 0 -0.1185 6.3204 0 1.417 1.417
27 0 -6.8958 0 0 -0.4669 0 1.417 1.0982
28 0 0 0 0 0 0 1.417 1.412
29 0 0.2655 0 0 4.8905 0 1.417 1.3768
30 0 0 0 0 0 0 1.417 1.006
31 0 0 0 0 0 0 1.412 1.101
32 0 0 0 0 0 0 1.3768 1.101
33 0.213 0.312 0.0777 0.213 0.312 0.0777 1.101 1.101
34 0.213 0.312 0.0777 0.213 0.312 0.0777 1.101 1.101
35 0.9681 0.9551 0.0436 0.5903 0.6669 0.8584 1.101 1.42
36 0.213 0.312 0.0777 0.213 0.312 0.0777 1.101 1.101
37 0.9681 0.9551 0.0436 0.5903 0.6669 0.8584 1.101 1.42
38 -1.1685 0.9266 -0.0993 0.085 0.3061 0.2104 1.101 1.006
39 0.196 0.7056 0.112 0.1022 0.209 0.6433 1.101 1.457
40 0.9681 0.9551 0.0436 0.5903 0.6669 0.8584 1.101 1.42
41 -1.7554 1.3145 0.2263 0.2493 0.6803 0 1.101 0.965
42 0.9681 0.9551 0.0436 0.5903 0.6669 0.8584 1.101 1.42
43 0.9681 0.9551 0.0436 0.5903 0.6669 0.8584 1.101 1.42
44 0 -0.689 0 0 -0.689 0 1.0982 1.0982
45 0 -1.5867 0 0 4.2641 0 1.0982 1.3768
46 0 0 0 0 0 0 1.457 1.42
47 1.0165 0.7553 -0.4609 1.0165 0.7553 -0.4609 1.42 1.42
48 1.0165 0.7553 -0.4609 1.0165 0.7553 -0.4609 1.42 1.42

MiddleBondTorsion Coeffs

1 0 0 0 1.501
2 -14.879 -3.6581 -0.3138 1.53
3 -15.4174 -7.3055 -1.0749 1.53
4 -21.8842 -7.6764 -0.6868 1.53
5 1.2472 0 0.7485 1.42
6 -14.879 -3.6581 -0.3138 1.53
7 -21.8842 -7.6764 -0.6868 1.53
8 -21.8842 -7.6764 -0.6868 1.53
9 -5.9288 -2.7007 -0.3175 1.42
10 0 9.1792 0 1.417
11 0 3.9421 0 1.417
12 0 0 0 1.417
13 -8.0036 -7.7321 -3.064 1.457
14 -6.4529 -6.8122 -1.1632 1.457
15 0 0 0 1.412
16 -6.8007 -4.6546 -1.4101 1.42
17 0 0 0 1.3768
18 0 0 0 1.457
19 -2.2208 0.5479 -0.3527 1.457
20 0 0 0 1.42
21 0 0 0 1.42
22 -6.8007 -4.6546 -1.4101 1.42
23 0 0 0 1.53
24 0 0 0 1.501
25 -5.5679 1.4083 0.301 1.501
26 27.5989 -2.312 0 1.417
27 0 -1.1521 0 1.417
28 0 0 0 1.417
29 0 4.8255 0 1.417
30 0 0 0 1.412
31 0 0 0 1.457
32 0 0 0 1.42
33 -14.261 -0.5322 -0.4864 1.53
34 -14.261 -0.5322 -0.4864 1.53
35 -16.7975 -1.2296 -0.275 1.53
36 -14.261 -0.5322 -0.4864 1.53
37 -16.7975 -1.2296 -0.275 1.53
38 -3.4611 1.6996 -0.6007 1.457
39 -10.4959 -0.7647 -0.0545 1.53
40 -16.7975 -1.2296 -0.275 1.53
41 0 0.9241 -0.5889 1.42
42 -16.7975 -1.2296 -0.275 1.53
43 -16.7975 -1.2296 -0.275 1.53
44 0 4.8228 0 1.417
45 0 5.5432 0 1.417
46 0 0 0 1.53
47 -17.2585 -3.6157 -0.8364 1.53
48 -17.2585 -3.6157 -0.8364 1.53

BondBond13 Coeffs

1 0 1.53 1.417
2 0 1.53 1.101
3 0 1.53 1.457
4 0 1.53 1.42
5 0 1.53 0.965
6 0 1.53 1.101
7 0 1.53 1.42
8 0 1.53 1.42
9 0 1.53 1.42
10 2.5085 1.501 1.417
11 0.8743 1.501 1.0982
12 0 1.501 1.412
13 0 1.457 1.53
14 0 1.457 1.101
15 0 1.457 1.417
16 0 1.42 1.101
17 0 1.42 1.417
18 0 1.53 1.412
19 0 1.53 1.006
20 0 1.53 1.3768
21 0 1.53 1.3768
22 0 1.42 1.101
23 0 1.501 1.101
24 0 1.501 1.417
25 -3.4826 1.417 1.101
26 53 1.417 1.417
27 -6.2741 1.417 1.0982
28 0 1.417 1.412
29 -2.2436 1.417 1.3768
30 0 1.417 1.006
31 0 1.412 1.101
32 0 1.3768 1.101
33 0 1.101 1.101
34 0 1.101 1.101
35 0 1.101 1.42
36 0 1.101 1.101
37 0 1.101 1.42
38 0 1.101 1.006
39 0 1.101 1.457
40 0 1.101 1.42
41 0 1.101 0.965
42 0 1.101 1.42
43 0 1.101 1.42
44 -1.7077 1.0982 1.0982
45 2.0517 1.0982 1.3768
46 0 1.457 1.42
47 0 1.42 1.42
48 0 1.42 1.42

AngleTorsion Coeffs

1 0 0 0 0 0 0 108.4 120.05
2 -0.2454 0 -0.1136 0.3113 0.4516 -0.1988 112.67 110.77
3 -1.9225 -1.345 0.221 2.0125 0.944 -2.7612 112.67 111.91
4 0.5623 -0.3041 -0.4015 0.9672 -0.7566 -1.2331 112.67 111.27
5 -3.5903 2.5225 0.4888 0.8726 -0.3577 0.3888 111.27 105.8
6 -0.2454 0 -0.1136 0.3113 0.4516 -0.1988 112.67 110.77
7 0.5623 -0.3041 -0.4015 0.9672 -0.7566 -1.2331 112.67 111.27
8 0.5623 -0.3041 -0.4015 0.9672 -0.7566 -1.2331 112.67 111.27
9 -2.7466 1.4877 -0.8955 0.5676 0.945 0.0703 111.27 104.5
10 0 -4.4683 0 0 3.8987 0 120.05 118.9
11 0 -0.1242 0 0 3.4601 0 120.05 117.94
12 0 0 0 0 0 0 120.05 120
13 1.2031 1.3645 -0.7071 -2.7883 1.5193 1.4796 112.444 111.91
14 -1.3582 0.1465 -0.5729 -2.6321 0.9353 -0.8398 112.444 110.62
15 0 0 0 0 0 0 109 120
16 -0.7777 0.434 -0.6653 -1.8234 1.6393 0.5144 104.5 108.728
17 0 0 0 0 0 0 102.969 123.42
18 0 0 0 0 0 0 111.91 109
19 -3.343 4.4558 -0.0346 0.2873 -0.8072 -0.096 111.91 110.954
20 0 0 0 0 0 0 111.27 102.969
21 0 0 0 0 0 0 111.27 102.969
22 -0.7777 0.434 -0.6653 -1.8234 1.6393 0.5144 104.5 108.728
23 0 0 0 0 0 0 108.4 110.77
24 0 0 0 0 0 0 111 120.05
25 0.2251 0.6548 0.1237 4.6266 0.1632 0.0461 120.05 111
26 1.9767 1.0239 0 1.9767 1.0239 0 118.9 118.9
27 0 2.5014 0 0 2.7147 0 118.9 117.94
28 0 0 0 0 0 0 118.9 120
29 0 10.0155 0 0 1.7404 0 118.9 123.42
30 0 0 0 0 0 0 120 110
31 0 0 0 0 0 0 109 110.62
32 0 0 0 0 0 0 102.969 108.728
33 -0.8085 0.5569 -0.2466 -0.8085 0.5569 -0.2466 110.77 110.77
34 -0.8085 0.5569 -0.2466 -0.8085 0.5569 -0.2466 110.77 110.77
35 2.3668 2.492 -1.0122 -0.1892 0.4918 0.7273 110.77 111.27
36 -0.8085 0.5569 -0.2466 -0.8085 0.5569 -0.2466 110.77 110.77
37 2.3668 2.492 -1.0122 -0.1892 0.4918 0.7273 110.77 111.27
38 -3.9582 2.0063 0.3213 -0.4294 -0.4442 -0.6141 110.62 110.954
39 0.5111 1.6328 -1.0155 -1.1075 0.282 0.8318 110.77 111.91
40 2.3668 2.492 -1.0122 -0.1892 0.4918 0.7273 110.77 111.27
41 -3.406 1.6396 0.0737 0 -0.281 -0.5944 108.728 105.8
42 2.3668 2.492 -1.0122 -0.1892 0.4918 0.7273 110.77 111.27
43 2.3668 2.492 -1.0122 -0.1892 0.4918 0.7273 110.77 111.27
44 0 2.4501 0 0 2.4501 0 117.94 117.94
45 0 1.8729 0 0 2.5706 0 117.94 123.42
46 0 0 0 0 0 0 111.91 111.27
47 0.5511 0.9737 -0.6673 0.5511 0.9737 -0.6673 111.27 111.27
48 0.5511 0.9737 -0.6673 0.5511 0.9737 -0.6673 111.27 111.27

Improper Coeffs # class2

1 0 0
2 0 0
3 0 0
4 0 0
5 0 0
6 0 0
7 0 0
8 0 0
9 0 0
10 0 0
11 0 0
12 0 0
13 0 0
14 0 0
15 0 0
16 0 0
17 0 0
18 0 0
19 0 0
20 0 0
21 0 0
22 0 0
23 0 0
24 7.8153 0
25 4.8912 0
26 0 0
27 13.0421 0
28 0 0
29 0 0
30 0 0

AngleAngle Coeffs

1 2.0403 -1.8202 1.0827 108.4 110.77 111
2 1.0827 -1.8202 2.0403 110.77 108.4 111
3 0.2738 -0.4825 0.2738 110.77 110.77 107.66
4 0.2738 -0.4825 0.2738 110.77 110.77 107.66
5 2.4286 0.5381 -2.5301 110.77 111.91 110.62
6 0.1689 2.5926 3.9177 111.27 110.77 108.728
7 0.2738 -0.4825 0.2738 110.77 110.77 107.66
8 3.9177 2.5926 0.1689 110.77 111.27 108.728
9 3.9177 2.5926 0.1689 110.77 111.27 108.728
10 0.1689 2.5926 3.9177 111.27 110.77 108.728
11 0.1689 2.5926 3.9177 111.27 110.77 108.728
12 0 0 0 111 111 111
13 2.3794 3.0118 2.3794 111 111 107.66
14 -0.3157 -0.3157 -0.3157 107.66 107.66 107.66
15 2.4321 2.4321 -3.5496 107.66 110.62 110.62
16 2.4259 2.4259 2.1283 107.66 108.728 108.728
17 2.4259 2.4259 2.1283 107.66 108.728 108.728
18 -1.3199 -1.3199 0.1184 112.67 110.77 110.77
19 -0.833 -0.833 -3.5744 112.67 111.27 111.27
20 0.1689 2.5926 3.9177 111.27 110.77 108.728
21 -1.3199 -1.3199 0.1184 112.67 110.77 110.77
22 -0.833 -0.833 -3.5744 112.67 111.27 111.27
23 0.1689 2.5926 3.9177 111.27 110.77 108.728
24 0 0 0 120.05 120.05 118.9
25 0 0 0 118.9 117.94 117.94
26 0 0 0 118.9 120 120
27 0 0 0 118.9 123.42 123.42
28 0 0 0 112.444 109 109
29 0 0 0 110.954 109 110
30 0 0 0 110 110 107.067

Atoms # full

283 1 4 0 3.8514466900866386 9.186684776749347 4.045522101644133 0 0 0
278 1 4 0 4.498030911067941 8.103088817401392 6.108844135530327 0 0 0
277 1 4 -0.1268 2.2151841715825373 8.605356514484134 5.788995218242976 0 0 0
280 1 4 0 2.541056145521444 9.170488951041252 4.566838536454294 0 0 0
276 1 4 0 3.1763660736315362 8.012486352797808 6.60706484988671 0 0 0
45 1 5 0.1268 5.239197655632856 5.884912435982669 3.821141671778033 0 0 0
274 1 1 -0.106 2.804366957412075 7.299125458896897 7.854453918756292 0 0 0
50 1 5 0.1268 6.1589673363508 3.578712117330169 4.376053918582281 0 0 0
116 1 8 -0.4974 5.540788696279027 7.431033506606728 6.775488872586763 0 0 0
114 1 6 0.2487 5.231346400700114 6.6509011942497445 7.343866861004365 0 0 0
49 1 4 -0.1268 6.3915109687613905 4.1403842131651425 3.4583112474931306 0 0 0
117 1 5 0.053 3.3187250212227317 6.35338888607166 7.9392369747039835 0 0 0
15 1 4 0 9.358090202747594 2.4188194717502958 3.5383746319200795 0 0 0
281 1 4 0 4.83226630418662 8.699334092831581 4.902618456878891 0 0 0
227 1 6 0.2487 6.321015885695059 7.1114542538388825 6.2140283791671145 0 0 0
361 6 1 -0.159 6.871917015602188 3.3052936429370856 7.853359390206978 0 1 0
356 6 4 0 6.298960408580741 4.052354457991756 9.069524717101821 0 1 0
359 6 6 0.2487 7.752007939493273 6.9225499072146786 8.931660360142399 0 1 0
113 1 1 -0.159 3.079356182488039 8.02523167070896 9.179540239123307 0 0 0
357 6 8 -0.3314 7.681546880136392 5.975073269319252 8.548440449899644 0 1 0
354 6 4 0 6.819160812400577 5.276410692746739 9.457962015911248 0 1 0
447 1 1 -0.159 6.381054587985323 8.869514193646452 4.55848301224219 0 0 0
351 6 4 0 5.364792245352438 3.41398535332768 9.858125282035768 0 1 0
222 6 5 0.053 9.184211038015848 4.3780375333993025 8.259518436784044 -1 0 0
223 6 1 -0.0233 9.13923118564474 5.431609967433847 8.680620632246299 -1 0 0
47 1 4 -0.1268 5.939584698064045 5.390819499816088 3.1151678153345896 0 0 0
360 6 5 0.053 7.419617139116307 4.0318931815743895 7.210818341304845 0 1 0
363 6 5 0.053 7.72269311758855 2.52875630614012 7.997952997453905 0 1 0
362 6 5 0.053 6.098669296305786 2.9680580217695027 7.15737485024139 0 1 0
428 6 5 0.053 9.193157612451184 6.47336820726659 6.348932779198863 -1 0 0
56 1 1 -0.106 8.000400000354349 2.1790460387685124 2.90148818142313 0 0 0
448 1 5 0.053 6.974209144327854 9.069835846635701 5.461369641250791 0 0 0
177 1 4 0 7.291532096922101 3.5331276992248286 2.550405531150611 0 0 0
158 1 5 0.053 2.594722192971653 7.454809852818201 10.001889259593826 0 0 0
270 7 5 0.053 3.247136356332863 4.87267128678648 4.515983774766455 1 1 1
17 1 4 -0.1268 9.580644810937194 2.3140629447912278 4.924502537877269 0 0 0
157 1 5 0.053 2.6270010289704455 9.064993992929736 9.158593666422561 0 0 0
115 1 5 0.053 4.179262265536975 8.016326665242914 9.390453471883585 0 0 0
40 1 5 0.053 2.6498074075662212 8.512892809266308 1.8331392182283794 0 0 0
173 6 8 -0.3314 5.0035379570661735 2.0292982800662394 9.512097699524706 0 1 0
446 1 5 0.053 6.507441752085788 9.70895154409361 3.9112970523447483 0 0 0
174 1 4 0.0265 6.32694360588909 6.067006746448145 1.936901369135529 0 0 0
73 2 7 0.4241 6.522836580121669 9.318643869560685 7.195314758992191 0 0 0
269 7 1 0.027 2.2157263544597465 5.262230626562262 4.371841902054605 1 1 1
41 1 1 -0.0233 3.422590132017633 9.31167969270954 1.5994752699212842 0 0 0
450 1 5 0.053 6.9189151556582225 8.017267206204473 4.1246730243051 0 0 0
85 1 1 -0.159 13.021389686781081 18.506174349209253 1.6452918253211362 0 0 0
224 6 5 0.053 9.337168870819475 5.342473068939023 9.756856479011828 -1 0 0
273 1 5 0.053 1.6747527256348351 7.105837481324265 7.8470361163787645 0 0 0
171 6 6 0.2487 5.5953233608937305 1.7310469325213975 8.699138650935332 0 1 0
285 1 8 -0.3314 4.203943189498835 9.785909943822004 2.752292183630393 0 0 0
286 1 6 0.2487 5.177574712222034 9.572191800535734 2.507238781872811 0 0 0
139 2 11 -0.5571 6.807328617999584 10.044826888102126 7.814973035239003 1 -1 1
271 7 5 0.053 1.8936586157926527 5.99098734946297 5.094615086751549 1 1 1
179 3 5 0.1268 9.352076411108992 7.169009495485647 2.50822609390847 0 0 0
141 2 5 0.053 6.714239691924176 10.295206062006828 10.192264857180216 1 -1 1
57 1 5 0.053 7.283373508169335 1.5495358670645487 3.481368468752133 0 0 0
459 6 5 0.053 8.059217615106366 1.9269881908077666 10.067072349223725 0 1 0
530 2 5 0.053 1.8125230633621332 2.1374392204283 8.975207049686311 1 0 1
132 1 5 0.053 8.13851972837124 1.6750933830235293 1.9686464980388416 0 0 0
346 6 5 0.053 6.849297675373836 8.043871567320743 10.383780945736337 0 1 0
18 1 5 0.1268 8.735056859790507 2.016454979667175 5.588834509032616 0 0 0
473 7 1 0.027 1.847120191226648 4.951861875705287 1.6779063175656093 1 1 1
86 4 2 0.08 2.295132536360414 13.669439153364438 1.508498042559873 0 0 1
13 1 4 -0.1268 10.469276596296028 2.9201446710130945 2.773981559283285 0 0 0
53 1 5 0.1268 10.325552791875186 3.306561687648856 1.7445608399800454 0 0 0
169 1 10 -0.1595 5.904573042438095 7.386556366178746 1.7260397059587065 0 0 0
546 2 5 0.053 4.069524540526711 1.6165659546071078 4.998188007219073 0 1 0
220 6 5 0.1268 11.506569626289531 15.208556846223862 9.549917683112266 0 0 0
180 3 4 -0.1268 10.17573989370765 7.71149351716769 2.08825240090976 0 0 0
430 6 1 0.027 10.276761130282528 6.205199189190775 6.479307808763583 -1 0 0
16 1 5 0.1268 11.08901580713903 2.377227182795295 6.528074162203222 0 0 0
282 1 1 -0.106 19.62729599426143 9.885245652595097 3.8212477166591508 -1 0 0
189 3 5 0.053 8.524318581999525 10.211022668580801 2.1169839080332524 0 0 0
378 6 5 0.053 10.45801893184316 7.059950618183427 8.48055531230507 -1 0 0
14 1 4 -0.1268 10.840041806351387 2.4625011513756614 5.516179588219952 0 0 0
472 7 3 0.08 1.490031967215124 5.316120174278906 3.12242093345653 1 1 1
379 6 2 0.08 10.437051140393296 6.129690285885969 7.982197386578634 -1 0 0
225 1 5 0.053 14.99765213046464 19.400154135692866 1.9154498792781545 0 0 0
352 6 4 -0.1268 17.817797442165272 7.3230630345981815 10.499870841543247 -1 0 0
102 3 5 0.053 16.951498797264875 4.381198915990527 2.4962807317327114 0 0 0
275 1 5 0.1268 19.489675582417618 8.708740700043421 6.1170781534909775 -1 0 0
533 2 5 0.053 1.4765746769865018 3.0067438101315513 6.661633418732852 1 0 1
420 6 5 0.1268 10.036995039872924 1.555663720593552 9.049558895941416 0 1 0
474 7 5 0.053 18.907559211346367 5.980076382530612 3.0017326419439883 0 1 1
489 1 5 0.053 18.880416226732457 8.014500574374408 2.886962163791579 -1 0 0
508 2 5 0.053 18.35822543865944 2.315313379656969 9.319641896883166 0 0 1
432 6 5 0.053 10.310649875102682 5.191118720206209 6.152239620506854 -1 0 0
380 6 10 -0.1595 11.189986515546954 7.016910338245956 5.711748264883336 -1 0 0
466 7 9 -0.266 19.47104475083721 4.256350545854187 4.0897594785208 0 1 1
126 3 5 0.1268 11.402438615846176 6.104582387674918 2.939561578007316 0 0 0
251 3 3 0.08 15.414993428634746 5.764792446864034 3.214645468577567 0 0 0
131 3 1 0.027 13.985932494432944 6.175134475166831 2.99738898044278 0 0 0
531 2 3 0.08 19.030381687208234 3.2692897197172814 7.409846118780645 0 0 1
527 2 9 -0.266 19.18456228730126 4.602327545365275 8.01293295197663 0 0 1
529 2 5 0.053 18.141047897656094 4.8870101100545185 6.227259086180788 0 0 1
507 2 5 0.053 17.032452200422334 4.333175428984397 7.629682886461526 0 0 1
528 2 1 0.027 18.0466650460124 4.340904683673795 7.152841356570415 0 0 1
373 6 5 0.053 15.206729112224398 9.146092792848599 3.3053996636609484 0 0 0
193 6 11 -0.5571 11.563100939978082 5.3057172267462 8.490587378676139 -1 0 0
355 6 7 0.4241 12.306585667255144 5.735607129676677 8.167716535841606 0 1 0
342 6 4 0 16.52425252499865 8.883299516738454 9.09975025090743 -1 0 0
11 1 4 -0.1268 11.7106691245423 3.1070784797276687 3.388997164520786 0 0 0
12 1 4 0.0265 11.943271937931792 2.777768854356931 4.681209219067528 0 0 0
336 6 5 0.053 16.755360194401877 8.830932629060332 6.899968757126208 -1 0 0
390 6 4 -0.1268 13.527158770669901 9.302600840243388 7.290064403827289 -1 0 0
384 6 4 0.0265 12.31400767812848 7.495616246208703 6.292325551441167 -1 0 0
387 6 5 0.1268 13.35685167846106 5.617684774049099 6.144571866146744 -1 0 0
388 6 4 -0.1268 13.447551621487966 6.69945663574441 6.406980020416817 -1 0 0
335 6 5 0.1268 15.409299816050304 6.493411085864985 7.020468369969368 -1 0 0
392 6 4 -0.1268 14.553641706802475 7.2123610980621224 6.940401769567016 -1 0 0
334 6 4 0 14.65505110874644 8.542613702585495 7.308268538039535 -1 0 0
386 6 4 -0.1268 12.350013614817668 8.828591196362622 6.77194257292113 -1 0 0
337 6 1 -0.106 15.99039087506864 9.18651073446815 7.680401716156498 -1 0 0
382 6 5 0.1268 11.411220100036697 9.422121192134906 6.781073768529056 -1 0 0
10 1 5 0.1268 12.517686105038276 3.331520459686384 2.7597455487642497 0 0 0
9 1 10 -0.1595 13.205044855519617 2.9488550651066703 5.209563058522345 0 0 0
5 1 5 0.053 15.698884040361769 2.432694870302364 5.450160980080864 0 0 0
6 1 5 0.053 13.565562887652662 2.590521527229857 7.21987021855996 0 0 0
348 6 4 -0.1268 17.105803428605924 7.629174779748261 9.351645499600886 -1 0 0
284 6 5 0.1268 17.011229438171483 6.811088054924904 8.588652818651457 -1 0 0
125 3 9 -0.266 15.767466390448861 4.800197111785037 4.248307240161746 0 0 0
106 1 5 0.053 17.351274629202507 1.9884408087167564 4.244417374813779 0 0 1
287 1 1 -0.159 18.475664755635577 8.988555813252509 3.197779306133337 -1 0 0
289 1 5 0.053 17.722047188850297 8.799608997340837 3.9729942328596066 -1 0 0
338 6 5 0.053 15.957800289649969 10.261853836654211 7.497360573049987 -1 0 0
133 3 5 0.053 13.343121925795117 5.3294539760544755 2.8634204295669097 0 0 0
134 3 5 0.053 13.502136069733837 6.793345834450764 3.7527674912166926 0 0 0
248 3 5 0.053 16.11639612529601 6.618334372590619 3.184928014694841 0 0 0
343 6 4 -0.1268 16.484390122197787 9.750664505882918 10.209624096789609 -1 0 0
250 3 1 0.027 15.91615853587887 4.46505383924811 2.8428658992799356 0 0 0
532 2 1 0.027 19.06984350485869 2.1565794786543773 8.522008316614176 0 0 1
372 6 1 0.027 15.069734800213164 10.133604889748472 3.7016678798752145 0 0 0
288 1 5 0.053 18.068261307891923 9.521034949627513 2.2879615641970577 -1 0 0
249 5 5 0.053 14.448655462458932 2.9643863969731883 10.050728709281138 -1 0 0
297 5 5 0.053 12.949361650976007 3.9261975582226887 10.231592965198923 -1 0 0
294 5 1 0.027 14.038916992527907 3.854578596322109 10.386926240699664 -1 0 0
391 6 5 0.1268 13.530215694208673 10.335511450764793 7.64236690873958 -1 0 0
375 6 5 0.053 15.934217415668714 10.395380561465782 4.420086067593653 0 0 0
366 6 5 0.053 12.934458675278924 10.080105203717501 3.545323786591421 0 0 0
339 6 5 0.1268 15.869070970978704 10.634841610459075 10.181630337724311 -1 0 0
8 1 1 0.027 13.689665724244051 2.0822221958239338 6.2294174162754885 0 0 0
291 5 9 -0.266 14.743796624236964 5.000290977683524 9.942767688962851 -1 0 0
19 1 5 0.053 19.392408649432298 1.5831576516088373 3.270965453118716 0 0 1
368 6 3 0.08 13.740376353052053 10.753989226224796 3.7748507941942173 0 0 0
104 1 5 0.053 16.94900126093728 1.5223328089610368 2.5522058822839284 0 0 1
103 3 5 0.053 15.21676383946495 3.776608070276887 2.4143163693933154 0 0 0
370 6 9 -0.266 14.73284919567608 11.095307051587996 2.7433974067039624 0 0 0
99 1 5 0.053 14.502839698439297 19.435694420378447 3.978924070047818 0 -1 0
290 6 5 0.1268 18.328571736622578 6.35304513037017 10.57573813487418 -1 0 0
324 4 5 0.1268 8.179427872022325 17.17881992131901 1.8236678437451788 0 -1 1
456 4 4 -0.1268 10.163975069749743 9.596543404572092 10.250209945206754 0 0 0
465 4 5 0.053 5.875810325152497 18.032912045099742 1.8598398391609343 0 -1 1
576 2 5 0.053 5.024087377466577 19.344089787573672 6.374970311869493 0 0 0
572 2 5 0.053 3.2368531628109083 19.120606716941808 6.1997086810069195 0 0 0
138 2 5 0.053 4.854583871783933 10.112230960147437 8.269263467436925 1 -1 1
452 4 5 0.1268 9.107181582011359 10.907080882022703 8.924837024617231 0 0 0
453 4 4 -0.1268 10.056904875587144 10.728773707348045 9.416959920936527 0 0 0
483 1 5 0.053 1.7132714142283045 10.64377849636896 3.1251212789566436 0 0 0
142 2 1 0.027 5.981677676907465 11.088475311077982 9.731777028050345 1 -1 1
559 4 11 -0.5571 1.557874700777559 14.723580241276688 2.1523764338048768 0 0 1
140 2 2 0.08 5.709701691616643 10.754686885101478 8.271932801292596 1 -1 1
545 2 1 -0.159 4.170551380304848 19.130201830983495 5.722904824690333 0 0 0
88 4 5 0.053 2.328926654551008 12.790322596713587 2.2380928764750774 0 0 1
256 6 5 0.1268 9.051005225273435 15.74596602125881 9.99272937059898 0 0 0
461 6 10 -0.1595 8.015589574739405 18.253395608402506 9.811175640939355 0 0 0
321 4 4 0 6.450597601515389 15.97546667753346 2.00000312337087 0 -1 1
462 6 4 0.0265 9.355303135320337 17.883955420851578 9.689172674260545 0 0 0
570 4 5 0.053 9.061724982524002 12.885479424659179 8.172422610518456 0 0 0
323 4 4 -0.1268 7.78318799488422 16.21582325509396 2.1819994057709566 0 -1 1
539 2 5 0.053 5.4267314507734055 17.80673022967084 4.449444730575745 0 0 0
63 2 1 -0.106 4.405126590122043 17.835972977292492 4.8972760109347515 0 0 0
98 2 5 0.053 3.568822154926559 17.65949520332788 4.172365830253096 0 0 0
464 4 6 0.2487 4.148020646676773 13.97552902672258 3.2390503740065135 0 -1 1
254 2 5 0.053 6.313680333527242 12.527955178579324 7.247436430415547 1 -1 1
258 2 5 0.053 5.159026709393641 11.680629187114885 6.433217271011683 1 -1 1
540 2 6 0.2487 6.8238736629303745 17.33182825037283 5.976239392822511 0 0 0
547 2 6 0.2487 7.168730477493192 16.75855194572854 7.468159349605265 0 0 0
151 4 5 0.053 6.767037955190936 12.195954115578811 4.704895870785183 0 -1 1
152 4 1 -0.159 6.188809882745225 12.579903088883562 3.8213000319077715 0 -1 1
156 4 6 0.2487 8.502847770398635 12.359044437119879 3.8905142886338226 0 -1 1
65 2 4 0 5.325733753483115 16.319114640339812 6.755899855256831 0 0 0
542 2 8 -0.4974 6.459996788319961 17.097487532748932 6.8818214174882675 0 0 0
46 2 5 0.053 6.162725293608139 16.0506284872044 9.479127553893045 0 0 0
64 2 4 0 4.3684281650517045 16.591769756990757 5.826189750423627 0 0 0
48 2 5 0.053 7.2140301071616975 15.103713692054805 8.39630099847932 0 0 0
67 2 4 0 5.221682170845268 15.222062765118645 7.67354714724542 0 0 0
69 2 1 -0.159 6.24213568362714 15.154370287837677 8.825433603748314 0 0 0
44 2 5 0.053 5.981206465084546 14.32143915363991 9.470932275013512 0 0 0
70 2 4 0 4.28026162989921 14.245900753929526 7.383070212773675 0 0 0
66 2 4 -0.1268 3.3849889422869888 15.661238275537723 5.623488948484729 0 0 0
72 2 8 -0.3314 4.305164975276638 12.965561475903614 8.033033916213277 0 0 0
68 2 4 0 3.3801940736507223 14.432659433262167 6.331244444053533 0 0 0
74 2 6 0.2487 3.4085433936683787 12.561158616489076 7.904084327913366 0 0 0
257 2 1 -0.0233 5.349100708167311 12.052395142955087 7.438317568017699 1 -1 1
100 2 5 0.1268 2.6302109589542457 15.825985036298873 4.766384371717936 0 0 0
150 4 5 0.053 6.335018353601027 11.85042917852539 2.994146582740084 0 -1 1
327 4 8 -0.3314 8.892311810896398 13.255052197598133 4.050711594180733 0 -1 1
322 4 4 0 6.68650285805883 13.992650796964089 3.3128229572032235 0 -1 1
320 4 4 0 5.854065203688973 14.837059465511755 2.5199688614742155 0 -1 1
325 4 4 0 8.05070475809848 14.279983920784925 3.4410560187667047 0 -1 1
317 4 8 -0.3314 4.424073169473157 14.644134991298355 2.5890292560698156 0 -1 1
154 4 5 0.053 5.163928776634876 12.533402146437863 4.109659774814745 0 -1 1
71 2 1 -0.106 2.3555556709010315 13.382620980193101 6.065062430275921 0 0 0
326 4 4 0 8.580833900493339 15.476627741282822 2.997920977169895 0 -1 1
451 4 5 0.053 7.931171960953304 13.16275561485271 6.051908587158417 0 0 0
569 4 1 -0.0233 8.880852493152243 13.434139475723331 5.518631075767333 0 0 0
567 4 5 0.053 9.036476020430502 14.53992311599904 5.620239024447204 0 0 0
568 4 2 0.08 10.00855670789703 12.671393100280914 6.160364529568706 0 0 0
101 2 5 0.053 2.692976665364772 12.265029195703663 6.237809065386215 0 0 0
571 4 1 0.027 9.9896614465196 13.130334174126974 7.633786728324546 0 0 0
564 4 11 -0.5571 9.799472760928419 11.273204492806965 6.107355871447914 0 0 0
329 4 7 0.4241 10.140991081424666 10.91869658552453 6.944550786482704 0 -1 1
75 2 5 0.053 2.0421765664157947 13.512887856110071 5.046907239403463 0 0 0
20 2 5 0.1268 2.8430790618564097 18.413941724224365 8.813945603788765 1 -1 1
245 6 5 0.053 5.021746375118289 18.371313124666884 10.429582325348031 0 0 0
328 4 1 -0.106 10.054334570494076 15.79138444474163 3.185977209267067 0 -1 1
22 2 4 -0.1268 1.9460566184512036 17.85614175096743 9.183456324877 1 -1 1
255 6 4 -0.1268 9.746604828128469 16.537236807324362 9.746862244522456 0 0 0
512 4 5 0.053 10.20961663157816 16.507132422351074 5.155437666664515 0 -1 1
566 4 5 0.053 10.106313777646015 14.208225016110799 7.576947526826005 0 0 0
506 1 5 0.053 1.7181865334914967 17.61883957806402 2.1202182979585418 1 -1 1
383 4 1 -0.159 10.191383166253106 16.889197609851028 4.122199467735667 0 -1 1
203 2 5 0.053 1.509990096891329 13.74104087667706 8.052014673380292 0 0 0
144 2 5 0.053 6.50500897684342 12.015809536296478 10.000233716586047 1 -1 1
381 4 5 0.053 9.437582033047981 17.645319935679304 4.099343809026422 0 -1 1
96 1 7 0.4241 1.5715358096294065 18.870841170421052 4.945211176213839 1 0 0
332 4 5 0.053 10.643886059352782 14.894451948469872 3.5211974480131945 0 -1 1
23 2 4 -0.1268 2.1261342824843306 16.77509374397225 10.064233913743992 1 -1 1
36 2 5 0.1268 17.1778768946856 15.813714425081429 10.548528601808362 0 -1 1
26 2 4 0.0265 18.94884327493618 18.178596715417008 8.7416194158057 0 -1 1
33 2 4 -0.1268 18.08366804189008 16.32945221833242 10.150188404847254 0 -1 1
112 1 4 0 16.448010995687678 15.98945623524852 3.5156542029182782 0 0 0
92 1 1 -0.159 17.11449967526466 15.786062500214788 4.854493026271786 0 0 0
424 6 4 0 12.055625485916492 17.21892832798701 9.11517259049338 0 0 0
219 6 1 -0.106 13.580949079839737 17.056362925136398 8.86841410316444 0 0 0
573 4 10 -0.1595 11.122648558263124 12.679058723825424 8.423534035647766 0 0 0
365 6 5 0.053 12.784355181560967 12.732899061398637 4.291446739449995 0 0 0
218 6 4 0 13.809354122242699 15.862615388020238 8.002146616224675 0 0 0
385 4 5 0.053 10.325899977894917 16.094311548448125 2.1498128845790805 0 -1 1
107 1 11 -0.5571 19.310457078213673 18.290990419699142 4.495670736041408 0 -1 1
130 3 4 0.0265 12.587427626292136 7.528144042155295 1.711440712099067 0 0 0
217 6 4 -0.1268 11.111092223325054 16.22597197154392 9.49458087702355 0 0 0
279 1 5 0.053 19.10258497297265 10.526101998955875 4.608671896860532 -1 0 0
376 6 5 0.1268 12.745113209002263 14.696430724909343 4.976352400975575 0 0 0
267 1 4 0 15.485115249341234 14.985199110309912 1.5448415677916458 0 0 0
153 1 6 0.2487 16.61680055324444 12.818206791210017 2.7226312633921017 0 0 0
3 1 1 -0.0233 15.104284816223295 18.964279825279505 4.776022191734123 0 -1 0
425 6 4 -0.1268 13.25508592094592 15.800496668710824 6.697718119680522 0 0 0
108 1 2 0.08 18.76537914482539 18.973681605627462 3.4096453012506958 0 -1 1
188 6 4 -0.1268 14.597163032310942 13.608839636258931 7.669899653650227 0 0 0
109 1 4 0 16.223618098665405 14.901815870742642 2.7155909081314995 0 0 0
374 6 4 -0.1268 13.26499582039756 14.664712150623568 5.967520656856925 0 0 0
37 1 6 0.2487 17.062551684224957 13.581812768127252 4.116772964564068 0 0 0
574 4 5 0.1268 13.178705677830452 12.014736102980436 9.90039194295424 0 0 0
95 1 8 -0.1654 16.344931709161713 18.453580910991583 4.106933121953319 0 0 0
110 1 5 0.053 12.71517044627755 18.28992658515415 2.721601652511823 0 0 0
426 6 5 0.1268 12.539019160570424 16.627121398956195 6.337537863824915 0 0 0
216 6 4 -0.1268 14.529558428513129 14.729255999854939 8.47853239583478 0 0 0
421 6 4 -0.1268 10.31261390527266 18.807400656166912 9.27867155403667 0 0 0
318 4 7 0.4241 19.03399575040951 14.41744342331851 2.5122988627519653 -1 -1 1
1 1 11 -0.5571 15.638695042984997 19.366421837521663 7.109994134936791 0 -1 0
427 6 5 0.053 13.980020754223021 16.96302213864559 9.889634733375134 0 0 0
4 1 2 0.08 15.117932095784807 1.674154302466837 5.8739219362215325 0 0 0
105 1 1 -0.0233 17.31420546717751 19.43262084961328 3.588859499220628 0 -1 1
32 2 4 -0.1268 17.922039949027585 17.35278610147315 9.181425116683261 0 -1 1
111 1 4 0 15.23920378038141 17.384892767789992 1.9661268284553972 0 0 0
575 4 4 0.0265 11.09095372478287 11.626126695614703 9.28927732979295 0 0 0
7 1 5 0.053 13.089194786458009 19.394166773623617 6.222591255800831 0 -1 0
422 6 5 0.1268 12.33277954370139 19.28730165948818 8.73244257569802 0 0 0
205 2 5 0.053 19.052888067821165 14.617743824545386 6.683806207885663 -1 0 0
577 4 4 -0.1268 12.275743639084798 11.330027894035679 10.057800280538245 0 0 0
367 6 1 0.027 13.241152873676025 11.895159136119677 4.774788966663492 0 0 0
204 2 1 -0.159 19.461945482357393 13.666215034012074 6.995058081853052 -1 0 0
565 4 5 0.053 11.012842518572342 12.932333740095416 5.721777461156915 0 0 0
364 6 5 0.053 12.3560718500643 11.341609369021626 5.3005827272926895 0 0 0
38 1 5 0.053 17.12505187244397 16.67059221329972 5.429820103017709 0 0 0
2 1 5 0.053 14.499971565623142 18.061846021763863 5.12425205382041 0 -1 0
582 1 5 0.053 18.41509698497677 17.133603351933147 2.2770306117659036 0 -1 1
93 1 5 0.053 18.160817937824127 15.413934446218702 4.704574185715858 0 0 0
423 6 4 -0.1268 11.617798639124635 18.517350091108348 9.12084698536879 0 0 0
534 2 10 -0.1595 18.742904977490653 19.239790315762285 7.892111521735519 0 -1 1
91 1 4 0 16.03033889772322 17.337530628806547 3.1775884516540964 0 0 0
369 6 10 -0.1595 14.253760598900847 12.376526896694875 5.69226046415052 0 0 0
221 6 5 0.053 13.980830895871508 17.957807666644143 8.335210867184218 0 0 0
371 6 4 0.0265 13.998712168225397 13.53619053474349 6.430193087659109 0 0 0
94 1 5 0.053 16.613166879225346 14.996280431787294 5.476400027716945 0 0 0
155 1 8 -0.4974 16.925021138081817 13.674296597494132 3.106215745627239 0 0 0
97 1 7 0.4241 16.513050188233755 18.980288759623072 6.902328646331662 0 0 0
184 6 5 0.1268 15.328758516044827 12.829127264564313 8.046629708568211 0 0 0
535 2 5 0.1268 16.93932332316667 17.402246636097733 8.653045116364396 0 -1 1
389 4 5 0.053 11.144215905283973 17.50428847374527 3.988957343733938 0 -1 1
504 1 1 0.027 19.025204296147542 18.05157624294514 2.137586845838025 0 -1 1
215 6 5 0.1268 14.873519585974899 14.630905432980382 9.568830284149376 0 0 0
202 2 5 0.053 18.723188542489133 12.828465986873232 6.946171287170435 -1 0 0
145 2 5 0.1268 2.1808437496135067 10.806245953645883 10.487868608961275 1 -1 1
128 3 4 -0.1268 11.410096829015755 7.05170912715154 2.3330760969326425 0 0 0
457 4 5 0.1268 9.232260631123827 9.039360611962934 10.422092710453454 0 0 0
316 4 5 0.053 4.534322260679822 17.047926998600428 1.5618990987887507 0 -1 1
129 3 10 -0.1595 13.82770737839687 6.967276248473223 1.7913804157270745 0 0 0
21 2 5 0.1268 3.143930244075463 16.643928792590156 10.331195208094293 1 -1 1
467 7 10 -0.1595 2.826821974568814 3.9584934266857674 1.493960763454794 1 1 1
143 2 10 -0.1595 4.7350368316213185 10.903039638210632 10.496763721770689 1 -1 1
584 7 5 0.1268 4.747934751884774 5.12039773478776 15.663354760601983 1 1 0
470 7 4 -0.1268 3.6459063815953185 4.635881822727823 17.547412310723026 1 1 0
585 7 4 -0.1268 4.676269615235816 4.455533951249139 16.557747875279183 1 1 0
516 7 4 0 5.583843718528213 3.381771852002674 16.55854449701383 1 1 0
468 7 5 0.1268 3.1143293601233544 5.580130601323739 17.493563911789828 1 1 0
562 7 5 0.1268 8.045620907787988 5.485859606551604 15.580183125347403 1 1 0
469 7 4 0.0265 3.6289379489157456 3.7748729011318147 18.677854672242567 1 1 0
331 7 4 -0.1268 4.574342051526336 2.759799982608793 18.680398061461688 1 1 0
477 7 4 -0.1268 8.712110391167524 4.708307616225591 16.033982682155667 1 1 0
475 7 4 0 8.027619290781352 3.4716948248280795 15.997768227887724 1 1 0
513 7 5 0.053 6.451912435715631 4.002349681089369 14.709807827986332 1 1 0
515 7 1 -0.106 6.6432540595561695 3.229819121365117 15.445204674084637 1 1 0
333 7 4 -0.1268 5.417740156500591 2.480982888877143 17.600656067251535 1 1 0
192 3 5 0.1268 9.035137317450426 8.543282400073924 17.035958148455915 0 0 -1
341 6 5 0.1268 5.078128346703108 5.8123564179908245 12.284457680846824 0 1 0
478 7 4 -0.1268 8.669274661963243 2.424678776089296 16.649254474509263 1 1 0
401 6 5 0.053 6.88732601382131 8.779361398495507 12.733927332581755 0 1 0
166 6 5 0.053 3.9108402133611513 3.276988931798509 12.675934148151343 0 1 0
170 1 5 0.053 3.5718277867977752 8.729570095020945 17.98911052449133 0 0 -1
172 1 5 0.053 4.393693459918881 6.88336438415694 18.846838787191196 0 0 -1
514 7 5 0.053 6.624846450337546 2.232725850900896 15.048037942936366 1 1 0
175 6 7 0.4241 6.762447704530927 3.0532929334195593 11.740622408243345 0 1 0
403 6 1 -0.159 6.342271865193311 7.875592665954559 12.444334355869707 0 1 0
407 6 5 0.053 5.2944080115172225 8.14864110066237 12.268678519692932 0 1 0
120 1 5 0.1268 7.608616404460222 6.14548400053397 18.582976529697945 0 0 -1
43 1 2 0.08 4.316326282716133 8.949549283839891 18.768740629962764 0 0 -1
521 6 3 0.08 2.345583468374905 8.664138367502371 14.035082793076617 0 0 0
399 6 5 0.053 6.416137368579403 7.12925352991713 13.306106012450929 0 1 0
525 6 5 0.053 3.3308379022938923 8.932334190787483 13.61773848053517 0 0 0
480 7 4 -0.1268 9.88079254821761 2.5451042807250364 17.31325336986096 1 1 0
479 7 4 -0.1268 9.851762627693725 4.926670277646601 16.71613136542882 1 1 0
272 7 5 0.1268 5.980802156829045 1.6212287004489885 17.583061287630876 1 1 0
165 6 1 -0.106 3.658690249570142 3.630213479916171 11.678376324118965 0 1 0
243 6 11 -0.5571 6.697573349022987 2.285024380348382 12.305367689473659 0 1 0
526 6 5 0.053 3.397179250851442 7.347855979845327 15.329594714495634 0 0 0
519 6 9 -0.266 2.0113876561479387 8.953968054703646 15.409438245574055 0 0 0
315 1 5 0.053 9.589735778318005 2.8462871507156686 12.775205671214481 0 0 0
168 1 1 0.027 5.145649336537982 7.626338635730573 18.916536019505152 0 0 -1
344 6 4 -0.1268 5.365788227391956 5.326327309742718 11.338782941210917 0 1 0
167 1 5 0.053 5.65382707271729 7.363283325691766 17.868677343406112 0 0 -1
523 6 1 0.027 2.420661434299564 7.611875585724056 15.051435446391828 0 0 0
127 1 5 0.1268 8.481958640883668 3.6921027995658 19.081360394966644 0 0 -1
476 7 5 0.1268 8.150969235264299 19.71255506505538 16.41690262031671 1 0 0
314 1 5 0.053 9.781327624489563 5.545490585266654 13.290390678158658 0 0 0
563 7 5 0.1268 10.175066922585334 5.87181540645131 17.02667409617089 1 1 0
226 5 5 0.053 3.742830511714272 2.2326857222447205 14.928706736111764 0 0 0
233 5 4 0 1.6554238676359794 1.9905714262982959 14.239787668242057 0 0 0
160 6 5 0.053 2.868786581656261 5.646565086644868 12.507122341314531 0 1 0
190 3 4 -0.1268 8.85026771090665 9.601158088262373 16.987319320417402 0 0 -1
61 3 5 0.1268 8.833466678280661 9.659218102299958 14.883962625642605 0 0 -1
228 5 5 0.053 2.4864677974649574 1.7992584460339558 16.196898400092678 0 0 0
159 6 5 0.053 1.6583033250717534 4.312532022251708 12.068734331430745 0 1 0
311 1 1 0.027 10.616039530003873 4.8964266027800605 13.325829031461433 0 0 0
330 7 5 0.1268 4.634923690485005 2.1539533677982288 19.559937986451274 1 1 0
162 6 1 -0.159 2.60981565875857 4.82071611888122 11.8285312666178 0 1 0
518 6 5 0.053 1.795453924066249 9.10959557441118 12.001046507071546 0 0 0
313 1 9 -0.266 11.086470425920846 4.441285593792141 12.05962426790807 0 0 0
229 5 1 -0.106 2.8644488860053356 1.5955754273117981 15.158365554154816 0 0 0
522 6 5 0.053 1.5912976734168869 6.91751646990836 15.30366992941389 0 0 0
471 7 5 0.053 2.0830719452890682 5.92011900322721 19.469578112197667 1 1 0
312 1 3 0.08 10.549742456009826 3.4408067028407388 12.99327163621312 0 0 0
347 6 4 0 4.790645598749201 4.146854144522523 10.886206432949491 0 1 0
449 1 7 0.4241 4.784759540614267 10.37652841485392 17.541043359487873 0 0 -1
39 1 11 -0.5571 5.194825087729037 9.952537265507354 18.314148136421345 0 0 -1
244 6 1 -0.0233 5.272927936191711 19.496979787488996 10.661213376834947 0 0 0
395 4 5 0.1268 12.082129918289391 14.241032725553707 15.661984280258409 -1 0 0
164 6 5 0.053 3.148423329154272 2.768454450179381 11.177054218482082 0 1 0
345 6 1 -0.106 7.031057445513092 7.240427816502976 11.11981134046301 0 1 0
176 1 4 -0.1268 7.336009247570878 5.510174085945521 19.449778800591922 0 0 -1
340 6 5 0.053 8.093542692454545 7.247754727212184 11.174630248991118 0 1 0
124 1 4 -0.1268 7.736370802293746 4.22980568915586 19.692783181323506 0 0 -1
185 3 4 0 10.1285887328944 8.908882801455613 19.64737692695973 0 0 -1
261 1 5 0.053 15.769673515990755 13.010589067761115 19.344961497249344 0 0 -1
303 1 5 0.1268 16.175978573071607 18.02257009957021 11.843085175538542 0 -1 0
187 3 1 -0.106 8.771269214129479 9.618411900360982 19.487498454597883 0 0 -1
460 4 5 0.053 10.348930401097162 7.900544189062101 12.449462252507397 0 0 0
236 5 5 0.1268 19.611059974532388 3.7771884234171886 15.34280505342715 -1 0 0
520 6 1 0.027 19.534604907630218 8.96482539283736 12.946391205482666 -1 0 0
481 7 5 0.1268 10.347970788251542 1.7266085389714037 17.846079881407185 1 1 0
482 7 4 0.0265 10.482980850259388 3.834948918331319 17.352052011093466 1 1 0
549 4 5 0.053 11.53917506003061 7.19161176306437 11.477697670451116 0 0 0
135 3 4 -0.1268 12.54092131268875 8.802128115109351 19.34230177712037 0 0 -1
137 3 5 0.1268 13.448883255580405 9.259935624096634 18.86873310749605 0 0 -1
235 5 4 -0.1268 19.31609448519925 3.1916578027233165 14.487963261784857 -1 0 0
524 6 5 0.053 19.108470304686918 9.988237486490922 13.048188489519676 -1 0 0
350 6 4 -0.1268 17.091678968015714 9.382130917552823 11.39876457207739 -1 0 0
443 7 5 0.053 19.218483275536443 4.571855054219876 19.643950490689456 0 1 0
308 1 5 0.053 11.340953899515457 5.336711139151225 14.027427464308873 0 0 0
353 6 4 0.0265 17.863594447152103 8.195596943760787 11.5222046221034 -1 0 0
581 4 1 -0.106 11.32270519844497 8.104126485173143 12.019227098936923 0 0 0
123 5 3 0.08 14.57852464717235 4.761124894720931 11.346284393231793 -1 0 0
454 4 5 0.1268 11.104643699506534 9.031421625570012 14.517878927459504 0 0 0
310 1 1 0.027 11.730853215137142 2.6336817765675002 13.495159027669985 0 0 0
358 6 10 -0.1595 18.57524923232757 7.9676025631352765 12.638510783396258 -1 0 0
207 4 5 0.053 16.26240417343259 6.4095732073285205 18.561976458285592 0 0 0
214 4 5 0.053 18.262737800890484 8.458846159760764 17.179761559987185 0 0 0
210 4 1 0.027 17.30418540556362 6.782835311823419 18.40804585713761 0 0 0
484 7 10 -0.1595 11.670874724501127 3.9420383021125924 18.036845666242662 1 1 0
241 5 10 -0.1595 16.55019213242222 3.2100950000568353 12.08529127321042 -1 0 0
239 5 4 -0.1268 18.1733634794428 3.6448320002930177 13.831956007667543 -1 0 0
493 7 5 0.053 14.886057744567719 4.399744462703089 15.514320362412766 1 1 0
492 7 1 0.027 15.021483732071253 3.6854621480413656 16.36767206626497 1 1 0
208 4 1 0.027 16.61505956148188 7.498134642163936 15.92535077530427 0 0 0
487 7 1 0.027 12.715416861830297 4.509333452393776 17.306287278028194 1 1 0
419 4 5 0.1268 13.954839395124115 7.46621199932509 11.779986031828301 0 0 0
418 4 4 -0.1268 13.675428704871551 7.651462499234336 12.849972563597925 0 0 0
414 4 4 0.0265 14.426923025406749 8.159614486043019 15.0614419890133 0 0 0
417 4 4 0 12.4002450232518 8.144157513221973 13.085680007731607 0 0 0
416 4 5 0.1268 15.62457319629403 7.237626973357002 13.456768060231177 0 0 0
415 4 4 -0.1268 14.643331633188044 7.629133652867125 13.818003188152495 0 0 0
413 4 10 -0.1595 15.310454494361055 8.174533104406187 16.079645221924977 0 0 0
455 4 4 -0.1268 12.085270835436228 8.59900526359933 14.36710575435254 0 0 0
412 4 4 -0.1268 13.099130151588012 8.564547956686148 15.316353123135002 0 0 0
411 4 5 0.1268 12.86804012246883 8.937154630959753 16.27489552306917 0 0 0
206 4 5 0.053 16.390325070169492 6.431124057458761 15.637506934333205 0 0 0
490 7 3 0.08 13.872252551918619 3.5133589725347365 17.299748386883174 1 1 0
211 4 3 0.08 17.491565895731476 7.58377688292757 17.161535615299215 0 0 0
209 4 5 0.053 17.0563835114734 8.01025828890208 15.002111376162855 0 0 0
486 7 9 -0.266 15.067828556294053 4.238849214675308 17.648184441111916 1 1 0
240 5 5 0.1268 17.752681038851165 4.60432334608164 14.125555725870067 -1 0 0
485 7 5 0.053 12.450300141033807 4.925424988809125 16.271601508874674 1 1 0
488 7 5 0.053 13.70162598726473 2.6054655342066053 17.832402514713067 1 1 0
121 5 1 0.027 15.7554642343588 4.44418619628188 12.300104520229665 -1 0 0
491 7 5 0.053 13.067414312379945 5.460568900636295 17.827713780442956 1 1 0
213 4 9 -0.266 18.094198147142393 6.290577180092675 17.303118490050842 0 0 0
494 7 5 0.053 15.648460407291495 2.819749908191551 16.23468029056277 1 1 0
212 4 5 0.053 17.791311745682123 7.158701239481408 19.28377905664493 0 0 0
292 5 5 0.053 13.856122912691127 5.4734329178958525 11.724881446321076 -1 0 0
496 1 5 0.1268 17.917166655103728 1.9000730564538602 17.194008057503293 0 0 0
122 5 5 0.053 15.27709403600192 4.392206652947047 13.305332237093644 -1 0 0
119 5 5 0.053 16.43460336406622 5.338906622806777 12.412925629404999 -1 0 0
238 5 4 0.0265 17.664347193761692 2.8559009955500345 12.79462689234118 -1 0 0
580 4 4 0 11.23205103116456 9.364261798616408 11.111569791765538 0 0 0
377 1 5 0.053 12.611059497623536 3.3367630814036895 13.542295263519204 0 0 0
309 1 5 0.053 11.640203598743348 2.330481117079213 14.588311554016466 0 0 0
517 6 5 0.1268 17.096958321133393 10.17955314263929 12.238627563793852 -1 0 0
234 5 4 -0.1268 18.37795108901365 1.6718027506381405 12.462233668768627 -1 0 0
136 3 4 -0.1268 11.35597979295222 9.436252302575701 19.22347336732792 0 0 -1
87 1 5 0.053 12.469112793368907 19.406200982421737 19.604937606321123 0 0 -1
306 1 10 -0.1595 12.190687247359907 1.583354744061036 12.648945604498527 0 0 0
550 4 5 0.1268 15.240813824148232 10.672833597317833 16.213569118867706 -1 0 0
259 1 5 0.053 13.085820866703928 14.335187051806136 18.423203780034548 0 0 -1
441 4 5 0.1268 13.631783546723222 12.440205287744844 15.610387398185777 -1 0 0
301 1 4 -0.1268 13.404898019327247 18.601048892251157 14.424753208947484 0 -1 0
252 6 1 0.027 7.932626954399529 19.346691129572882 10.657283973289706 0 0 0
148 2 4 -0.1268 2.613236813571403 11.78923327742043 10.79692522715973 1 -1 1
253 6 5 0.053 8.775207347292383 19.41188222773144 11.431275300634809 0 0 0
242 6 5 0.053 4.546342765243875 19.656796586616622 11.48549394260713 0 0 0
146 2 4 0.0265 3.9703311375504766 11.968940681419296 10.848584858153664 1 -1 1
541 5 5 0.053 5.051640836951035 10.53432693261907 13.14256611670341 0 -1 0
438 4 4 -0.1268 13.604676314942507 14.88145216207265 12.621380286799305 -1 0 0
543 5 9 -0.266 4.726134171153055 11.30332008200076 15.183515082941272 0 -1 0
538 5 5 0.053 2.8778389868179324 11.61471415781592 14.064470531501579 0 -1 0
247 6 2 0.08 6.5985989071907 19.478117536262566 11.42150352746287 0 0 0
186 3 4 0 8.648951074478852 10.365736064641167 18.190827348467714 0 0 -1
544 5 1 0.027 5.095939021961439 11.405658264931368 13.822731735591447 0 -1 0
319 4 1 -0.106 5.645940322787069 17.00179850496101 19.639665204582712 0 -1 0
60 3 4 -0.1268 8.83016364227512 10.269044536318482 15.79228229797258 0 0 -1
52 3 5 0.053 8.696723187838057 11.015596631731306 12.99166407251456 0 0 -1
548 5 5 0.053 5.902770866777486 12.019163522382243 13.488856795866072 0 -1 0
80 3 5 0.053 9.442156695933567 15.182076619343231 12.119612058233873 0 0 -1
405 5 3 0.08 3.866933381939484 12.002680288825545 14.288564903675315 0 -1 0
54 3 5 0.053 10.189046712228512 11.330265445897114 13.785043407279352 0 0 -1
552 4 5 0.053 3.651693226398877 15.24605234835645 18.99233716682209 0 0 0
147 2 5 0.1268 5.567808570872533 13.319508437814449 11.443243807594246 1 -1 1
444 5 5 0.1268 4.910067281654019 18.93473945149205 13.705664980638323 0 -1 0
55 3 1 0.027 9.301185822512535 11.82260665516702 13.425093036634047 0 0 -1
246 6 5 0.053 6.525015257209955 18.635945387116813 12.059004715091756 0 0 0
231 5 4 0 3.3431248705499987 18.487960378054815 15.098978386008639 0 -1 0
58 3 4 0.0265 8.514797550335718 11.604877978177665 15.719476906401884 0 0 -1
79 3 3 0.08 9.589500487044356 12.989172877849334 12.433658784537824 0 0 -1
59 3 10 -0.1595 8.462104209108666 12.292943153239724 14.524436228420877 0 0 -1
77 3 9 -0.266 8.4338523810651 13.455330438037455 11.580167865904738 0 0 -1
182 3 4 -0.1268 8.356236474881015 11.736349316727965 18.15922965617625 0 0 -1
181 3 4 -0.1268 8.260296432645518 12.328694705803105 16.890416458144063 0 0 -1
445 5 4 -0.1268 4.533486198224124 18.16868433452988 14.449840325749374 0 -1 0
78 3 1 0.027 8.97832443598704 14.331494123301457 12.528745050198538 0 0 -1
404 5 4 -0.1268 3.1734505985429324 16.07185664806797 15.621985747582833 0 -1 0
583 4 5 0.053 5.760551637585892 16.168361802035115 17.750070430787986 0 -1 0
406 5 1 0.027 3.6264099619142485 13.437291530186899 14.748690802653899 0 -1 0
402 5 10 -0.1595 4.7829467500368885 14.451304408175792 14.740919824238235 0 -1 0
510 4 1 -0.159 5.92706954140046 17.167408601704018 18.145859409063313 0 -1 0
511 4 5 0.053 5.251905498119504 17.842131014371347 17.54439988323383 0 -1 0
408 5 5 0.053 2.8252615672587336 13.835516080245519 14.093100704674098 0 -1 0
400 5 4 0.0265 4.350110245510119 15.784289453423074 14.873061701714649 0 -1 0
509 4 5 0.053 7.0205105602788676 17.570529922324006 17.868000178622772 0 -1 0
410 5 5 0.053 3.360876540678041 13.310598195631075 15.779545481955862 0 -1 0
537 4 5 0.053 2.4895177112006026 12.45183693386148 17.970859332775753 0 0 0
397 5 4 -0.1268 5.010330822129848 16.86038368998745 14.342735864160916 0 -1 0
396 5 5 0.1268 5.940936813492279 16.766222492065175 13.800716910625608 0 -1 0
198 4 5 0.053 8.04294248259345 18.729107578094073 14.173951410815517 -1 0 0
196 4 1 0.027 8.734209489259694 18.032255840168567 14.721465802336565 -1 0 0
201 5 4 -0.1268 2.7433396995320143 17.39228891541555 15.750265937729566 0 -1 0
409 5 5 0.1268 2.782564028290132 15.283860103708962 16.213326263249357 0 -1 0
76 3 5 0.053 8.199708340744301 14.729536352573716 13.296914632082682 0 0 -1
27 2 5 0.1268 3.867237408891171 15.191336140916379 12.131755670729055 1 -1 1
25 2 4 -0.1268 3.5406801249511397 14.257295508222409 11.58689096510225 1 -1 1
199 4 9 -0.266 10.000862240053022 18.548170677246553 14.970999237160202 -1 0 0
51 3 5 0.1268 8.075588865817698 13.405578278545875 16.893423637540668 0 0 -1
561 4 1 0.027 1.7491531985724662 13.096340553653128 18.50677653415285 0 0 0
237 5 5 0.1268 1.9332935760809302 17.55101695621036 16.402672617763976 0 -1 0
197 4 3 0.08 9.989475033054353 17.507642416095912 14.034235300453489 -1 0 0
194 4 5 0.053 8.178867182655146 17.584957255342047 15.5641467421455 -1 0 0
149 2 4 -0.1268 4.435028089760793 13.236726380056256 11.293637422828972 1 -1 1
82 4 5 0.053 4.363813326783508 13.62942093891769 18.935450407650812 0 0 0
178 3 5 0.1268 8.19614391823999 12.316386721376995 19.050646595748574 0 0 -1
230 5 5 0.1268 1.7103471634738199 18.598280491772222 12.874348698366704 0 -1 0
398 4 5 0.053 10.20456085504889 15.334099163304622 14.606235304552646 -1 0 0
81 3 5 0.053 10.461349068878867 12.91710301624428 11.732189908590298 0 0 -1
29 2 4 0 2.1409591682398355 14.068683754201011 11.498332055687662 1 -1 1
200 4 5 0.053 10.18695191889227 17.901623463303885 13.008271767435431 -1 0 0
195 4 1 0.027 10.785722581636929 16.24298140768957 14.452773355860183 -1 0 0
458 1 5 0.053 17.550052905253267 16.857641988873908 13.687674223411598 0 -1 0
84 4 1 -0.0233 3.7351894025492802 14.24514079266475 19.620766659763163 0 0 0
435 4 4 -0.1268 14.494201012276273 13.839915853887163 12.64109995874724 -1 0 0
161 6 5 0.053 2.4674040972532794 5.27623479897761 10.837591145606407 0 1 0
555 4 4 0 16.460259720949825 11.838485189022675 14.879252731051704 -1 0 0
501 1 10 -0.1595 18.62424382648922 18.81348404409286 19.29694343537635 0 -1 0
28 2 5 0.1268 18.94935365757369 12.52984735606212 10.864771760785471 0 -1 1
500 1 4 0.0265 18.20346665725716 18.21139759739267 18.14340467705717 0 -1 0
557 4 4 -0.1268 17.70254354096069 12.42245393435485 14.84975462288531 -1 0 0
578 4 4 -0.1268 12.264870821316968 10.228699256424918 10.911741515147654 0 0 0
579 4 5 0.1268 13.181902143845534 10.188913765785387 11.501912547154635 0 0 0
442 4 4 0.0265 12.658049634625707 15.07246655184189 13.68011329182617 -1 0 0
90 4 5 0.053 1.7422206069382806 14.001733737550015 17.854027373233563 0 0 0
232 5 4 -0.1268 19.444669284282696 19.48637456438204 13.25740741161575 -1 -1 0
503 1 4 -0.1268 18.063979488734887 16.82068589573204 17.941302944071793 0 -1 0
24 2 4 -0.1268 1.7082827984235398 12.804308129550241 11.074745971437105 1 -1 1
262 1 1 -0.106 15.22254185376817 13.828187558855076 18.90014921108329 0 0 -1
34 2 5 0.053 1.5859701995585025 15.717528402267872 12.669515354543643 1 -1 1
30 2 4 0 19.356778188972072 16.119712797887495 10.671984679153875 0 -1 1
429 4 5 0.053 14.831990191461934 10.81226071511516 13.953237720329383 -1 0 0
551 4 5 0.1268 16.533017069400906 10.833077167863248 18.10895349399585 -1 0 0
436 4 4 0 14.42796543996777 12.943209721572055 13.721996332654996 -1 0 0
536 4 5 0.1268 19.511293674976287 13.103655121085234 15.823892540055153 -1 0 0
265 1 5 0.053 13.525953338427554 12.652816018010649 17.934709681005096 0 0 -1
553 4 4 -0.1268 16.1271283522174 11.287715498958066 16.07910038392383 -1 0 0
266 1 5 0.1268 14.737429160556756 16.325782257940936 18.411444682547533 0 0 -1
302 1 4 -0.1268 15.41777974595894 18.109021723647444 12.647547580885417 0 -1 0
305 1 4 -0.1268 14.307020520631706 18.86715006662515 12.240171863315448 0 -1 0
299 1 4 0 15.462042956622122 17.451032477847704 13.859516972187997 0 -1 0
439 4 4 -0.1268 13.591908022422983 13.174359262961163 14.820316536766162 -1 0 0
497 1 4 -0.1268 17.24983936528841 18.57567535639088 15.919730492961234 0 -1 0
560 4 4 -0.1268 18.489476650509744 12.622543796696979 15.963637732597258 -1 0 0
31 2 1 -0.106 19.500884437608306 15.16715959069064 11.821173998344827 0 -1 1
298 1 4 -0.1268 14.426397458372442 17.748871062174175 14.746757412619843 0 -1 0
502 1 4 -0.1268 17.57686904581258 16.422643512407937 16.6913366663073 0 -1 0
268 1 4 -0.1268 15.12614563007057 16.261835182477885 19.46140356023215 0 0 -1
304 1 4 0.0265 13.290679652098772 19.179442006945756 13.170111074408368 0 -1 0
463 1 5 0.1268 17.508536584546768 15.359673221319161 16.537745002296816 0 -1 0
498 1 4 -0.1268 17.830075914560204 19.079329177050283 17.049465642933654 0 -1 0
293 1 5 0.053 16.50031492914995 15.592284386430912 14.485006585149943 0 -1 0
89 1 1 -0.106 14.542115211396366 18.628379308708794 19.698330235996266 0 0 -1
300 1 5 0.1268 12.635900812097946 18.840444331001244 15.17782516280604 0 -1 0
263 1 1 -0.159 13.719550215283402 13.4679050479479 18.695178888137846 0 0 -1
163 4 5 0.053 11.260790085397156 16.42166794461695 15.531303249367756 -1 0 0
431 4 5 0.053 15.895304516589176 11.585895468377972 12.741463000843199 -1 0 0
260 1 5 0.053 15.730122929078425 14.032533226474694 17.94042288741526 0 0 -1
440 4 5 0.1268 18.06548684191774 12.77269149579334 13.861841380976548 -1 0 0
495 1 5 0.1268 17.070658931446403 19.29415648427512 15.130091797048678 0 -1 0
35 2 5 0.053 18.50041257205295 14.737960092986366 11.982936271707452 0 -1 1
499 1 4 0 17.208889467214355 17.251969699676238 15.659199218300966 0 -1 0
433 4 5 0.1268 15.163191681012679 13.589288571938402 11.819848340764496 -1 0 0
83 1 5 0.053 12.569606211017279 17.694058070404303 19.376547110138752 0 0 -1
296 1 5 0.1268 14.434885981320937 17.277420031203278 15.725524252936218 0 -1 0
554 4 4 -0.1268 16.96028999033466 11.417906954346485 17.24723848758444 -1 0 0
393 4 4 -0.1268 12.66860123210657 14.23641552054289 14.745913426852221 -1 0 0
295 1 1 -0.106 16.693320878490024 16.699754633466785 14.351189742682006 0 -1 0
62 1 5 0.053 14.798798108836724 18.710246798910177 18.648645951470975 0 0 -1
394 4 10 -0.1595 11.748871756448825 16.022926971253842 13.445071924951025 -1 0 0
437 4 5 0.1268 13.56243421093353 15.612109739948584 11.790540216484457 -1 0 0
191 3 5 0.1268 11.36846410456167 10.394583546297154 18.72984558707885 0 0 -1
556 4 4 0.0265 18.141586833686603 12.24167776187587 17.279699494423145 -1 0 0
505 1 5 0.1268 18.171338990493616 16.052493983753898 18.750929828978897 0 -1 0
118 5 5 0.1268 18.032273331160773 19.34231788156793 11.642036241226743 -1 -1 0
558 4 10 -0.1595 18.79894674786003 12.430928923678861 18.50176932074565 -1 0 0
307 1 5 0.1268 14.315267063708323 19.367191910673903 11.256801530251478 0 -1 0
434 4 1 -0.106 15.372471060469652 11.750561910587304 13.766325187574934 -1 0 0
349 6 4 0 6.3636938402902175 5.907934257108662 10.640472610408823 0 1 0
264 1 5 0.053 13.353550031816356 13.06233052477205 19.6621442197127 0 0 -1
42 1 5 0.053 2.8501983227305123 10.238815716126728 19.58290932424431 0 0 -1
183 3 5 0.053 7.97768937734045 8.822085407228105 19.40290160789926 0 0 -1

Velocities

283 -0.002482271099569812 0.0009071680766847722 0.004517384481837728
278 -0.0013610043636842451 -0.0020524315268811546 -0.0002232401154379513
277 -0.0036752625119013988 -0.0020428005508163183 0.008891654998403319
280 -0.0019869002142381084 0.0004754431336348895 -0.002179074383707108
276 0.0006102947291035112 0.0024995996675656515 -0.004196054594561285
45 -0.004969677529988452 -0.018193346174068998 -0.02275609456086828
274 0.0012823581723236572 -0.00847838737939821 0.002726172858462402
50 0.015113232301931871 -0.03645088956056957 0.00042252404729443375
116 -0.001487334995853345 -0.00226273012748667 -0.007743765420650371
114 -0.020419920847165342 -0.018159867625061228 -0.018243174948526977
49 0.0031358431427080755 0.0022377600554637418 0.00704843987100142
117 0.014652960547901817 -0.0057964493678402534 0.028720737519807957
15 -0.006336163614127682 0.003004263740108973 -0.0016075489392822192
281 -0.0022031927163445736 -0.0034552328791900544 0.0037109733827568256
227 -0.035695905752911206 0.01386950538266533 0.005752028153209427
361 -0.00043408900167370005 -0.0028936486611126962 0.007542419445807713
356 -0.002580167988713888 -0.0011596387115129757 -0.001477917892508908
359 0.012435172607520539 0.01956985198613314 0.004975215690091825
113 0.003069084710963579 -0.008490226489096649 0.0018210168647618814
357 -0.002702723206782791 -0.0012293908813301316 0.001292644651460603
354 -0.007833120034660789 -0.0027704825590768086 0.005029941364343399
447 0.003935491916842736 -0.004089263499812747 0.00559338777004815
351 -0.0065147686036814405 -0.0036421471411349623 -0.00886640313656089
222 -0.0133601246149527 -0.009839801485939091 0.0006895194375208554
223 -0.000656340614579685 -0.003907542079315542 1.7706507330735767e-05
47 0.0008508803852123521 -0.014261284950037442 0.003368627195903381
360 0.007679940997964324 0.0015463009896727158 0.008423858290776014
363 -0.01041040261633759 0.0045283034526066536 -0.002309023836640519
362 -0.014298639563741661 -0.017544835943899103 0.004239542616355447
428 -0.027430496245249965 -0.012749477762126647 0.025963392286564788
56 -0.011622845843489467 0.0022172670317022105 0.006383697807771871
448 0.01704226680559543 0.01600889232076296 0.017394877520306284
177 0.0024062505251492027 0.007815625385143174 0.0036163587884392575
158 0.008802172935487048 0.009814721127067607 0.0050338937298291175
270 -0.0041496257369242435 0.008259535237882748 0.018764724967471457
17 0.004694344489177573 -0.0024640912333540235 -0.0033951126270968437
157 0.00995246731198522 0.006988867596593157 0.00953806089037025
115 0.014703145160499604 0.008111272447538974 0.0030714422545778134
40 -0.006080728026025007 0.008469110013543309 0.01055769514012747
173 -0.004060649982120087 -0.001527583797930817 -0.00186183957855357
446 -0.00783399680553162 0.007546114736660993 0.025247999133734395
174 -0.0029893753130456383 -0.0017807239003442517 0.0002580021639331397
73 -3.246998976330297e-05 0.012901899856816527 0.004758991752871774
269 0.011307237577041851 0.0007706476385769096 0.003442390175465927
41 0.008639809532082404 -0.0037060471063186957 -0.0019452303626231562
450 0.018195230328729033 0.02213031823709392 0.004717749059623846
85 0.0009474810752556922 -0.0022839666437596325 -0.001799317193560551
224 -0.024148588759990295 -0.02482981577456465 0.013364762139137527
273 0.018042768832715633 0.01790039217881234 -0.019605626134921887
171 -0.027533026156444096 -0.0019661930289540065 0.008622059723255335
285 -0.0074718189956842545 -0.005850349782489911 0.0003717929873662032
286 0.010481748664129962 0.016958489249037357 -0.01750888092655276
139 0.006739735567835533 0.0060846088330074495 0.002610901230897976
271 -0.0036010758970631707 -0.027800564463542184 0.007331392114967622
179 0.009993358763841288 -0.02004381324960467 -0.007803756434476092
141 -0.008048621260861134 0.0039701387184735955 0.0025241082535808748
57 0.030017772042006206 0.0007069617236685705 -0.002507349351558521
459 -0.008316730030096475 -0.0013744863096935497 -0.004630739909302421
530 -0.013452798162453157 0.007850349477327724 -0.01322181202093027
132 0.02726140802967517 0.028713148093394945 -0.0170481164917715
346 -0.000759403520750739 -0.005198417880501277 -0.003671358164845048
18 -0.011190249078271037 0.008880279143628992 0.005432993400943329
473 0.006979707146802414 -0.0025673581338878887 -0.0007734142389018562
86 -0.006830629991135954 -0.008584745358589423 0.009605016669040222
13 0.0023822247718118124 -0.006600276518682674 -0.0016166137959194916
53 -0.009144163560841809 -0.00820430699100681 0.018723812476613803
169 0.007305405968192229 -0.00213449100117294 0.0034137203310905494
546 0.04137699090613744 -0.018112884876857614 0.0032039490267749904
220 -0.003127624156877131 -0.02065861610613338 0.006507685215488354
180 0.0032070648679789105 0.00973369204252214 0.0027163220476218134
430 -0.002519272965092141 0.007399002645620267 -0.0027490515954095053
16 0.007777059666635963 -0.02470573848682644 0.028511602529333657
282 0.00928952136827812 0.00022726550302257088 0.00193180022218316
189 -0.013959551221379212 0.0034121443250015463 0.010962886022113604
378 -0.002638107727126864 -0.006394015186853372 0.008171746346354196
14 0.01188932189437662 0.0030060310005091823 -0.003131437741255436
472 -0.004268078178976482 0.0019528268698384365 0.0019079271059234163
379 -0.005295698651735419 -0.0003742913950156441 0.004091277670972464
225 -0.012664829859716138 0.044470907740625454 0.02800965517628696
352 0.0018722215490277732 -0.006844028981342689 0.0020239486971464853
102 0.0023035842446078357 0.008647183415871871 0.010191555146202319
275 -0.021175756650476222 -0.009610139962957086 0.0008936447105364525
533 -0.0004732381123147699 0.009056240073301794 0.009990570364724671
420 -0.016361627900050923 0.008500662429087692 -0.03219988041804082
474 0.002340744339027883 0.016666706319172612 -0.0044282938243467695
489 0.014951333442970711 -0.016382326734837888 0.01745179915958724
508 0.03171607009655594 0.0011746012780366024 -0.028836362898426334
432 0.007167958790878096 -0.014095206768291395 0.01350486591896012
380 0.0037502299383803065 -4.1210783240123136e-05 0.00042155114888877147
466 -0.0028834164088738902 -0.002108846306079125 -0.005114864453747954
126 0.012009347142623295 -0.004752696902047021 0.013925675413901472
251 0.0029520692694394914 0.0015980728851496986 0.00612908221146371
131 -0.0017798452394690572 -0.005073480541510225 0.0006957390495241441
531 0.0044144994091629836 -0.006818930209334105 0.009680368371854972
527 -0.003041503701973841 0.007093509830695293 0.00493216182054105
529 0.022637341501483693 0.0031946651022909042 0.016021574689851815
507 -0.020373814177550797 0.0011029207882926394 -0.015058984685042687
528 -0.0020511224846937706 0.0019006440585710113 -0.006642247742963237
373 -0.0007044484304592331 0.016896133633774128 -0.00729257338644279
193 0.005546386867202691 0.003809266547201599 -0.001260876835615573
355 0.00960077350436041 -0.02250770737884328 0.020432512066622006
342 0.001714813889105531 0.0054992399427584975 0.002220778142449268
11 -0.0009593968824197761 -0.001744441809297704 0.004181186955203069
12 -0.001980875434342343 0.0014151668627919796 -0.0017752968677933996
336 -0.005940332970617759 0.00455530272702296 0.005059486534509619
390 -0.001126217791265219 -0.0018141922588332993 -0.0004549688436375166
384 -0.005784326544395069 0.0035097619700671465 0.0014302247523941929
387 -0.010814697597658551 0.00441042693129624 0.00951680070341933
388 -0.006413446946767095 0.0015883043385022007 0.0015508499859702238
335 -0.020305311908604445 -0.004328124062613007 -0.002157154888281723
392 0.0037241985658049916 -0.0029830534591665566 0.003049996577204494
334 -0.0014340350586563415 -0.0014791680455076787 0.005207609279224922
386 0.0022960806508573748 0.00026635146996429986 0.0022541883471179918
337 -0.0036130707160355324 -0.004427119371237108 -0.0009344148077624142
382 0.008662771206888586 -0.02680451353163277 0.015073316080299819
10 -0.014309291398369567 0.007602470684898908 -0.02872174716117269
9 -0.0019952474930855914 0.002221103514782231 -0.0007439461228862681
5 0.01413139736615199 0.023612888296107012 -0.001896264894206871
6 -0.0052145708157564 0.013940485765882938 -0.027162053923851487
348 -0.006673052906433387 -0.001154374338458577 0.009194185418327741
284 0.01692026016614489 -0.026442928627288878 0.0032821931192444738
125 0.00596218924415863 -0.0008930226577414748 -0.0009499694098727222
106 -0.026409329777446738 -0.00877736865509535 0.019569963382712805
287 0.00018692030052250833 -0.0011480615873818998 -0.0003149106356811517
289 -0.006503008758742108 0.0169848784486295 0.006508351163709289
338 -0.015767141103387155 -0.03023071793881531 0.008603608676260893
133 0.0016947912613253522 -0.016332808899803073 0.006773403521342285
134 -0.02299792429270385 0.020515087542126147 -0.013021520043765432
248 0.01697727162680823 0.033793740924104594 0.0012622445382558468
343 0.0006560095966219795 0.004854607693569455 -0.0032023555708562486
250 -0.0047620464348626474 0.0023043720895377143 0.006175347861333825
532 0.0021781684904555306 -0.0021751625070416053 -0.0006422639312076275
372 0.002602859763243029 -0.0007491218957190887 -0.00409726873293664
288 0.007279773754684163 -0.007511684764021932 0.019283900272610063
249 -0.012544828915343049 0.026243324656990655 -0.03303552228011047
297 0.001371378668505105 -0.0010261954059639332 0.001243869641486289
294 0.0031564308314219573 0.005748060942884412 -0.00020840878510419228
391 0.012797859670778858 -0.001350680645897364 -0.00494209609100519
375 -0.009116564541855937 0.017783084040778344 0.0008379099511871041
366 -0.009675565516553346 0.0020174108231719528 0.006435533974825975
339 0.04764503724374895 -0.0026945868368813963 0.015251250458357872
8 0.0022420490006636717 0.004077259629883851 0.0056588881237812985
291 -0.0006397120239084497 0.0015651302745741868 -0.00022538968672313243
19 0.01700093678454323 -0.00528061093766574 -0.009228580160347225
368 -0.0024326481709919076 0.0044495270089426504 -0.00014385284735676066
104 -0.02923038787734815 -0.0014207722697019446 -0.025883219143749144
103 -0.000835483609745182 -0.00928258641710123 0.005282816937193213
370 -0.00851392089806422 0.003292336333083147 0.0033909382059891407
99 0.02033902091772041 -0.005285794843497197 0.03153370097136498
290 -0.01499787241612169 0.015276028678843624 0.010392275401751751
324 0.02551277939325748 -0.012022589510370545 0.01177367343438333
456 0.009072807321088736 0.0020742509509731415 -0.0036437502742762305
465 -0.017756089333140393 -0.004975755718274978 -0.017183469866094415
576 0.009843256140320254 0.0038368141781868663 -0.016579736846682486
572 -0.019692946349249278 -0.007999861601381162 0.001455936476332823
138 0.006758147492806484 -0.009778973061540344 0.01124272917328083
452 -0.03934713537214594 -0.010519443542467347 -0.0006069273683696599
453 -0.0037078924785049774 -0.0009753557365653392 0.0028014261489720084
483 -0.007749596139569209 0.01737392949465471 -0.0008059344456446681
142 -0.006004187357295105 -0.003246004700784194 0.0041270657348133595
559 0.0037817402905070295 0.004993625593803747 -0.003046970236215496
140 0.0025416201698631687 0.009681713717909312 0.0004103277853545388
545 0.0060827404419103405 0.0023790648014191643 0.011673561022023242
88 0.009408410897439313 -0.0031093301953829724 -0.0010654638835711624
256 0.01214169943106185 0.033687640515301785 0.029255094027242304
461 -0.0030493174929238417 -0.0014367755473230373 -0.0028980664738322537
321 0.005211690417909131 -0.00445197282223924 -0.002929964848564235
462 -0.005336544201447524 -0.009126098019218905 -0.005378451712647653
570 -0.011592140326395042 -0.0008720402622290043 -0.007184784543245713
323 0.0013048975066917471 0.010297976543030374 0.0031021978976896597
539 -0.0030288329069917907 0.023939397580158478 0.008486256453782086
63 0.001359866108086354 -0.004125117082318834 0.0036575942109075043
98 0.02537684111639414 0.01180636416950273 0.009641603696600954
464 -0.028815155715874202 -0.027737254217767203 -0.019296487472243003
254 0.010058697433854543 0.010396575076286059 0.01780902887905847
258 -0.00514453078353878 0.007450121810935241 -0.012204928558294116
540 0.034458548003384694 -0.007231231990423224 0.0056878649271701115
547 0.0049758894548610245 -0.00831244858398758 -0.022536228188328174
151 -0.012535037623196814 -0.0005697749430309056 0.005801179180707448
152 0.002545842803444915 0.008819957780415284 0.00515595407407794
156 0.003062491488091724 0.0037020260144691943 0.0029483823363957045
65 -0.0004472601218854725 0.009423609702428918 -0.001179989293595716
542 -0.004245312428760238 -0.004434656093854582 -0.005798407849544623
46 0.033181922874008535 0.0007950226891141105 0.01945324425094703
64 -0.0034539255125662183 -0.006280406940161679 -0.0009911617481343931
48 -0.02953022340805936 -0.008912982874997196 0.01031211695221721
67 -0.002713821283676772 0.005977824975108237 0.009562238951394342
69 -0.014468725405027432 -0.005595081247429845 -0.009241325011067005
44 -0.0002449776813994393 -0.011078248215342819 0.016660690082123855
70 0.003244619892114463 0.0006506329310857646 -0.005832012909655945
66 0.003301891441536386 0.004221905622980919 0.01047485923981884
72 -0.001927058271203241 -0.004006950729126364 0.005589869582748111
68 -0.0043148547597226285 -0.00037216628416252316 -0.006103114692746752
74 -0.004184863383376975 0.03546816962112014 -0.010078147482865925
257 0.004210796704436936 0.00024574845515441964 -0.001880150913621781
100 0.0158032505072358 -0.011056039304469977 -0.005895922999670041
150 0.0198063251947942 0.032654538703085136 0.0010778062231455723
327 0.0042891472308067375 0.0005513808513801586 -0.0023971351743333046
322 -0.0014989862784745925 0.002712809999177626 0.0044266479543453455
320 -0.0022438566739002254 0.002216768220932494 0.0047744122397286705
325 0.0004027545773650884 0.0041351604158627875 0.008579950000885983
317 2.865546684320454e-05 -0.0022063211864954716 -0.0003867595547572015
154 0.022967018981378713 -0.01692933424241007 0.011769291970787165
71 0.004764171294342766 0.004740590034235671 0.00015286345438630388
326 -0.0014423169769690754 -0.0032605242045039813 -0.0052673003188717675
451 -0.005757997182487719 -0.014824919262046694 -0.002673300759799398
569 0.003872047955802625 -0.0038370106728303835 -0.004413320229372554
567 -0.01689916556121152 0.00736340160184224 -0.001181403100443401
568 0.00853810060076528 -0.0014367267154715882 -0.00456167518153695
101 -0.006504928608013084 0.020374468825656716 -0.023714516531689482
571 -0.0012579723138858132 0.000984336541577264 0.005328156444545594
564 0.003157508563361566 -0.0008152724658565916 0.003714146910283575
329 -0.004331469330649853 0.0016570753489381738 0.0012425290297315816
75 -0.010173774718882178 -0.008108356659824593 -0.010333555979314077
20 -0.010903025456858104 0.015129569207628042 0.0002690964444428828
245 0.03920951765530541 -0.010325729953062352 0.030553188376448343
328 -0.008834514835794229 0.0030722610153365703 -0.001606673374053854
22 0.0029513588414107734 -0.003869781002468856 -0.0022009327391369453
255 -0.00557428085653069 0.00326548063764033 -0.0064196417844634675
512 -0.002655176647787086 -0.00437093135421428 0.0019867632506030885
566 -0.009820286296802577 -0.016100225080695262 -0.015377659992466965
506 -0.000327992107977505 -0.017296767755350495 0.0009436793362288357
383 -0.0018041468025638229 0.003872056790101658 -0.0008651707378182744
203 -0.015966234763596043 0.014236079622654609 -0.008438709587630423
144 -0.012011814150592923 -0.0036616959891774955 -0.03822058256605025
381 -0.0034618720609902154 -0.01997920371846683 -0.0022130348028372797
96 -0.007086478492617247 0.01504217655361912 -0.003273318088606326
332 -0.0048288999800422845 0.007970333872194476 -0.014837416996867407
23 0.004398025762990373 -0.003699663987821411 -0.00795751499393712
36 0.012311948549742945 -0.003234452391439181 -0.004874369811629008
26 0.0009937450977785174 -0.0007869169502128279 0.0021926811004453904
33 0.005930486840601531 -0.00015269525269367892 0.00019608458857499074
112 0.0008419861090048014 -0.004489250031386605 -0.00465719224430073
92 0.0003732614661342463 -0.010857467751138347 -0.006607306483324367
424 -0.00203068024913393 0.000554588812863532 0.007339085053122919
219 0.0024514713523091274 0.00495903233365394 -0.008008960299004003
573 0.003954370387118807 -0.002497724694794331 -0.001953211747385227
365 -0.022806959518593035 0.0075308463092667735 -0.01041368338199028
218 0.0030329338274063464 0.0009566760470151838 -0.0005986937759560898
385 0.0031836048640698604 0.014074791341192348 -0.006749097283232921
107 -4.5671968362320246e-05 5.234577144722432e-05 -0.0013234597938914599
130 0.007663150737934218 0.0027111757169831275 0.0025276093205107006
217 0.0018869414302968887 0.0036294017061889385 -0.004123580288091926
279 -0.0030475661084015545 0.000893086336652262 -0.018177613309535337
376 0.007437432039957154 0.014068988640050666 0.003745155942019097
267 -0.0033216970101894875 0.0019219118130663706 0.004145396969244281
153 -0.0023315613522177686 -0.012643671549376376 0.011275563876140064
3 0.005847341021681754 0.008888165383945835 0.005022134214958568
425 0.0037525245891325523 0.010977478891002113 0.0028587856862802644
108 0.006308131522807437 -0.0031676062819842687 -0.0108775923838548
188 0.003959568384229168 0.006629346836229896 6.442516910097169e-06
109 0.001000751977611569 -0.004544310345974215 0.009015646193863792
374 0.007714139574402754 0.0086105189877948 0.0052337656671410234
37 -0.010157047280495149 0.005246639156031953 0.004020038437692602
574 0.006727328576520276 -0.014686028712636474 -0.002760560759861668
95 -0.005563590005043038 -0.008992683252947659 0.0015367249323060648
110 -0.016164443791130245 0.011881705474268488 -0.011136752057753649
426 0.0003973154120902513 0.011610693765861428 0.03176717867951236
216 -0.0013767226986609986 0.005496755371575341 -0.0003517661984689152
421 -0.0009873836305178058 0.002708027685103102 -0.007177990969614391
318 0.018085540291191998 -0.008284323167999543 0.027451629877283164
1 -0.0037847720953443484 0.0003687657992280683 0.007556107792048129
427 0.0024833789218445075 0.004270404601064411 -0.03446850443189706
4 -0.007135578055303057 -0.004455487839981723 -0.0019018621466277488
105 0.0033213233886001136 0.005794766544727634 0.00034290933959659875
32 -0.001691598921060584 0.0038611788812553576 -0.0005079493184511374
111 -0.00037263763093921243 -0.00361996692931518 -0.0008667873706137832
575 0.0027983830077478906 0.0018580297257101384 -0.005379392108386262
7 -0.025518213123886458 0.026522452156306827 -0.005631214702679825
422 -0.006947396707203967 0.022838233888487075 0.0012194682060253498
205 -0.010513016469466646 0.0005456883821509907 0.021809961272612765
577 0.0002508663108931931 0.006361660864820871 -0.0014298230492746772
367 0.004998884289900401 0.008000398174987614 -0.005690201683110165
204 0.0011427162487142874 -0.007345921272619319 -0.0016676593651807924
565 -0.006899936766229218 -0.020083230990900508 -0.003995035584083087
364 -0.027745798692455637 0.003928659265247501 0.010616691015188987
38 -0.00018674125278883723 0.016025727670521007 -0.00261265434691518
2 -0.02994325267253664 0.0027857128232017777 0.009868372435363973
582 -0.030248441611412862 -0.019837932148366773 0.0016064479989544983
93 0.009704058555263604 0.0043832936834045525 -0.01262062999044774
423 -0.005233778004765391 0.008902879282690172 -0.0021292635358323582
534 -0.008125791883186894 0.0016996036783887747 -0.007315230475150501
91 -0.0012385367673059158 -0.007364757793553211 -0.001158006482491219
369 -0.003674616091996594 -0.008548423777559615 0.0009035793181164013
221 -0.02352346086410781 -0.01758605412622097 -0.013862792487046858
371 0.0073217476262454366 3.474743076626195e-05 0.001532851631175581
94 -0.0191358762855122 0.0242594981523474 -0.0010642172824638278
155 0.0013491925946564729 -0.0030895750809137577 -0.004610099424958463
97 -0.023325885520487467 -0.016318575098135016 -0.025373152282411975
184 -0.009276592630690417 0.0012062015835877231 -0.017785141029671925
535 -0.00019407516668160083 0.0159999488493509 0.013862376445718777
389 0.004723832184831002 0.007442698367063192 0.009073520081861929
504 0.0002120154168231724 0.001310086599379196 -0.002080140535621461
215 -0.00936712277206564 0.03742369299299099 0.0004147441942743491
202 0.02087540444024151 -0.005643108912485651 -0.009156781453497883
145 -0.0003222300961724527 0.007488561722688047 0.007191118554432803
128 0.006866768674622075 -0.0012778970038160278 0.004590032040156979
457 0.001812824487054138 0.008357018506249373 0.004067690660208684
316 -0.0015719858199570466 -0.0021060021153850345 0.008338770805766739
129 -0.006134511117885252 -0.0038291810810822707 0.009669127903656934
21 0.01293965641070029 0.014942870529177038 0.008771269093830712
467 0.0022222139336512984 0.0035146432163476278 0.004086859545444427
143 2.2142914781589287e-05 -0.0008881524930705252 -0.004677782344439634
584 0.016817785931879593 0.009931632208450945 0.0036110017599184393
470 -0.0020379479736112043 -0.0025462590423597476 0.00044166830683772346
585 -0.0004700828155387347 -0.002276127735275824 -0.0005222075532095747
516 0.0010167798729804904 0.002116755038385012 -0.0012146675669139502
468 0.012450431193344188 -0.057087034066033514 -0.016452322801206988
562 -0.03437868551776905 -0.004903858146866218 -0.0009788904011051988
469 0.007904124957060742 -0.0072069091771095875 0.002304496057508325
331 -0.009491514385827031 0.0010115144204489814 0.00442107401588706
477 -0.00022391950870705952 -0.006320252381045761 0.0006667572689724776
475 -0.0058136761470980155 -0.0016965319987769017 0.004870934868581692
513 0.011606991396208336 -0.023817363036784885 0.031841830988959006
515 0.00011195009897435173 0.0025964150422586397 -0.00593031194403776
333 -0.0017248264430981518 0.0036427304411546122 0.001270783876467076
192 -0.015204715232762149 0.0018383110041375775 -0.02145508860787815
341 0.0013324726824662588 0.009260725392714402 -0.028375409638654533
478 -0.0028858266645886096 0.001795210981908432 -0.004620007617976167
401 -0.0008503085833072191 -0.023564758066710285 -0.01069496663880358
166 0.004499290197193169 0.022966947921378583 -0.018917969749159602
170 0.00102129967514433 -0.019517251885547048 0.0024616618333173188
172 -0.0033955470018468803 -0.013528704461786056 0.004930056818939669
514 0.0015901423607166613 -0.004709373062657815 -0.015451812640995337
175 0.0026808551079723947 -0.0038722525151330717 0.006874529998821339
403 -0.008141266357827404 0.0034814835450296656 -0.007447306679421218
407 -0.022897111638548663 0.008080667492157034 -0.0058606706604023544
120 -0.0002770376724139256 -0.028552689312370202 0.021882284422142705
43 -0.0027344121927291077 -0.001786938834756729 -0.0013890470207682019
521 0.0028146893009895085 0.0019887858715966966 -0.0030379426023652424
399 0.002294342609131989 -0.02614960421609421 0.01596873723408774
525 0.02655283121559 -0.035654178720974344 0.0050108457460921775
480 0.0082793640000205 -0.001638210285770542 0.004392843331925727
479 0.002331024411193 0.005018532138398448 0.007532427315643432
272 -0.006065280102713099 -0.027442519252631453 -0.014851043949054801
165 -0.0015836783194076965 0.007580370957947593 -0.0033840310916406525
243 -0.0001466320247157898 0.0005587896271961717 0.004658013817285348
526 -0.02387641654940032 -0.007010263390673318 -0.01073082774517425
519 -0.005915420235429575 -0.0012295540005964989 0.0007354720374051341
315 -0.008837275946631673 -0.025147404913107324 0.0005953185699912666
168 0.0036988382518605544 -0.0048711379167357275 -0.0005524962515597748
344 0.004287250694396527 -0.0043964810418211184 0.003518456178414938
167 0.0027584862856231394 -0.002209188015533431 -0.026630912697199773
523 0.004233519723060129 0.009197864941052816 -0.006756956272181272
127 0.017807696648407704 -0.02360610315123628 -0.0008608788763855993
476 0.005988682270276877 0.0004913522144816003 0.004128333904587874
314 0.028882143261421737 0.005462825396351787 -0.005472312935716047
563 0.021766021921510358 0.006903934125224582 0.02777176695705743
226 0.006601414879382903 -0.03414880573404722 -0.0011215042950313194
233 0.008016285876353028 0.0030641672968884166 0.0007729593201535414
160 0.019067282997191598 -0.0046114007931449 -0.013142804017543546
190 -0.0026159137036691747 0.003026621068378311 0.002144068982486826
61 -0.018254501551584285 0.026780260771250203 -0.00957098226018292
228 -0.01504087782131202 -0.014129139115990327 -0.018163153356509427
159 -0.01759953999515619 0.00539838005515999 0.010857528497585225
311 -0.0011646129148326718 0.006010397942093601 -0.0020603018843761514
330 -0.01811329043781419 0.004893219156755976 -0.02415213306827587
162 0.007946682275862477 -0.0018429455616196183 0.002968685699858118
518 -0.006494296042710204 0.008809221445003183 -0.01335735424611581
313 0.005769597011838542 0.0035952255924316854 -0.001221208783240986
229 -0.005341508047888117 -0.001023069249464682 0.0009757662772407793
522 0.012857352773592786 -0.001608410240079642 0.028515770141710518
471 0.0015237610116554056 0.007843733434861154 0.028466650971744
312 -0.001731438669162591 0.0028752356973039297 0.005840447503664864
347 0.001300487822485393 0.0018191361234673063 0.0012854277904144696
449 -0.010643788465056989 -0.028432365103982855 0.003628065435398209
39 0.0001694813888176364 0.0025731297156284757 0.002698974726965693
244 -0.0034968968218428566 0.0014223260890256887 0.0014226440282599606
395 0.004921339599616558 0.005903220185289076 0.014158665881725065
164 0.0016004084930001355 -0.017965139673610336 -0.028319390640260636
345 -0.0032117399505900116 0.0006123498964695155 0.008807295114297422
176 -0.003131423770897274 0.003818970615140719 -0.004028715965564554
340 -0.001200447355839745 0.004169271535755007 -0.013557407025030555
124 0.00235793929717901 -0.007365452930392658 0.006230182299686021
185 -0.001416994110207993 -0.0014226182663861777 -0.0032225235100056407
261 -0.026006348440256455 -0.02150095810578203 0.0007757636911067266
303 0.007529161188069332 -0.0104192627523138 -0.009023762004717871
187 -0.0010281429557758223 -0.003259639803596712 0.003132501831016298
460 -0.026649307971768503 0.0077101034263619 0.003332936489986459
236 0.015812277781843034 -0.0210955794093899 -0.034743744018941425
520 -0.0003158443834389229 0.0007787064980302656 -0.0006162992206582012
481 -0.00441823466119264 0.008752589329075779 -0.010146406220583427
482 -0.002029900826724395 -0.0024205484366589835 7.21367516707198e-05
549 -0.03138117587981394 -0.026149391141619387 0.0011633747888571085
135 0.005307451730550447 0.01119081555115028 0.001194671812171323
137 -0.011821945611849226 0.03649064924321002 -0.016739227874894323
235 0.013634659087135575 0.00910264880550841 0.00490543982050469
524 0.019191777824766783 0.020993338012365477 -0.006797143967848481
350 -0.0011100653237322137 0.0009408695868059849 -0.009892560783802384
443 -0.020938051021622082 -0.014870021246894521 0.02071774155887593
308 -0.01386077650668149 0.015606244537012069 0.009924052844264905
353 0.00021400909693844867 0.0019697359661605073 -0.0028583518566737023
581 -0.003205751731461458 -0.002678502743287777 0.008705707513836486
123 -0.0015758655163749902 -0.00607979970568325 0.003186855693025435
454 -0.026245712244639136 -0.009670876005286905 -0.004397167815166162
310 0.0007748936923648953 -0.003443194674001561 -0.0011597974021646668
358 -0.004937960008681948 0.0007133844441946237 0.002569966180738654
207 0.01578036608426485 -0.007484370896330711 -0.019786002934812922
214 0.03709360734845453 -0.0025691538835740783 0.005587015936068799
210 -0.003741319590454347 0.0010013795315275721 0.0034583000335773545
484 -0.00424482231757435 0.0006546161698251183 -0.0005997541614836457
241 0.004700956103611434 0.004012295287801321 0.002486276713771891
239 0.005763007331400437 0.0013400370729287217 -0.005016673810419177
493 0.014396595662599144 0.013965152933487431 0.027917438191557706
492 -0.007398951292111501 0.010238462197762062 -0.007008929956960912
208 0.00024011456894785667 -0.00048581332675413203 -0.004352092919855823
487 -0.0030066199776122592 3.472343155822437e-05 0.000956627522748824
419 0.028118838656366926 0.00604094991865037 0.010336114907132644
418 0.005500140009812847 -0.008807408647130753 -0.0057546697391663805
414 -0.01071235454662115 0.004197296226460103 -0.00013352258498428512
417 0.0038127066719903153 -0.0037593248865338386 -0.002145954141413891
416 0.006886312872112006 -0.02653717039568083 -0.012866512027819521
415 -0.005923094904834921 3.313796615937574e-05 0.0017283524460701646
413 -0.009699565117160398 -0.0029624283825540245 -0.008638295069064576
455 0.00014799183150735298 -0.0009091222288098059 -0.007699597218901137
412 -0.0012465279233812817 0.005212006110463284 -0.003919802926509114
411 0.005154484717391093 -0.008841283441961244 -0.01886972262728364
206 0.007485015096987451 -0.008205004561432177 0.00351658023205023
490 -0.0011402184354823936 -0.004639416016266772 -0.000260994867056971
211 -0.0035443652344544136 0.0025183376149373877 -0.0032440660164844183
209 -0.012139575421163838 -0.004022323683497511 0.010476049908048402
486 -0.0008190696145913966 0.005387326427583867 0.005525933557115871
240 -0.012756763859709298 0.00953609295471122 0.030384835344953075
485 0.002193477220522647 0.011203045778147217 0.025309062055603338
488 -0.0076516519067513986 0.003650636607908435 0.015408370985014753
121 -0.0042769018102440225 0.0037343507306470025 0.006122229275919978
491 0.0010253218422847613 0.02181258890067852 -0.013060245757102327
213 -0.00034573746262957813 0.0016951250123969051 -0.00833536945371226
494 -0.012593027677880753 -0.013979960443226375 -0.00716940446547011
212 -0.01982661098538168 -0.029674844242873026 0.0017114340419919654
292 0.004091206398220654 -0.0014757933766728583 -0.013967800063288786
496 -0.029491507995129864 -0.005747591791585728 0.028139550142213747
122 -0.007337450157494513 0.007230911378311991 0.013560315271950982
119 -0.019153734276528445 -0.007477451157931052 -0.01250128538670987
238 0.00026096529394193063 -0.0004518080313644078 -0.0011987787878794322
580 -0.0030086899699053706 0.0020037877750086323 0.006385763013436116
377 -0.012180063237836207 0.004533521747684352 -0.007045683542670283
309 -0.003652870142601679 -0.026005476438710918 -0.007341949057209854
517 0.0032608634412006838 -0.024145677301773128 0.004956205715710353
234 -0.0031998854218451235 -0.0010970726927623344 -0.0008713731126663989
136 0.008383931837333774 -0.008419477706636288 0.005629209009413804
87 0.01639730584871556 0.015641431676155684 0.01708175780015318
306 -0.0060188695646104795 -0.0014294446198627206 -0.0001506864609446213
550 -0.04129979283241995 0.025728931121559915 0.005533070998983649
259 -0.02182640506744419 -0.01398348705040578 -0.006782961189948943
441 -0.0016693165809130342 -0.00792932272329905 -0.006723336263083927
301 0.001276048568260902 -0.01387577364706967 -0.00030319967492142125
252 0.004603655700918573 0.0017594919180840465 -0.006730159090498531
148 -0.004400325058397837 -0.00357394170577824 -0.0017265393562611135
253 5.119466917350648e-05 -0.012407533918049204 0.0010667239199412194
242 -0.020739863487732754 -0.006050377905685404 -0.010489821292345824
146 0.004881612242558933 0.0033442064625072605 0.005742261530176743
541 -0.0037051022309250864 0.0052633921788057736 -7.631627980773211e-05
438 0.0002557365132014149 0.0020324135966664158 -0.0035210064778831455
543 -0.0005066260164771336 -0.002114754436376119 0.0052841937805518085
538 -0.010800479622205083 -0.005643465504970089 -0.0078201016094589
247 -0.004281687927347527 0.0008698436682782679 -0.0022551425517043635
186 0.011004703687097524 0.0037205883813418742 0.002123780140634818
544 0.0010189757110589935 0.00113949083947371 -0.004355594690144413
319 -0.0008517209429061734 0.0006532236103600212 -0.001038243518963115
60 0.003590092210380965 -0.003551263081281531 -0.0014030794202863
52 0.006926374302882665 0.02331200744922443 0.013722816204158193
548 0.014286344071302496 0.017745157673262436 -0.020108537261490353
80 0.0067465314327672275 0.012353419486657712 -0.021736949129584078
405 -0.010562129245144155 -0.0032480337842427714 -0.0006379608425353561
54 0.002850231843342355 0.029000284942585438 -0.002815871411318225
552 -0.030388096502614165 0.003582903317258738 -0.008960856774185715
147 0.011867009798862713 0.02975291124214562 0.0037494416684439027
444 0.014688649920595924 0.014427705060505964 -0.003311549305913322
55 0.000928045390043229 0.00438053004152578 -0.005906613141095825
246 0.016249007403741116 -0.026647436183081186 -0.0035724547665375163
231 0.00532881303381414 0.003661720211092555 0.008259660912707951
58 -0.005789774725962942 -0.001009374630736939 -0.005414335649580449
79 0.002867544195765095 -0.0018149150689113608 -0.00011148859789830526
59 0.0002032136262207234 -0.006424743430530107 -0.0032385111910120316
77 -0.00316992671754143 0.0009349291313936071 0.003218758439739669
182 -0.0014587178983206986 -0.012871692795383997 -0.0027511910932303267
181 -0.004688592435969008 -0.0002493016182480031 -0.0018660016768777558
445 0.0005306324948346833 -0.004293118847351854 -0.003437764323468852
78 0.0049871337160429345 -0.0002443143150162307 0.0033344178230530997
404 0.0011341507391708684 0.005140335233743907 -0.008159152078295692
583 -0.016631753484250663 -0.009541513469039059 0.004729390336233795
406 -0.005104023091362071 -0.00273597782910214 0.007777608978701088
402 -0.0009022921850854496 -0.004841091498629125 0.004180605564839065
510 -0.00607925263973458 0.0028816011249406526 -0.0007732345289207011
511 -0.0005146699210906369 -0.017322639523524357 -0.031685118978838106
408 -0.007039646764666301 0.012487103597746692 0.010484310884937833
400 -0.0007439752260165843 -0.001527844850733219 0.0004639714120825794
509 0.006179365011158834 0.014301198769856159 0.01669475647302696
410 0.0025383881736164705 -0.014354704259189647 -0.0076421489340944265
537 -0.0012964943055495117 0.011297236479755361 0.014832723051004665
397 -0.0016309033173186893 -0.0016686175612783917 -0.006039438594204066
396 -0.004283308916276667 -0.010469940130484485 0.009423821695877833
198 0.0049567967414272844 -0.028976486319129035 -0.009305314262463525
196 0.004026902551909869 -0.0007416757703167114 0.0006832828665504677
201 0.001164483498342112 0.0057601453428252555 -0.005122473263542788
409 0.01677241174815076 0.017256150232216844 -0.030529613631154782
76 0.007303034067182609 -0.007808619788708843 -0.0015473033569358432
27 0.010827383050129171 -0.005832790433538316 0.0004878951574261409
25 -0.002893268475728988 0.0022237852443855845 -0.00686811314991607
199 -0.0003310817926571201 0.0005863055158310422 -0.001366082006536897
51 -0.002595391165165888 -0.012929514230132708 -0.020050119437587707
561 -0.0038758869343354287 -0.001462112774108522 -0.006457114526315934
237 -0.009926861571836955 -0.016010222579049375 0.015164520797572804
197 0.0006538443656008678 -0.0023514411420412504 -0.006134479062990295
194 0.004158226665247047 -0.038228681433554595 -0.017668394169220895
149 -0.0012234614209608034 -0.004001500588594606 0.0010350536236444087
82 0.002106730402875416 -0.035269405723354255 0.001575460078188118
178 -0.024389155210921633 0.003393864478287441 0.015501694706859935
230 0.023884378406746693 0.0014042622651422258 -0.0069567994351028666
398 -0.026413034022917236 -0.01773852913520735 0.010459655514453747
81 0.017052534118880906 0.010790711055850203 0.012036083957396632
29 -1.3939222508893728e-05 0.0009966738695498377 -0.003983845665183161
200 -0.0044063096727733056 -0.002173262567731869 0.016311269402773332
195 0.004236233179117072 -0.00600586245229874 -0.002786290409519766
458 0.003042936790567651 0.014075260727884259 0.002779530490083416
84 0.009250105197901091 0.001651450747584995 -0.0063476757653588255
435 0.002482819992994136 -0.005910081448827808 -0.0008004604373606918
161 0.002364352517067959 0.014082281286675017 -0.03297347074450667
555 -0.005265993951572486 0.002582292057161989 -0.0038005413949680875
501 0.00448097080865556 0.008015766738884144 0.005824905433980638
28 0.026873619251728428 -0.010296420681618124 -0.014290379739772655
500 -0.0017989726597913518 -0.005330030844719567 -0.0038533966080912733
557 0.00037241951246608826 -0.0031753772971572242 0.003881318414835674
578 -0.002038176434602954 0.0056952553723112935 -0.002498905032925801
579 -0.017459726874733742 -0.010402864205411663 0.013723577555935855
442 0.0020552797404362676 -0.0001531299831009373 -0.002425175640041899
90 0.006630656378335561 0.009560055009046166 -0.013127342647984246
232 0.0054292154345890265 0.009185923391728692 -0.006565691135091355
503 -0.0032590826694696476 -0.004583017157775288 0.0012080069544188592
24 0.004794742582218165 -0.008947351650096485 0.0008039058375567977
262 -0.006686311727988585 0.0016175045325544208 0.004042847493031758
34 -0.00459082343633169 0.01785641044398483 -0.006089501255585062
30 0.0037221191455152403 0.001773082701932596 0.006638315092677913
429 -0.016041989878555443 -0.04996230456435742 0.017841501113611196
551 -0.0364080646271917 -0.0017598223831423179 0.012139994612691813
436 0.005756769984972669 -0.0013429083194874077 0.001987236495204826
536 0.0014078958294556504 -0.020239110397494132 0.0042208079058333224
265 0.02325184058361987 0.030891122031838077 -0.0007211405530961516
553 -0.008386807586180971 -0.0022902548547713212 0.0006233835015143947
266 -0.009868856550135885 -0.011983106404060874 -0.011366040648120175
302 0.0066646507298104745 0.0009661506492797481 -0.005780035888429377
305 0.010392969822798423 0.006528110137965714 0.00040370375032021573
299 0.002730005215332532 0.003802970509879878 0.00042501677350099883
439 -0.0021577606501936887 0.006758600294609945 0.00019382126765718992
497 0.0029699731981693927 -0.0020224538674471345 0.0004929296748004462
560 0.0008571430818865772 -0.0012091879631625899 -0.003176921453399876
31 0.0032636907140478192 -0.00013766417094679528 -0.0014508514618796332
298 0.0032396900416800946 0.00198233218028369 -0.00478854603919252
502 -0.0037158227540560365 -0.00443544771321056 0.004020421475605421
268 0.0052799043087892635 -0.004632075109773058 -0.0009775497026027638
304 0.0004508366004635237 -0.00542623368195652 -0.006109331271931644
463 0.012056244909062186 0.0048029083608200004 -0.009003869809998193
498 0.0016522843181569766 0.0018023673666714866 -0.007387595023890424
293 0.010998439153570492 0.013406348077883008 -0.006969792180486876
89 -0.004101240452310354 -0.0018927774540483196 0.0031513318051027994
300 0.024910811918350005 0.006402717591376941 0.00935543577962519
263 -0.0004028658983221051 -0.0024780339793487624 -0.0032739383622654205
163 -0.0011518509323833106 0.02458753654442917 0.016513076537252105
431 0.03718347075148464 0.012882309715935066 0.008361846376930967
260 0.026767585945999095 -0.02286390262729975 0.005122604645904123
440 0.010186360968550296 -0.0040287234629317985 0.010263270197889246
495 0.0029230000033762904 -0.006651933155045415 -0.0020423863243480317
35 -0.0037114900642925327 -0.009044852194477551 0.002803247895875572
499 0.0063098567061668515 -0.0028843621936431923 -1.571962180805924e-05
433 0.003770732434496147 0.010145407953954152 -0.009106204167591161
83 -0.008591043732987722 0.00381512735173515 0.013595132549987376
296 -0.015272823331046773 0.00024159100763236554 -0.0035211289241454777
554 0.0038588920310534723 0.0014136814082041044 -0.00205386842370615
393 -0.006007954617680015 -0.0006595606709724414 -0.003188381961724948
295 0.0017980526666756807 -2.497402906731233e-06 -0.0006852715822576439
62 0.0021971351707326127 -0.010703570245638267 -0.013361501382729804
394 0.000286076809928374 0.0019052284779066712 -0.004666310761916143
437 0.003773028219829544 -0.010396088190861146 -0.0015871009793420247
191 -0.038874807921781364 -0.029902923506651174 -0.0038279860956165175
556 0.016046554698566494 0.004632812557751257 -0.0034161407252889502
505 0.014237984808663735 0.011978015078792937 0.011547272985166133
118 -0.018012638924094035 0.009943273903474093 0.01796953555056554
558 -0.003441011968080681 0.00280885670939161 0.0020486317188121747
307 -0.008207402309358581 -0.01279053427084407 0.0004713032192088511
434 0.002778628534075872 -0.0005651064319233103 -0.004204099543233003
349 -0.0025944034225699824 0.002383213798038425 0.0023596482447410666
264 -0.0004456955762112492 0.046952088031945546 0.00727587675548495
42 -0.014441792500885757 -0.0035020960039597107 0.000884769786651899
183 -0.011812781971355416 -0.02285263843044423 -0.0002151714372241235

Bonds

1 13 283 281
2 15 283 285
3 15 278 116
4 13 277 280
5 14 277 275
6 13 280 283
7 13 276 277
8 13 276 278
9 4 274 276
10 5 274 117
11 5 274 273
12 17 114 116
13 13 49 47
14 14 49 50
15 13 15 13
16 13 281 278
17 17 227 116
18 4 361 356
19 5 361 363
20 5 361 360
21 5 361 362
22 13 356 351
23 17 359 357
24 1 113 274
25 5 113 115
26 5 113 158
27 5 113 157
28 13 354 356
29 15 354 357
30 4 447 281
31 5 447 446
32 5 447 450
33 5 447 448
34 15 351 173
35 6 223 357
36 2 223 379
37 5 223 224
38 5 223 222
39 13 47 174
40 14 47 45
41 4 56 15
42 4 56 177
43 5 56 132
44 5 56 57
45 13 177 49
46 13 177 124
47 13 17 15
48 14 17 18
49 16 174 169
50 13 174 176
51 18 73 139
52 7 269 466
53 3 269 472
54 5 269 271
55 5 269 270
56 6 41 285
57 2 41 43
58 5 41 40
59 5 41 42
60 1 85 89
61 5 85 110
62 5 85 83
63 5 85 87
64 17 171 173
65 17 286 285
66 3 473 472
67 8 473 467
68 5 473 471
69 5 473 443
70 10 86 559
71 9 86 88
72 13 13 11
73 14 13 53
74 14 180 179
75 8 430 380
76 2 430 379
77 5 430 428
78 5 430 432
79 4 282 280
80 1 282 287
81 5 282 279
82 5 282 483
83 13 14 17
84 14 14 16
85 12 472 466
86 11 472 474
87 10 379 193
88 9 379 378
89 14 352 290
90 12 251 125
91 11 251 248
92 8 131 129
93 3 131 251
94 5 131 134
95 5 131 133
96 12 531 527
97 11 531 533
98 7 528 527
99 3 528 531
100 5 528 507
101 5 528 529
102 18 355 193
103 13 342 348
104 14 11 10
105 16 12 9
106 13 12 14
107 13 12 11
108 13 390 386
109 14 390 391
110 16 384 380
111 13 384 388
112 13 388 392
113 14 388 387
114 14 392 335
115 13 334 390
116 13 334 392
117 13 386 384
118 14 386 382
119 4 337 342
120 4 337 334
121 5 337 338
122 5 337 336
123 13 348 352
124 14 348 284
125 5 287 289
126 5 287 288
127 5 287 489
128 13 343 342
129 14 343 339
130 3 250 251
131 7 250 125
132 5 250 103
133 5 250 102
134 3 532 531
135 8 532 534
136 5 532 508
137 5 532 530
138 3 372 368
139 7 372 370
140 5 372 375
141 5 372 373
142 7 294 291
143 3 294 123
144 5 294 297
145 5 294 249
146 8 8 9
147 2 8 4
148 5 8 7
149 5 8 6
150 12 368 370
151 11 368 366
152 13 456 453
153 14 456 457
154 13 453 575
155 14 453 452
156 8 142 143
157 2 142 140
158 5 142 144
159 5 142 141
160 10 140 139
161 9 140 138
162 5 545 576
163 5 545 572
164 5 545 546
165 13 321 320
166 16 462 461
167 13 462 255
168 13 462 421
169 13 323 321
170 14 323 324
171 4 63 64
172 1 63 545
173 5 63 98
174 5 63 539
175 17 464 317
176 17 540 542
177 17 547 542
178 4 152 322
179 5 152 154
180 5 152 151
181 5 152 150
182 17 156 327
183 15 65 542
184 13 65 67
185 13 64 65
186 13 67 70
187 4 69 67
188 5 69 46
189 5 69 44
190 5 69 48
191 15 70 72
192 13 66 64
193 14 66 100
194 13 68 66
195 13 68 70
196 17 74 72
197 6 257 72
198 2 257 140
199 5 257 254
200 5 257 258
201 13 322 325
202 13 320 322
203 15 320 317
204 15 325 327
205 4 71 68
206 5 71 75
207 5 71 101
208 13 326 323
209 13 326 325
210 6 569 327
211 2 569 568
212 5 569 567
213 5 569 451
214 10 568 564
215 9 568 565
216 8 571 573
217 2 571 568
218 5 571 570
219 5 571 566
220 18 329 564
221 4 328 326
222 5 328 385
223 5 328 332
224 13 22 23
225 14 22 20
226 13 255 217
227 14 255 256
228 1 383 328
229 5 383 512
230 5 383 381
231 5 383 389
232 18 96 107
233 13 23 30
234 14 23 21
235 16 26 534
236 13 26 22
237 13 26 32
238 13 33 32
239 14 33 36
240 13 112 91
241 4 92 112
242 5 92 93
243 5 92 94
244 5 92 38
245 13 424 423
246 4 219 424
247 4 219 218
248 5 219 221
249 5 219 427
250 13 218 425
251 13 218 216
252 16 130 129
253 13 130 128
254 13 217 424
255 14 217 220
256 13 267 109
257 17 153 155
258 2 3 4
259 6 3 95
260 5 3 99
261 5 3 2
262 13 425 374
263 14 425 426
264 10 108 107
265 9 108 19
266 13 188 216
267 14 188 184
268 15 109 155
269 13 109 112
270 13 374 371
271 14 374 376
272 17 37 155
273 14 216 215
274 14 421 420
275 18 318 559
276 10 4 1
277 9 4 5
278 6 105 95
279 2 105 108
280 5 105 106
281 5 105 104
282 14 32 535
283 13 111 268
284 13 111 91
285 16 575 573
286 13 575 577
287 13 577 578
288 14 577 574
289 8 367 369
290 3 367 368
291 5 367 364
292 5 367 365
293 1 204 71
294 5 204 203
295 5 204 202
296 5 204 205
297 13 423 421
298 14 423 422
299 15 91 95
300 16 371 369
301 13 371 188
302 18 97 1
303 8 504 501
304 2 504 108
305 5 504 506
306 5 504 582
307 13 128 180
308 14 128 126
309 13 470 585
310 14 470 468
311 13 585 516
312 14 585 584
313 13 516 333
314 16 469 467
315 13 469 470
316 13 469 331
317 14 331 330
318 13 477 479
319 14 477 562
320 13 475 477
321 13 475 478
322 4 515 516
323 4 515 475
324 5 515 513
325 5 515 514
326 13 333 331
327 14 333 272
328 14 478 476
329 18 175 243
330 5 403 401
331 5 403 407
332 5 403 399
333 10 43 39
334 9 43 170
335 12 521 519
336 11 521 525
337 13 480 478
338 14 480 481
339 13 479 482
340 14 479 563
341 4 165 347
342 5 165 164
343 5 165 166
344 8 168 169
345 2 168 43
346 5 168 172
347 5 168 167
348 13 344 349
349 14 344 341
350 7 523 519
351 3 523 521
352 5 523 522
353 5 523 526
354 13 233 235
355 13 190 186
356 14 190 192
357 7 311 313
358 3 311 312
359 5 311 308
360 5 311 314
361 1 162 165
362 5 162 160
363 5 162 161
364 5 162 159
365 4 229 233
366 4 229 231
367 5 229 228
368 5 229 226
369 12 312 313
370 11 312 315
371 13 347 344
372 13 347 351
373 18 449 39
374 6 244 173
375 2 244 247
376 5 244 245
377 5 244 242
378 4 345 349
379 1 345 403
380 5 345 346
381 5 345 340
382 13 176 124
383 14 176 120
384 14 124 127
385 13 185 136
386 13 185 180
387 4 187 186
388 4 187 185
389 5 187 189
390 5 187 183
391 3 520 521
392 8 520 358
393 5 520 518
394 5 520 524
395 16 482 484
396 13 482 480
397 13 135 130
398 14 135 137
399 13 235 239
400 14 235 236
401 13 350 343
402 14 350 517
403 16 353 358
404 13 353 350
405 13 353 352
406 4 581 417
407 4 581 580
408 5 581 460
409 5 581 549
410 12 123 291
411 11 123 292
412 3 310 312
413 8 310 306
414 5 310 309
415 5 310 377
416 7 210 213
417 3 210 211
418 5 210 207
419 5 210 212
420 14 239 240
421 3 492 490
422 7 492 486
423 5 492 493
424 5 492 494
425 3 208 211
426 8 208 413
427 5 208 206
428 5 208 209
429 8 487 484
430 3 487 490
431 5 487 485
432 5 487 491
433 13 418 417
434 14 418 419
435 16 414 413
436 13 414 415
437 13 414 412
438 13 417 455
439 13 415 418
440 14 415 416
441 13 455 412
442 14 455 454
443 14 412 411
444 12 490 486
445 11 490 488
446 12 211 213
447 11 211 214
448 3 121 123
449 8 121 241
450 5 121 119
451 5 121 122
452 16 238 241
453 13 238 234
454 13 238 239
455 13 580 456
456 13 580 578
457 13 234 232
458 14 234 118
459 13 136 135
460 14 136 191
461 13 301 298
462 14 301 300
463 8 252 461
464 2 252 247
465 5 252 459
466 5 252 253
467 13 148 146
468 14 148 145
469 16 146 143
470 13 146 149
471 13 438 435
472 14 438 437
473 10 247 243
474 9 247 246
475 13 186 182
476 3 544 405
477 7 544 543
478 5 544 548
479 5 544 541
480 4 319 321
481 1 319 510
482 5 319 316
483 5 319 465
484 13 60 190
485 14 60 61
486 12 405 543
487 11 405 538
488 3 55 79
489 8 55 59
490 5 55 54
491 5 55 52
492 13 231 201
493 13 231 445
494 16 58 59
495 13 58 60
496 13 58 181
497 12 79 77
498 11 79 81
499 13 182 181
500 14 182 178
501 14 181 51
502 14 445 444
503 7 78 77
504 3 78 79
505 5 78 80
506 5 78 76
507 13 404 400
508 14 404 409
509 8 406 402
510 3 406 405
511 5 406 410
512 5 406 408
513 5 510 583
514 5 510 509
515 5 510 511
516 16 400 402
517 13 400 397
518 13 397 445
519 14 397 396
520 7 196 199
521 3 196 197
522 5 196 198
523 5 196 194
524 13 201 404
525 14 201 237
526 14 25 27
527 8 561 558
528 2 561 86
529 5 561 90
530 5 561 537
531 12 197 199
532 11 197 200
533 13 149 25
534 14 149 147
535 13 29 24
536 13 29 25
537 3 195 197
538 8 195 394
539 5 195 163
540 5 195 398
541 6 84 317
542 2 84 86
543 5 84 82
544 5 84 552
545 13 435 436
546 14 435 433
547 13 555 553
548 13 555 557
549 16 500 501
550 13 500 498
551 14 557 440
552 14 578 579
553 16 442 394
554 13 442 438
555 13 442 393
556 13 232 233
557 14 232 230
558 13 503 500
559 14 503 505
560 13 24 148
561 14 24 28
562 4 262 267
563 1 262 263
564 5 262 261
565 5 262 260
566 13 30 33
567 13 436 439
568 13 553 554
569 14 553 550
570 13 302 305
571 14 302 303
572 14 305 307
573 13 299 302
574 13 439 393
575 14 439 441
576 14 497 495
577 13 560 557
578 14 560 536
579 4 31 30
580 4 31 29
581 5 31 35
582 5 31 34
583 13 298 299
584 14 298 296
585 13 502 503
586 14 502 463
587 13 268 267
588 14 268 266
589 16 304 306
590 13 304 301
591 13 304 305
592 13 498 497
593 14 498 496
594 4 89 111
595 5 89 225
596 5 89 62
597 5 263 264
598 5 263 259
599 5 263 265
600 13 499 502
601 13 499 497
602 13 554 556
603 14 554 551
604 14 393 395
605 4 295 299
606 4 295 499
607 5 295 293
608 5 295 458
609 16 556 558
610 13 556 560
611 4 434 436
612 4 434 555
613 5 434 431
614 5 434 429
615 13 349 354

Angles

1 24 280 283 281
2 26 281 283 285
3 26 280 283 285
4 24 276 278 281
5 26 276 278 116
6 26 281 278 116
7 24 276 277 280
8 25 276 277 275
9 25 280 277 275
10 9 282 280 277
11 24 277 280 283
12 9 282 280 283
13 9 274 276 277
14 9 274 276 278
15 24 277 276 278
16 1 113 274 276
17 2 113 274 117
18 2 113 274 273
19 23 276 274 117
20 29 117 274 273
21 23 276 274 273
22 28 278 116 227
23 28 278 116 114
24 35 227 116 114
25 24 177 49 47
26 25 177 49 50
27 25 47 49 50
28 9 56 15 17
29 24 17 15 13
30 9 56 15 13
31 9 447 281 283
32 24 283 281 278
33 9 447 281 278
34 23 356 361 363
35 23 356 361 360
36 23 356 361 362
37 29 363 361 360
38 29 363 361 362
39 29 360 361 362
40 9 361 356 354
41 24 354 356 351
42 9 361 356 351
43 2 274 113 115
44 29 115 113 158
45 29 115 113 157
46 2 274 113 158
47 29 158 113 157
48 2 274 113 157
49 11 223 357 354
50 28 354 357 359
51 12 223 357 359
52 24 349 354 356
53 26 356 354 357
54 26 349 354 357
55 23 281 447 446
56 23 281 447 450
57 23 281 447 448
58 29 446 447 450
59 29 446 447 448
60 29 450 447 448
61 24 347 351 356
62 26 356 351 173
63 26 347 351 173
64 16 379 223 357
65 30 224 223 357
66 30 222 223 357
67 15 379 223 224
68 29 224 223 222
69 15 379 223 222
70 24 49 47 174
71 25 49 47 45
72 25 174 47 45
73 22 15 56 177
74 23 15 56 132
75 23 15 56 57
76 23 177 56 132
77 29 132 56 57
78 23 177 56 57
79 9 56 177 49
80 9 56 177 124
81 24 49 177 124
82 24 14 17 15
83 25 14 17 18
84 25 15 17 18
85 11 244 173 351
86 28 351 173 171
87 12 244 173 171
88 27 47 174 169
89 24 47 174 176
90 27 176 174 169
91 31 271 269 466
92 19 472 269 271
93 29 271 269 270
94 31 270 269 466
95 19 472 269 270
96 20 472 269 466
97 16 43 41 285
98 30 40 41 285
99 30 42 41 285
100 15 43 41 40
101 29 40 41 42
102 15 43 41 42
103 2 89 85 110
104 29 110 85 83
105 29 110 85 87
106 2 89 85 83
107 29 83 85 87
108 2 89 85 87
109 11 41 285 283
110 28 283 285 286
111 12 41 285 286
112 18 140 139 73
113 21 472 473 467
114 19 472 473 471
115 19 472 473 443
116 32 471 473 467
117 29 471 473 443
118 32 443 473 467
119 3 84 86 561
120 5 84 86 559
121 4 84 86 88
122 4 561 86 88
123 33 88 86 559
124 5 561 86 559
125 24 15 13 11
126 25 15 13 53
127 25 11 13 53
128 14 168 169 174
129 24 185 180 128
130 25 185 180 179
131 25 128 180 179
132 17 379 430 380
133 15 379 430 428
134 15 379 430 432
135 32 428 430 380
136 29 428 430 432
137 32 432 430 380
138 1 287 282 280
139 23 280 282 279
140 23 280 282 483
141 2 287 282 279
142 29 279 282 483
143 2 287 282 483
144 24 12 14 17
145 25 12 14 16
146 25 17 14 16
147 6 269 472 473
148 8 269 472 466
149 7 269 472 474
150 7 473 472 474
151 34 474 472 466
152 8 473 472 466
153 3 223 379 430
154 5 223 379 193
155 4 223 379 378
156 4 430 379 378
157 33 378 379 193
158 5 430 379 193
159 24 353 352 348
160 25 353 352 290
161 25 348 352 290
162 14 430 380 384
163 13 269 466 472
164 6 131 251 250
165 8 131 251 125
166 7 131 251 248
167 7 250 251 248
168 34 248 251 125
169 8 250 251 125
170 21 251 131 129
171 32 134 131 129
172 32 133 131 129
173 19 251 131 134
174 29 134 131 133
175 19 251 131 133
176 6 528 531 532
177 8 528 531 527
178 7 528 531 533
179 7 532 531 533
180 34 533 531 527
181 8 532 531 527
182 13 528 527 531
183 31 507 528 527
184 19 531 528 507
185 29 507 528 529
186 31 529 528 527
187 19 531 528 529
188 20 531 528 527
189 18 379 193 355
190 9 337 342 343
191 24 343 342 348
192 9 337 342 348
193 24 12 11 13
194 25 12 11 10
195 25 13 11 10
196 27 14 12 9
197 27 11 12 9
198 24 14 12 11
199 24 334 390 386
200 25 334 390 391
201 25 386 390 391
202 27 386 384 380
203 24 386 384 388
204 27 388 384 380
205 24 384 388 392
206 25 384 388 387
207 25 392 388 387
208 24 334 392 388
209 25 334 392 335
210 25 388 392 335
211 9 337 334 390
212 9 337 334 392
213 24 390 334 392
214 24 390 386 384
215 25 390 386 382
216 25 384 386 382
217 22 342 337 334
218 23 342 337 338
219 23 342 337 336
220 23 334 337 338
221 29 338 337 336
222 23 334 337 336
223 14 8 9 12
224 24 342 348 352
225 25 342 348 284
226 25 352 348 284
227 13 250 125 251
228 2 282 287 289
229 2 282 287 288
230 2 282 287 489
231 29 289 287 288
232 29 289 287 489
233 29 288 287 489
234 24 350 343 342
235 25 350 343 339
236 25 342 343 339
237 20 251 250 125
238 19 251 250 103
239 19 251 250 102
240 31 103 250 125
241 29 103 250 102
242 31 102 250 125
243 21 531 532 534
244 19 531 532 508
245 19 531 532 530
246 32 508 532 534
247 29 508 532 530
248 32 530 532 534
249 20 368 372 370
250 19 368 372 375
251 19 368 372 373
252 31 375 372 370
253 29 375 372 373
254 31 373 372 370
255 31 297 294 291
256 19 123 294 297
257 29 297 294 249
258 31 249 294 291
259 19 123 294 249
260 20 123 294 291
261 17 4 8 9
262 15 4 8 7
263 15 4 8 6
264 32 7 8 9
265 29 7 8 6
266 32 6 8 9
267 13 294 291 123
268 6 367 368 372
269 8 367 368 370
270 7 367 368 366
271 7 372 368 366
272 34 366 368 370
273 8 372 368 370
274 13 372 370 368
275 24 580 456 453
276 25 580 456 457
277 25 453 456 457
278 24 456 453 575
279 25 456 453 452
280 25 575 453 452
281 17 140 142 143
282 15 140 142 144
283 15 140 142 141
284 32 144 142 143
285 29 144 142 141
286 32 141 142 143
287 18 86 559 318
288 3 257 140 142
289 5 257 140 139
290 4 257 140 138
291 4 142 140 138
292 33 138 140 139
293 5 142 140 139
294 2 63 545 576
295 2 63 545 572
296 2 63 545 546
297 29 576 545 572
298 29 576 545 546
299 29 572 545 546
300 14 252 461 462
301 9 319 321 323
302 24 323 321 320
303 9 319 321 320
304 27 255 462 461
305 27 421 462 461
306 24 255 462 421
307 24 326 323 321
308 25 326 323 324
309 25 321 323 324
310 1 545 63 64
311 23 64 63 98
312 23 64 63 539
313 2 545 63 98
314 29 98 63 539
315 2 545 63 539
316 23 322 152 154
317 23 322 152 151
318 23 322 152 150
319 29 154 152 151
320 29 154 152 150
321 29 151 152 150
322 26 64 65 542
323 24 64 65 67
324 26 67 65 542
325 28 65 542 547
326 28 65 542 540
327 35 547 542 540
328 9 63 64 66
329 24 66 64 65
330 9 63 64 65
331 9 69 67 65
332 24 65 67 70
333 9 69 67 70
334 23 67 69 46
335 23 67 69 44
336 23 67 69 48
337 29 46 69 44
338 29 46 69 48
339 29 44 69 48
340 24 68 70 67
341 26 68 70 72
342 26 67 70 72
343 24 68 66 64
344 25 68 66 100
345 25 64 66 100
346 11 257 72 70
347 28 70 72 74
348 12 257 72 74
349 9 71 68 66
350 9 71 68 70
351 24 66 68 70
352 16 140 257 72
353 30 254 257 72
354 30 258 257 72
355 15 140 257 254
356 29 254 257 258
357 15 140 257 258
358 11 569 327 325
359 28 325 327 156
360 12 569 327 156
361 9 152 322 320
362 24 320 322 325
363 9 152 322 325
364 24 321 320 322
365 26 322 320 317
366 26 321 320 317
367 24 326 325 322
368 26 326 325 327
369 26 322 325 327
370 11 84 317 320
371 28 320 317 464
372 12 84 317 464
373 1 204 71 68
374 2 204 71 75
375 2 204 71 101
376 23 68 71 75
377 29 75 71 101
378 23 68 71 101
379 9 328 326 323
380 9 328 326 325
381 24 323 326 325
382 16 568 569 327
383 30 567 569 327
384 30 451 569 327
385 15 568 569 567
386 29 567 569 451
387 15 568 569 451
388 3 569 568 571
389 5 569 568 564
390 4 569 568 565
391 4 571 568 565
392 33 565 568 564
393 5 571 568 564
394 17 568 571 573
395 15 568 571 570
396 15 568 571 566
397 32 570 571 573
398 29 570 571 566
399 32 566 571 573
400 18 568 564 329
401 1 383 328 326
402 2 383 328 385
403 2 383 328 332
404 23 326 328 385
405 29 385 328 332
406 23 326 328 332
407 24 26 22 23
408 25 26 22 20
409 25 23 22 20
410 24 462 255 217
411 25 462 255 256
412 25 217 255 256
413 2 328 383 512
414 29 512 383 381
415 29 512 383 389
416 2 328 383 381
417 29 381 383 389
418 2 328 383 389
419 24 22 23 30
420 25 22 23 21
421 25 30 23 21
422 27 22 26 534
423 27 32 26 534
424 24 22 26 32
425 24 30 33 32
426 25 30 33 36
427 25 32 33 36
428 9 92 112 109
429 24 109 112 91
430 9 92 112 91
431 23 112 92 93
432 23 112 92 94
433 23 112 92 38
434 29 93 92 94
435 29 93 92 38
436 29 94 92 38
437 9 219 424 217
438 24 217 424 423
439 9 219 424 423
440 22 424 219 218
441 23 424 219 221
442 23 424 219 427
443 23 218 219 221
444 29 221 219 427
445 23 218 219 427
446 14 571 573 575
447 9 219 218 425
448 9 219 218 216
449 24 425 218 216
450 18 108 107 96
451 27 135 130 129
452 24 135 130 128
453 27 128 130 129
454 24 255 217 424
455 25 255 217 220
456 25 424 217 220
457 9 262 267 268
458 24 268 267 109
459 9 262 267 109
460 16 4 3 95
461 30 99 3 95
462 30 2 3 95
463 15 4 3 99
464 29 99 3 2
465 15 4 3 2
466 24 218 425 374
467 25 218 425 426
468 25 374 425 426
469 3 105 108 504
470 5 105 108 107
471 4 105 108 19
472 4 504 108 19
473 33 19 108 107
474 5 504 108 107
475 24 371 188 216
476 25 371 188 184
477 25 216 188 184
478 26 267 109 155
479 24 267 109 112
480 26 112 109 155
481 24 425 374 371
482 25 425 374 376
483 25 371 374 376
484 11 3 95 91
485 11 105 95 91
486 10 3 95 105
487 24 218 216 188
488 25 218 216 215
489 25 188 216 215
490 24 462 421 423
491 25 462 421 420
492 25 423 421 420
493 18 4 1 97
494 3 3 4 8
495 5 3 4 1
496 4 3 4 5
497 4 8 4 5
498 33 5 4 1
499 5 8 4 1
500 16 108 105 95
501 30 106 105 95
502 30 104 105 95
503 15 108 105 106
504 29 106 105 104
505 15 108 105 104
506 24 26 32 33
507 25 26 32 535
508 25 33 32 535
509 9 89 111 268
510 9 89 111 91
511 24 268 111 91
512 27 453 575 573
513 24 453 575 577
514 27 577 575 573
515 24 575 577 578
516 25 575 577 574
517 25 578 577 574
518 21 368 367 369
519 32 364 367 369
520 32 365 367 369
521 19 368 367 364
522 29 364 367 365
523 19 368 367 365
524 2 71 204 203
525 29 203 204 202
526 29 203 204 205
527 2 71 204 202
528 29 202 204 205
529 2 71 204 205
530 24 424 423 421
531 25 424 423 422
532 25 421 423 422
533 14 532 534 26
534 24 111 91 112
535 26 111 91 95
536 26 112 91 95
537 14 367 369 371
538 27 374 371 369
539 24 374 371 188
540 27 188 371 369
541 28 109 155 153
542 28 109 155 37
543 35 153 155 37
544 17 108 504 501
545 15 108 504 506
546 15 108 504 582
547 32 506 504 501
548 29 506 504 582
549 32 582 504 501
550 24 130 128 180
551 25 130 128 126
552 25 180 128 126
553 14 131 129 130
554 14 473 467 469
555 14 142 143 146
556 24 469 470 585
557 25 469 470 468
558 25 585 470 468
559 24 470 585 516
560 25 470 585 584
561 25 516 585 584
562 9 515 516 585
563 24 585 516 333
564 9 515 516 333
565 27 470 469 467
566 27 331 469 467
567 24 470 469 331
568 24 469 331 333
569 25 469 331 330
570 25 333 331 330
571 24 475 477 479
572 25 475 477 562
573 25 479 477 562
574 9 515 475 477
575 9 515 475 478
576 24 477 475 478
577 22 516 515 475
578 23 516 515 513
579 23 516 515 514
580 23 475 515 513
581 29 513 515 514
582 23 475 515 514
583 24 516 333 331
584 25 516 333 272
585 25 331 333 272
586 24 475 478 480
587 25 475 478 476
588 25 480 478 476
589 2 345 403 401
590 2 345 403 407
591 2 345 403 399
592 29 401 403 407
593 29 401 403 399
594 29 407 403 399
595 3 41 43 168
596 5 41 43 39
597 4 41 43 170
598 4 168 43 170
599 33 170 43 39
600 5 168 43 39
601 6 523 521 520
602 8 523 521 519
603 7 523 521 525
604 7 520 521 525
605 34 525 521 519
606 8 520 521 519
607 24 482 480 478
608 25 482 480 481
609 25 478 480 481
610 24 477 479 482
611 25 477 479 563
612 25 482 479 563
613 1 162 165 347
614 2 162 165 164
615 2 162 165 166
616 23 347 165 164
617 29 164 165 166
618 23 347 165 166
619 18 247 243 175
620 13 523 519 521
621 17 43 168 169
622 15 43 168 172
623 15 43 168 167
624 32 172 168 169
625 29 172 168 167
626 32 167 168 169
627 24 347 344 349
628 25 347 344 341
629 25 349 344 341
630 31 522 523 519
631 19 521 523 522
632 29 522 523 526
633 31 526 523 519
634 19 521 523 526
635 20 521 523 519
636 9 229 233 232
637 24 232 233 235
638 9 229 233 235
639 24 60 190 186
640 25 60 190 192
641 25 186 190 192
642 31 308 311 313
643 19 312 311 308
644 29 308 311 314
645 31 314 311 313
646 19 312 311 314
647 20 312 311 313
648 2 165 162 160
649 29 160 162 161
650 29 160 162 159
651 2 165 162 161
652 29 161 162 159
653 2 165 162 159
654 13 311 313 312
655 22 233 229 231
656 23 233 229 228
657 23 233 229 226
658 23 231 229 228
659 29 228 229 226
660 23 231 229 226
661 6 311 312 310
662 8 311 312 313
663 7 311 312 315
664 7 310 312 315
665 34 315 312 313
666 8 310 312 313
667 9 165 347 344
668 9 165 347 351
669 24 344 347 351
670 18 43 39 449
671 16 247 244 173
672 30 245 244 173
673 30 242 244 173
674 15 247 244 245
675 29 245 244 242
676 15 247 244 242
677 1 403 345 349
678 23 349 345 346
679 23 349 345 340
680 2 403 345 346
681 29 346 345 340
682 2 403 345 340
683 24 174 176 124
684 25 174 176 120
685 25 124 176 120
686 24 177 124 176
687 25 177 124 127
688 25 176 124 127
689 9 187 185 136
690 9 187 185 180
691 24 136 185 180
692 22 186 187 185
693 23 186 187 189
694 23 186 187 183
695 23 185 187 189
696 29 189 187 183
697 23 185 187 183
698 21 521 520 358
699 19 521 520 518
700 19 521 520 524
701 32 518 520 358
702 29 518 520 524
703 32 524 520 358
704 27 479 482 484
705 24 479 482 480
706 27 480 482 484
707 24 136 135 130
708 25 136 135 137
709 25 130 135 137
710 24 233 235 239
711 25 233 235 236
712 25 239 235 236
713 24 353 350 343
714 25 353 350 517
715 25 343 350 517
716 27 350 353 358
717 27 352 353 358
718 24 350 353 352
719 22 417 581 580
720 23 417 581 460
721 23 417 581 549
722 23 580 581 460
723 29 460 581 549
724 23 580 581 549
725 6 294 123 121
726 8 294 123 291
727 7 294 123 292
728 7 121 123 292
729 34 292 123 291
730 8 121 123 291
731 21 312 310 306
732 19 312 310 309
733 19 312 310 377
734 32 309 310 306
735 29 309 310 377
736 32 377 310 306
737 14 520 358 353
738 31 207 210 213
739 19 211 210 207
740 29 207 210 212
741 31 212 210 213
742 19 211 210 212
743 20 211 210 213
744 14 487 484 482
745 14 121 241 238
746 24 238 239 235
747 25 238 239 240
748 25 235 239 240
749 20 490 492 486
750 19 490 492 493
751 19 490 492 494
752 31 493 492 486
753 29 493 492 494
754 31 494 492 486
755 21 211 208 413
756 19 211 208 206
757 19 211 208 209
758 32 206 208 413
759 29 206 208 209
760 32 209 208 413
761 21 490 487 484
762 32 485 487 484
763 32 491 487 484
764 19 490 487 485
765 29 485 487 491
766 19 490 487 491
767 24 415 418 417
768 25 415 418 419
769 25 417 418 419
770 27 415 414 413
771 27 412 414 413
772 24 415 414 412
773 9 581 417 418
774 24 418 417 455
775 9 581 417 455
776 24 414 415 418
777 25 414 415 416
778 25 418 415 416
779 14 208 413 414
780 24 417 455 412
781 25 417 455 454
782 25 412 455 454
783 24 414 412 455
784 25 414 412 411
785 25 455 412 411
786 6 487 490 492
787 8 487 490 486
788 7 487 490 488
789 7 492 490 488
790 34 488 490 486
791 8 492 490 486
792 6 210 211 208
793 8 210 211 213
794 7 210 211 214
795 7 208 211 214
796 34 214 211 213
797 8 208 211 213
798 13 492 486 490
799 21 123 121 241
800 19 123 121 119
801 19 123 121 122
802 32 119 121 241
803 29 119 121 122
804 32 122 121 241
805 13 210 213 211
806 27 234 238 241
807 27 239 238 241
808 24 234 238 239
809 9 581 580 456
810 9 581 580 578
811 24 456 580 578
812 24 238 234 232
813 25 238 234 118
814 25 232 234 118
815 24 185 136 135
816 25 185 136 191
817 25 135 136 191
818 14 310 306 304
819 24 304 301 298
820 25 304 301 300
821 25 298 301 300
822 17 247 252 461
823 15 247 252 459
824 15 247 252 253
825 32 459 252 461
826 29 459 252 253
827 32 253 252 461
828 24 24 148 146
829 25 24 148 145
830 25 146 148 145
831 27 148 146 143
832 24 148 146 149
833 27 149 146 143
834 24 442 438 435
835 25 442 438 437
836 25 435 438 437
837 13 544 543 405
838 3 244 247 252
839 5 244 247 243
840 4 244 247 246
841 4 252 247 246
842 33 246 247 243
843 5 252 247 243
844 9 187 186 190
845 24 190 186 182
846 9 187 186 182
847 20 405 544 543
848 19 405 544 548
849 19 405 544 541
850 31 548 544 543
851 29 548 544 541
852 31 541 544 543
853 1 510 319 321
854 23 321 319 316
855 23 321 319 465
856 2 510 319 316
857 29 316 319 465
858 2 510 319 465
859 24 58 60 190
860 25 58 60 61
861 25 190 60 61
862 6 406 405 544
863 8 406 405 543
864 7 406 405 538
865 7 544 405 538
866 34 538 405 543
867 8 544 405 543
868 21 79 55 59
869 19 79 55 54
870 19 79 55 52
871 32 54 55 59
872 29 54 55 52
873 32 52 55 59
874 9 229 231 201
875 9 229 231 445
876 24 201 231 445
877 27 60 58 59
878 27 181 58 59
879 24 60 58 181
880 6 78 79 55
881 8 78 79 77
882 7 78 79 81
883 7 55 79 81
884 34 81 79 77
885 8 55 79 77
886 14 55 59 58
887 13 78 77 79
888 24 186 182 181
889 25 186 182 178
890 25 181 182 178
891 24 58 181 182
892 25 58 181 51
893 25 182 181 51
894 24 231 445 397
895 25 231 445 444
896 25 397 445 444
897 31 80 78 77
898 19 79 78 80
899 29 80 78 76
900 31 76 78 77
901 19 79 78 76
902 20 79 78 77
903 24 201 404 400
904 25 201 404 409
905 25 400 404 409
906 21 405 406 402
907 32 410 406 402
908 32 408 406 402
909 19 405 406 410
910 29 410 406 408
911 19 405 406 408
912 14 406 402 400
913 2 319 510 583
914 2 319 510 509
915 2 319 510 511
916 29 583 510 509
917 29 583 510 511
918 29 509 510 511
919 27 404 400 402
920 24 404 400 397
921 27 397 400 402
922 24 400 397 445
923 25 400 397 396
924 25 445 397 396
925 31 198 196 199
926 19 197 196 198
927 29 198 196 194
928 31 194 196 199
929 19 197 196 194
930 20 197 196 199
931 24 231 201 404
932 25 231 201 237
933 25 404 201 237
934 24 29 25 149
935 25 29 25 27
936 25 149 25 27
937 13 196 199 197
938 17 86 561 558
939 15 86 561 90
940 15 86 561 537
941 32 90 561 558
942 29 90 561 537
943 32 537 561 558
944 6 196 197 195
945 8 196 197 199
946 7 196 197 200
947 7 195 197 200
948 34 200 197 199
949 8 195 197 199
950 24 146 149 25
951 25 146 149 147
952 25 25 149 147
953 9 31 29 24
954 9 31 29 25
955 24 24 29 25
956 21 197 195 394
957 19 197 195 163
958 19 197 195 398
959 32 163 195 394
960 29 163 195 398
961 32 398 195 394
962 16 86 84 317
963 30 82 84 317
964 30 552 84 317
965 15 86 84 82
966 29 82 84 552
967 15 86 84 552
968 24 438 435 436
969 25 438 435 433
970 25 436 435 433
971 9 434 555 553
972 9 434 555 557
973 24 553 555 557
974 14 504 501 500
975 27 503 500 501
976 24 503 500 498
977 27 498 500 501
978 24 555 557 560
979 25 555 557 440
980 25 560 557 440
981 24 580 578 577
982 25 580 578 579
983 25 577 578 579
984 27 438 442 394
985 27 393 442 394
986 24 438 442 393
987 24 234 232 233
988 25 234 232 230
989 25 233 232 230
990 24 502 503 500
991 25 502 503 505
992 25 500 503 505
993 24 29 24 148
994 25 29 24 28
995 25 148 24 28
996 1 263 262 267
997 23 267 262 261
998 23 267 262 260
999 2 263 262 261
1000 29 261 262 260
1001 2 263 262 260
1002 9 31 30 23
1003 24 23 30 33
1004 9 31 30 33
1005 9 434 436 435
1006 24 435 436 439
1007 9 434 436 439
1008 24 555 553 554
1009 25 555 553 550
1010 25 554 553 550
1011 24 299 302 305
1012 25 299 302 303
1013 25 305 302 303
1014 24 304 305 302
1015 25 304 305 307
1016 25 302 305 307
1017 9 295 299 298
1018 24 298 299 302
1019 9 295 299 302
1020 24 436 439 393
1021 25 436 439 441
1022 25 393 439 441
1023 24 499 497 498
1024 25 499 497 495
1025 25 498 497 495
1026 24 556 560 557
1027 25 556 560 536
1028 25 557 560 536
1029 22 30 31 29
1030 23 30 31 35
1031 23 30 31 34
1032 23 29 31 35
1033 29 35 31 34
1034 23 29 31 34
1035 24 301 298 299
1036 25 301 298 296
1037 25 299 298 296
1038 24 499 502 503
1039 25 499 502 463
1040 25 503 502 463
1041 24 111 268 267
1042 25 111 268 266
1043 25 267 268 266
1044 27 301 304 306
1045 27 305 304 306
1046 24 301 304 305
1047 24 500 498 497
1048 25 500 498 496
1049 25 497 498 496
1050 1 85 89 111
1051 2 85 89 225
1052 2 85 89 62
1053 23 111 89 225
1054 29 225 89 62
1055 23 111 89 62
1056 2 262 263 264
1057 2 262 263 259
1058 2 262 263 265
1059 29 264 263 259
1060 29 264 263 265
1061 29 259 263 265
1062 9 295 499 502
1063 9 295 499 497
1064 24 502 499 497
1065 24 553 554 556
1066 25 553 554 551
1067 25 556 554 551
1068 24 442 393 439
1069 25 442 393 395
1070 25 439 393 395
1071 22 299 295 499
1072 23 299 295 293
1073 23 299 295 458
1074 23 499 295 293
1075 29 293 295 458
1076 23 499 295 458
1077 14 195 394 442
1078 27 554 556 558
1079 24 554 556 560
1080 27 560 556 558
1081 14 561 558 556
1082 22 436 434 555
1083 23 436 434 431
1084 23 436 434 429
1085 23 555 434 431
1086 29 431 434 429
1087 23 555 434 429
1088 9 345 349 344
1089 24 344 349 354
1090 9 345 349 354

Dihedrals

1 26 280 283 281 278
2 30 281 283 285 286
3 30 280 283 285 286
4 26 276 278 281 283
5 30 276 278 116 227
6 30 276 278 116 114
7 30 281 278 116 227
8 30 281 278 116 114
9 26 276 277 280 283
10 26 280 277 276 278
11 10 282 280 277 276
12 25 277 280 282 279
13 25 277 280 282 483
14 26 277 280 283 281
15 11 282 280 277 275
16 27 283 280 277 275
17 25 283 280 282 279
18 25 283 280 282 483
19 10 282 280 283 281
20 12 282 280 283 285
21 28 277 280 283 285
22 10 274 276 277 280
23 11 274 276 277 275
24 10 274 276 278 281
25 12 274 276 278 116
26 25 277 276 274 117
27 25 278 276 274 117
28 25 277 276 274 273
29 25 278 276 274 273
30 26 277 276 278 281
31 28 277 276 278 116
32 27 278 276 277 275
33 1 113 274 276 277
34 1 113 274 276 278
35 23 276 274 113 115
36 23 276 274 113 158
37 23 276 274 113 157
38 26 177 49 47 174
39 27 177 49 47 45
40 44 50 49 47 45
41 26 47 49 177 124
42 10 56 15 17 14
43 25 17 15 56 132
44 25 17 15 56 57
45 26 17 15 13 11
46 27 17 15 13 53
47 11 56 15 17 18
48 27 13 15 17 18
49 25 13 15 56 132
50 25 13 15 56 57
51 11 56 15 13 53
52 10 56 15 13 11
53 10 447 281 278 276
54 10 447 281 283 280
55 25 283 281 447 446
56 25 283 281 447 450
57 25 283 281 447 448
58 28 283 281 278 116
59 25 278 281 447 446
60 25 278 281 447 450
61 25 278 281 447 448
62 12 447 281 278 116
63 12 447 281 283 285
64 28 278 281 283 285
65 10 361 356 351 347
66 10 361 356 354 349
67 25 354 356 361 363
68 25 354 356 361 360
69 25 354 356 361 362
70 25 351 356 361 363
71 25 351 356 361 360
72 25 351 356 361 362
73 12 361 356 351 173
74 28 354 356 351 173
75 12 361 356 354 357
76 28 351 356 354 357
77 33 115 113 274 117
78 33 115 113 274 273
79 33 158 113 274 117
80 33 158 113 274 273
81 33 157 113 274 117
82 33 157 113 274 273
83 15 223 357 354 356
84 31 354 357 223 224
85 31 354 357 223 222
86 15 223 357 354 349
87 26 349 354 356 351
88 30 356 354 357 359
89 30 349 354 357 359
90 26 347 351 356 354
91 30 356 351 173 171
92 30 347 351 173 171
93 18 379 223 357 354
94 46 357 223 379 193
95 19 379 223 357 359
96 38 224 223 357 359
97 38 222 223 357 359
98 35 224 223 379 193
99 34 224 223 379 378
100 35 222 223 379 193
101 34 222 223 379 378
102 29 49 47 174 169
103 26 49 47 174 176
104 27 174 47 49 50
105 45 45 47 174 169
106 24 177 56 15 17
107 24 15 56 177 49
108 24 15 56 177 124
109 24 177 56 15 13
110 10 56 177 49 47
111 11 56 177 49 50
112 10 56 177 124 176
113 11 56 177 124 127
114 25 49 177 56 132
115 25 124 177 56 132
116 25 49 177 56 57
117 25 124 177 56 57
118 26 49 177 124 176
119 27 49 177 124 127
120 27 124 177 49 50
121 26 14 17 15 13
122 27 15 17 14 16
123 15 244 173 351 356
124 31 351 173 244 245
125 31 351 173 244 242
126 15 244 173 351 347
127 26 47 174 176 124
128 27 47 174 176 120
129 27 176 174 47 45
130 37 271 269 472 466
131 36 271 269 472 474
132 37 270 269 472 466
133 36 270 269 472 474
134 18 43 41 285 283
135 46 285 41 43 39
136 19 43 41 285 286
137 38 40 41 285 286
138 38 42 41 285 286
139 35 40 41 43 39
140 34 40 41 43 170
141 35 42 41 43 39
142 34 42 41 43 170
143 33 110 85 89 225
144 33 110 85 89 62
145 33 83 85 89 225
146 33 83 85 89 62
147 33 87 85 89 225
148 33 87 85 89 62
149 15 41 285 283 281
150 31 283 285 41 40
151 31 283 285 41 42
152 15 41 285 283 280
153 21 472 473 467 469
154 36 471 473 472 474
155 36 443 473 472 474
156 37 471 473 472 466
157 37 443 473 472 466
158 3 561 86 84 317
159 39 88 86 84 317
160 4 84 86 561 558
161 2 84 86 561 90
162 2 84 86 561 537
163 5 84 86 559 318
164 2 561 86 84 82
165 2 561 86 84 552
166 40 88 86 561 558
167 41 88 86 559 318
168 5 561 86 559 318
169 27 15 13 11 10
170 44 53 13 11 10
171 17 168 169 174 47
172 17 168 169 174 176
173 32 174 169 168 167
174 32 174 169 168 172
175 26 185 180 128 130
176 27 185 180 128 126
177 20 379 430 380 384
178 34 428 430 379 378
179 34 432 430 379 378
180 48 380 430 379 193
181 35 428 430 379 193
182 35 432 430 379 193
183 1 287 282 280 277
184 23 280 282 287 289
185 23 280 282 287 288
186 23 280 282 287 489
187 1 287 282 280 283
188 33 279 282 287 289
189 33 279 282 287 288
190 33 279 282 287 489
191 33 483 282 287 289
192 33 483 282 287 288
193 33 483 282 287 489
194 29 17 14 12 9
195 45 16 14 12 9
196 26 12 14 17 15
197 27 12 14 17 18
198 44 16 14 17 18
199 26 17 14 12 11
200 9 473 472 466 269
201 8 269 472 473 467
202 6 269 472 473 471
203 6 269 472 473 443
204 6 473 472 269 271
205 6 473 472 269 270
206 42 474 472 269 466
207 43 474 472 473 467
208 47 466 472 473 467
209 7 473 472 269 466
210 3 430 379 223 357
211 39 378 379 223 357
212 4 223 379 430 380
213 2 223 379 430 428
214 2 223 379 430 432
215 5 223 379 193 355
216 2 430 379 223 224
217 2 430 379 223 222
218 40 378 379 430 380
219 41 378 379 193 355
220 5 430 379 193 355
221 29 348 352 353 358
222 45 290 352 353 358
223 26 353 352 348 342
224 27 353 352 348 284
225 17 430 380 384 386
226 17 430 380 384 388
227 32 384 380 430 432
228 32 384 380 430 428
229 16 269 466 472 474
230 22 472 466 269 271
231 22 472 466 269 270
232 8 250 251 131 129
233 47 125 251 131 129
234 43 248 251 131 129
235 7 131 251 250 125
236 6 131 251 250 103
237 6 131 251 250 102
238 9 131 251 125 250
239 6 250 251 131 134
240 6 250 251 131 133
241 42 248 251 250 125
242 21 251 131 129 130
243 37 134 131 251 125
244 36 134 131 251 248
245 37 133 131 251 125
246 36 133 131 251 248
247 9 532 531 527 528
248 8 528 531 532 534
249 6 528 531 532 508
250 6 528 531 532 530
251 6 532 531 528 507
252 6 532 531 528 529
253 42 533 531 528 527
254 43 533 531 532 534
255 47 527 531 532 534
256 7 532 531 528 527
257 16 528 527 531 533
258 22 531 527 528 507
259 22 531 527 528 529
260 37 507 528 531 527
261 36 507 528 531 533
262 37 529 528 531 527
263 36 529 528 531 533
264 10 337 342 343 350
265 25 343 342 337 338
266 25 343 342 337 336
267 26 343 342 348 352
268 27 343 342 348 284
269 11 337 342 343 339
270 27 348 342 343 339
271 25 348 342 337 338
272 25 348 342 337 336
273 11 337 342 348 284
274 10 337 342 348 352
275 29 13 11 12 9
276 45 10 11 12 9
277 26 12 11 13 15
278 27 12 11 13 53
279 26 14 12 11 13
280 27 14 12 11 10
281 27 11 12 14 16
282 26 334 390 386 384
283 27 334 390 386 382
284 44 391 390 386 382
285 26 386 390 334 392
286 26 386 384 388 392
287 27 386 384 388 387
288 27 388 384 386 382
289 27 384 388 392 335
290 45 387 388 384 380
291 44 387 388 392 335
292 29 392 388 384 380
293 26 334 392 388 384
294 27 334 392 388 387
295 10 337 334 390 386
296 11 337 334 390 391
297 10 337 334 392 388
298 11 337 334 392 335
299 25 390 334 337 338
300 25 392 334 337 338
301 25 390 334 337 336
302 25 392 334 337 336
303 26 390 334 392 388
304 27 390 334 392 335
305 27 392 334 390 391
306 29 390 386 384 380
307 26 390 386 384 388
308 27 384 386 390 391
309 45 382 386 384 380
310 24 334 337 342 343
311 24 342 337 334 390
312 24 342 337 334 392
313 24 334 337 342 348
314 17 8 9 12 14
315 17 8 9 12 11
316 32 12 9 8 6
317 32 12 9 8 7
318 27 342 348 352 290
319 44 284 348 352 290
320 22 251 125 250 103
321 22 251 125 250 102
322 16 250 125 251 248
323 26 350 343 342 348
324 27 342 343 350 517
325 36 103 250 251 248
326 36 102 250 251 248
327 37 103 250 251 125
328 37 102 250 251 125
329 21 531 532 534 26
330 36 508 532 531 533
331 36 530 532 531 533
332 37 508 532 531 527
333 37 530 532 531 527
334 36 375 372 368 366
335 36 373 372 368 366
336 37 375 372 368 370
337 37 373 372 368 370
338 37 297 294 123 291
339 36 297 294 123 292
340 37 249 294 123 291
341 36 249 294 123 292
342 20 4 8 9 12
343 34 7 8 4 5
344 34 6 8 4 5
345 48 9 8 4 1
346 35 7 8 4 1
347 35 6 8 4 1
348 16 294 291 123 292
349 22 123 291 294 297
350 22 123 291 294 249
351 8 372 368 367 369
352 47 370 368 367 369
353 43 366 368 367 369
354 7 367 368 372 370
355 6 367 368 372 375
356 6 367 368 372 373
357 9 367 368 370 372
358 6 372 368 367 364
359 6 372 368 367 365
360 42 366 368 372 370
361 22 368 370 372 375
362 22 368 370 372 373
363 16 372 370 368 366
364 26 580 456 453 575
365 27 580 456 453 452
366 44 457 456 453 452
367 26 453 456 580 578
368 29 456 453 575 573
369 26 456 453 575 577
370 27 575 453 456 457
371 45 452 453 575 573
372 20 140 142 143 146
373 34 144 142 140 138
374 34 141 142 140 138
375 48 143 142 140 139
376 35 144 142 140 139
377 35 141 142 140 139
378 3 142 140 257 72
379 39 138 140 257 72
380 4 257 140 142 143
381 2 257 140 142 144
382 2 257 140 142 141
383 5 257 140 139 73
384 2 142 140 257 254
385 2 142 140 257 258
386 40 138 140 142 143
387 41 138 140 139 73
388 5 142 140 139 73
389 17 252 461 462 255
390 17 252 461 462 421
391 32 462 461 252 253
392 32 462 461 252 459
393 10 319 321 323 326
394 25 323 321 319 316
395 25 323 321 319 465
396 26 323 321 320 322
397 11 319 321 323 324
398 27 320 321 323 324
399 25 320 321 319 316
400 25 320 321 319 465
401 10 319 321 320 322
402 12 319 321 320 317
403 28 323 321 320 317
404 26 255 462 421 423
405 27 255 462 421 420
406 27 421 462 255 256
407 26 326 323 321 320
408 26 321 323 326 325
409 1 545 63 64 66
410 23 64 63 545 576
411 23 64 63 545 572
412 23 64 63 545 546
413 1 545 63 64 65
414 33 98 63 545 576
415 33 98 63 545 572
416 33 98 63 545 546
417 33 539 63 545 576
418 33 539 63 545 572
419 33 539 63 545 546
420 30 64 65 542 547
421 30 64 65 542 540
422 26 64 65 67 70
423 30 67 65 542 547
424 30 67 65 542 540
425 10 63 64 66 68
426 25 66 64 63 98
427 25 66 64 63 539
428 28 66 64 65 542
429 26 66 64 65 67
430 11 63 64 66 100
431 27 65 64 66 100
432 25 65 64 63 98
433 25 65 64 63 539
434 10 63 64 65 67
435 12 63 64 65 542
436 10 69 67 70 68
437 10 69 67 65 64
438 25 65 67 69 46
439 25 65 67 69 44
440 25 65 67 69 48
441 28 70 67 65 542
442 25 70 67 69 46
443 25 70 67 69 44
444 25 70 67 69 48
445 12 69 67 65 542
446 12 69 67 70 72
447 28 65 67 70 72
448 26 68 70 67 65
449 30 68 70 72 74
450 30 67 70 72 74
451 26 68 66 64 65
452 26 64 66 68 70
453 15 257 72 70 68
454 31 70 72 257 254
455 31 70 72 257 258
456 15 257 72 70 67
457 10 71 68 66 64
458 11 71 68 66 100
459 10 71 68 70 67
460 25 66 68 71 75
461 25 70 68 71 75
462 25 66 68 71 101
463 25 70 68 71 101
464 26 66 68 70 67
465 27 70 68 66 100
466 12 71 68 70 72
467 28 66 68 70 72
468 18 140 257 72 70
469 46 72 257 140 139
470 19 140 257 72 74
471 38 254 257 72 74
472 38 258 257 72 74
473 35 254 257 140 139
474 34 254 257 140 138
475 35 258 257 140 139
476 34 258 257 140 138
477 15 569 327 325 326
478 31 325 327 569 567
479 31 325 327 569 451
480 15 569 327 325 322
481 10 152 322 325 326
482 10 152 322 320 321
483 25 320 322 152 154
484 25 320 322 152 151
485 25 320 322 152 150
486 25 325 322 152 154
487 25 325 322 152 151
488 25 325 322 152 150
489 12 152 322 320 317
490 28 325 322 320 317
491 12 152 322 325 327
492 28 320 322 325 327
493 26 321 320 322 325
494 30 322 320 317 464
495 30 321 320 317 464
496 26 326 325 322 320
497 30 326 325 327 156
498 30 322 325 327 156
499 15 84 317 320 322
500 31 320 317 84 82
501 31 320 317 84 552
502 15 84 317 320 321
503 1 204 71 68 66
504 1 204 71 68 70
505 23 68 71 204 203
506 23 68 71 204 202
507 23 68 71 204 205
508 10 328 326 323 321
509 11 328 326 323 324
510 10 328 326 325 322
511 25 323 326 328 385
512 25 325 326 328 385
513 25 323 326 328 332
514 25 325 326 328 332
515 26 323 326 325 322
516 27 325 326 323 324
517 12 328 326 325 327
518 28 323 326 325 327
519 18 568 569 327 325
520 46 327 569 568 564
521 19 568 569 327 156
522 38 567 569 327 156
523 38 451 569 327 156
524 35 567 569 568 564
525 34 567 569 568 565
526 35 451 569 568 564
527 34 451 569 568 565
528 3 571 568 569 327
529 39 565 568 569 327
530 4 569 568 571 573
531 2 569 568 571 570
532 2 569 568 571 566
533 5 569 568 564 329
534 2 571 568 569 567
535 2 571 568 569 451
536 40 565 568 571 573
537 41 565 568 564 329
538 5 571 568 564 329
539 20 568 571 573 575
540 34 570 571 568 565
541 34 566 571 568 565
542 48 573 571 568 564
543 35 570 571 568 564
544 35 566 571 568 564
545 1 383 328 326 323
546 1 383 328 326 325
547 23 326 328 383 512
548 23 326 328 383 381
549 23 326 328 383 389
550 29 23 22 26 534
551 45 20 22 26 534
552 26 26 22 23 30
553 27 26 22 23 21
554 44 20 22 23 21
555 26 23 22 26 32
556 29 217 255 462 461
557 45 256 255 462 461
558 26 462 255 217 424
559 27 462 255 217 220
560 44 256 255 217 220
561 26 217 255 462 421
562 33 512 383 328 385
563 33 512 383 328 332
564 33 381 383 328 385
565 33 381 383 328 332
566 33 389 383 328 385
567 33 389 383 328 332
568 26 22 23 30 33
569 27 30 23 22 20
570 26 22 26 32 33
571 27 22 26 32 535
572 27 32 26 22 20
573 27 30 33 32 535
574 44 36 33 32 535
575 10 92 112 91 111
576 10 92 112 109 267
577 25 109 112 92 93
578 25 109 112 92 94
579 25 109 112 92 38
580 28 91 112 109 155
581 25 91 112 92 93
582 25 91 112 92 94
583 25 91 112 92 38
584 12 92 112 109 155
585 12 92 112 91 95
586 28 109 112 91 95
587 10 219 424 217 255
588 25 217 424 219 221
589 25 217 424 219 427
590 26 217 424 423 421
591 27 217 424 423 422
592 11 219 424 217 220
593 27 423 424 217 220
594 25 423 424 219 221
595 25 423 424 219 427
596 11 219 424 423 422
597 10 219 424 423 421
598 24 218 219 424 217
599 24 424 219 218 425
600 24 424 219 218 216
601 24 218 219 424 423
602 17 571 573 575 453
603 17 571 573 575 577
604 32 575 573 571 566
605 32 575 573 571 570
606 10 219 218 425 374
607 11 219 218 425 426
608 10 219 218 216 188
609 11 219 218 216 215
610 25 425 218 219 221
611 25 216 218 219 221
612 25 425 218 219 427
613 25 216 218 219 427
614 26 425 218 216 188
615 27 425 218 216 215
616 27 216 218 425 426
617 26 135 130 128 180
618 27 135 130 128 126
619 27 128 130 135 137
620 26 255 217 424 423
621 27 424 217 255 256
622 10 262 267 268 111
623 25 268 267 262 261
624 25 268 267 262 260
625 28 268 267 109 155
626 26 268 267 109 112
627 11 262 267 268 266
628 27 109 267 268 266
629 25 109 267 262 261
630 25 109 267 262 260
631 10 262 267 109 112
632 12 262 267 109 155
633 18 4 3 95 91
634 46 95 3 4 1
635 35 99 3 4 1
636 34 99 3 4 5
637 35 2 3 4 1
638 34 2 3 4 5
639 26 218 425 374 371
640 27 218 425 374 376
641 44 426 425 374 376
642 26 374 425 218 216
643 3 504 108 105 95
644 39 19 108 105 95
645 4 105 108 504 501
646 2 105 108 504 506
647 2 105 108 504 582
648 5 105 108 107 96
649 2 504 108 105 106
650 2 504 108 105 104
651 40 19 108 504 501
652 41 19 108 107 96
653 5 504 108 107 96
654 27 371 188 216 215
655 45 184 188 371 369
656 44 184 188 216 215
657 29 216 188 371 369
658 30 267 109 155 153
659 30 267 109 155 37
660 26 267 109 112 91
661 30 112 109 155 153
662 30 112 109 155 37
663 29 425 374 371 369
664 26 425 374 371 188
665 27 371 374 425 426
666 45 376 374 371 369
667 15 3 95 91 111
668 15 105 95 91 111
669 15 3 95 91 112
670 15 105 95 91 112
671 31 91 95 3 99
672 31 91 95 3 2
673 31 91 95 105 106
674 31 91 95 105 104
675 13 3 95 105 108
676 14 3 95 105 106
677 14 3 95 105 104
678 14 105 95 3 99
679 14 105 95 3 2
680 13 105 95 3 4
681 26 218 216 188 371
682 27 218 216 188 184
683 29 423 421 462 461
684 45 420 421 462 461
685 26 462 421 423 424
686 27 462 421 423 422
687 4 3 4 8 9
688 2 3 4 8 7
689 2 3 4 8 6
690 40 5 4 8 9
691 3 8 4 3 95
692 39 5 4 3 95
693 5 8 4 1 97
694 41 5 4 1 97
695 2 8 4 3 2
696 5 3 4 1 97
697 2 8 4 3 99
698 18 108 105 95 91
699 46 95 105 108 107
700 35 106 105 108 107
701 34 106 105 108 19
702 35 104 105 108 107
703 34 104 105 108 19
704 29 33 32 26 534
705 45 535 32 26 534
706 26 26 32 33 30
707 27 26 32 33 36
708 10 89 111 268 267
709 11 89 111 268 266
710 10 89 111 91 112
711 25 268 111 89 225
712 25 91 111 89 225
713 25 268 111 89 62
714 25 91 111 89 62
715 26 268 111 91 112
716 27 91 111 268 266
717 28 268 111 91 95
718 12 89 111 91 95
719 26 453 575 577 578
720 27 453 575 577 574
721 27 577 575 453 452
722 27 575 577 578 579
723 45 574 577 575 573
724 44 574 577 578 579
725 29 578 577 575 573
726 21 368 367 369 371
727 37 364 367 368 370
728 36 364 367 368 366
729 37 365 367 368 370
730 36 365 367 368 366
731 33 203 204 71 75
732 33 203 204 71 101
733 33 202 204 71 75
734 33 202 204 71 101
735 33 205 204 71 75
736 33 205 204 71 101
737 27 424 423 421 420
738 44 422 423 421 420
739 17 532 534 26 22
740 17 532 534 26 32
741 32 26 534 532 508
742 32 26 534 532 530
743 26 111 91 112 109
744 17 367 369 371 374
745 32 371 369 367 364
746 32 371 369 367 365
747 17 367 369 371 188
748 26 374 371 188 216
749 27 374 371 188 184
750 27 188 371 374 376
751 20 108 504 501 500
752 34 506 504 108 19
753 34 582 504 108 19
754 48 501 504 108 107
755 35 506 504 108 107
756 35 582 504 108 107
757 27 130 128 180 179
758 45 126 128 130 129
759 44 126 128 180 179
760 29 180 128 130 129
761 17 131 129 130 135
762 32 130 129 131 134
763 32 130 129 131 133
764 17 131 129 130 128
765 17 473 467 469 470
766 17 473 467 469 331
767 32 469 467 473 471
768 32 469 467 473 443
769 17 142 143 146 148
770 17 142 143 146 149
771 32 146 143 142 141
772 32 146 143 142 144
773 29 585 470 469 467
774 45 468 470 469 467
775 26 469 470 585 516
776 27 469 470 585 584
777 44 468 470 585 584
778 26 585 470 469 331
779 26 470 585 516 333
780 27 516 585 470 468
781 10 515 516 585 470
782 25 585 516 515 513
783 25 585 516 515 514
784 26 585 516 333 331
785 27 585 516 333 272
786 11 515 516 585 584
787 27 333 516 585 584
788 25 333 516 515 513
789 25 333 516 515 514
790 11 515 516 333 272
791 10 515 516 333 331
792 26 470 469 331 333
793 27 470 469 331 330
794 27 331 469 470 468
795 29 333 331 469 467
796 45 330 331 469 467
797 26 469 331 333 516
798 27 469 331 333 272
799 26 475 477 479 482
800 27 475 477 479 563
801 44 562 477 479 563
802 26 479 477 475 478
803 10 515 475 477 479
804 11 515 475 477 562
805 10 515 475 478 480
806 11 515 475 478 476
807 25 477 475 515 513
808 25 478 475 515 513
809 25 477 475 515 514
810 25 478 475 515 514
811 26 477 475 478 480
812 27 477 475 478 476
813 27 478 475 477 562
814 24 475 515 516 585
815 24 516 515 475 477
816 24 516 515 475 478
817 24 475 515 516 333
818 27 516 333 331 330
819 44 272 333 331 330
820 26 475 478 480 482
821 27 475 478 480 481
822 3 168 43 41 285
823 39 170 43 41 285
824 4 41 43 168 169
825 2 41 43 168 172
826 2 41 43 168 167
827 5 41 43 39 449
828 2 168 43 41 40
829 2 168 43 41 42
830 40 170 43 168 169
831 41 170 43 39 449
832 5 168 43 39 449
833 9 520 521 519 523
834 8 523 521 520 358
835 6 523 521 520 518
836 6 523 521 520 524
837 6 520 521 523 522
838 6 520 521 523 526
839 42 525 521 523 519
840 43 525 521 520 358
841 47 519 521 520 358
842 7 520 521 523 519
843 27 482 480 478 476
844 45 481 480 482 484
845 44 481 480 478 476
846 29 478 480 482 484
847 29 477 479 482 484
848 26 477 479 482 480
849 27 482 479 477 562
850 45 563 479 482 484
851 1 162 165 347 344
852 1 162 165 347 351
853 23 347 165 162 160
854 23 347 165 162 161
855 23 347 165 162 159
856 16 523 519 521 525
857 22 521 519 523 522
858 22 521 519 523 526
859 20 43 168 169 174
860 34 172 168 43 170
861 34 167 168 43 170
862 48 169 168 43 39
863 35 172 168 43 39
864 35 167 168 43 39
865 26 347 344 349 354
866 26 349 344 347 351
867 37 522 523 521 519
868 36 522 523 521 525
869 37 526 523 521 519
870 36 526 523 521 525
871 10 229 233 232 234
872 25 232 233 229 228
873 25 232 233 229 226
874 26 232 233 235 239
875 27 232 233 235 236
876 11 229 233 232 230
877 27 235 233 232 230
878 25 235 233 229 228
879 25 235 233 229 226
880 11 229 233 235 236
881 10 229 233 235 239
882 26 60 190 186 182
883 27 186 190 60 61
884 37 308 311 312 313
885 36 308 311 312 315
886 37 314 311 312 313
887 36 314 311 312 315
888 33 160 162 165 164
889 33 160 162 165 166
890 33 161 162 165 164
891 33 161 162 165 166
892 33 159 162 165 164
893 33 159 162 165 166
894 16 311 313 312 315
895 22 312 313 311 308
896 22 312 313 311 314
897 24 231 229 233 232
898 24 233 229 231 201
899 24 233 229 231 445
900 24 231 229 233 235
901 9 310 312 313 311
902 8 311 312 310 306
903 6 311 312 310 309
904 6 311 312 310 377
905 6 310 312 311 308
906 6 310 312 311 314
907 42 315 312 311 313
908 43 315 312 310 306
909 47 313 312 310 306
910 7 310 312 311 313
911 10 165 347 344 349
912 11 165 347 344 341
913 10 165 347 351 356
914 25 344 347 165 164
915 25 351 347 165 164
916 25 344 347 165 166
917 25 351 347 165 166
918 26 344 347 351 356
919 27 351 347 344 341
920 12 165 347 351 173
921 28 344 347 351 173
922 18 247 244 173 351
923 46 173 244 247 243
924 19 247 244 173 171
925 38 245 244 173 171
926 38 242 244 173 171
927 35 245 244 247 243
928 34 245 244 247 246
929 35 242 244 247 243
930 34 242 244 247 246
931 1 403 345 349 344
932 23 349 345 403 401
933 23 349 345 403 407
934 23 349 345 403 399
935 1 403 345 349 354
936 33 346 345 403 401
937 33 346 345 403 407
938 33 346 345 403 399
939 33 340 345 403 401
940 33 340 345 403 407
941 33 340 345 403 399
942 27 174 176 124 127
943 45 120 176 174 169
944 44 120 176 124 127
945 29 124 176 174 169
946 26 177 124 176 174
947 27 177 124 176 120
948 10 187 185 136 135
949 11 187 185 136 191
950 10 187 185 180 128
951 11 187 185 180 179
952 25 136 185 187 189
953 25 180 185 187 189
954 25 136 185 187 183
955 25 180 185 187 183
956 26 136 185 180 128
957 27 136 185 180 179
958 27 180 185 136 191
959 24 185 187 186 190
960 24 186 187 185 136
961 24 186 187 185 180
962 24 185 187 186 182
963 21 521 520 358 353
964 36 518 520 521 525
965 36 524 520 521 525
966 37 518 520 521 519
967 37 524 520 521 519
968 26 479 482 480 478
969 27 479 482 480 481
970 27 480 482 479 563
971 29 136 135 130 129
972 26 136 135 130 128
973 27 130 135 136 191
974 45 137 135 130 129
975 27 233 235 239 240
976 44 236 235 239 240
977 29 343 350 353 358
978 45 517 350 353 358
979 26 353 350 343 342
980 27 353 350 343 339
981 44 517 350 343 339
982 26 343 350 353 352
983 26 350 353 352 348
984 27 350 353 352 290
985 27 352 353 350 517
986 24 580 581 417 418
987 24 417 581 580 456
988 24 417 581 580 578
989 24 580 581 417 455
990 9 121 123 291 294
991 8 294 123 121 241
992 6 294 123 121 119
993 6 294 123 121 122
994 6 121 123 294 297
995 6 121 123 294 249
996 42 292 123 294 291
997 43 292 123 121 241
998 47 291 123 121 241
999 7 121 123 294 291
1000 21 312 310 306 304
1001 36 309 310 312 315
1002 36 377 310 312 315
1003 37 309 310 312 313
1004 37 377 310 312 313
1005 17 520 358 353 350
1006 17 520 358 353 352
1007 32 353 358 520 518
1008 32 353 358 520 524
1009 37 207 210 211 213
1010 36 207 210 211 214
1011 37 212 210 211 213
1012 36 212 210 211 214
1013 17 487 484 482 479
1014 32 482 484 487 485
1015 32 482 484 487 491
1016 17 487 484 482 480
1017 17 121 241 238 234
1018 17 121 241 238 239
1019 32 238 241 121 119
1020 32 238 241 121 122
1021 29 235 239 238 241
1022 45 240 239 238 241
1023 26 238 239 235 233
1024 27 238 239 235 236
1025 36 493 492 490 488
1026 36 494 492 490 488
1027 37 493 492 490 486
1028 37 494 492 490 486
1029 21 211 208 413 414
1030 36 206 208 211 214
1031 36 209 208 211 214
1032 37 206 208 211 213
1033 37 209 208 211 213
1034 21 490 487 484 482
1035 37 485 487 490 486
1036 36 485 487 490 488
1037 37 491 487 490 486
1038 36 491 487 490 488
1039 26 415 418 417 455
1040 27 417 418 415 416
1041 26 415 414 412 455
1042 27 415 414 412 411
1043 27 412 414 415 416
1044 10 581 417 418 415
1045 25 418 417 581 460
1046 25 418 417 581 549
1047 26 418 417 455 412
1048 27 418 417 455 454
1049 11 581 417 418 419
1050 27 455 417 418 419
1051 25 455 417 581 460
1052 25 455 417 581 549
1053 11 581 417 455 454
1054 10 581 417 455 412
1055 29 418 415 414 413
1056 45 416 415 414 413
1057 26 414 415 418 417
1058 27 414 415 418 419
1059 44 416 415 418 419
1060 26 418 415 414 412
1061 17 208 413 414 415
1062 17 208 413 414 412
1063 32 414 413 208 206
1064 32 414 413 208 209
1065 27 417 455 412 411
1066 44 454 455 412 411
1067 29 455 412 414 413
1068 45 411 412 414 413
1069 26 414 412 455 417
1070 27 414 412 455 454
1071 8 492 490 487 484
1072 47 486 490 487 484
1073 43 488 490 487 484
1074 7 487 490 492 486
1075 6 487 490 492 493
1076 6 487 490 492 494
1077 9 487 490 486 492
1078 6 492 490 487 485
1079 6 492 490 487 491
1080 42 488 490 492 486
1081 9 208 211 213 210
1082 8 210 211 208 413
1083 6 210 211 208 206
1084 6 210 211 208 209
1085 6 208 211 210 207
1086 6 208 211 210 212
1087 42 214 211 210 213
1088 43 214 211 208 413
1089 47 213 211 208 413
1090 7 208 211 210 213
1091 22 490 486 492 493
1092 22 490 486 492 494
1093 16 492 486 490 488
1094 21 123 121 241 238
1095 36 119 121 123 292
1096 36 122 121 123 292
1097 37 119 121 123 291
1098 37 122 121 123 291
1099 16 210 213 211 214
1100 22 211 213 210 207
1101 22 211 213 210 212
1102 26 234 238 239 235
1103 27 234 238 239 240
1104 27 239 238 234 118
1105 10 581 580 456 453
1106 11 581 580 456 457
1107 10 581 580 578 577
1108 11 581 580 578 579
1109 25 456 580 581 460
1110 25 578 580 581 460
1111 25 456 580 581 549
1112 25 578 580 581 549
1113 26 456 580 578 577
1114 27 456 580 578 579
1115 27 578 580 456 457
1116 29 232 234 238 241
1117 45 118 234 238 241
1118 26 238 234 232 233
1119 27 238 234 232 230
1120 44 118 234 232 230
1121 26 232 234 238 239
1122 26 185 136 135 130
1123 27 185 136 135 137
1124 44 191 136 135 137
1125 26 135 136 185 180
1126 17 310 306 304 301
1127 17 310 306 304 305
1128 32 304 306 310 309
1129 32 304 306 310 377
1130 29 298 301 304 306
1131 45 300 301 304 306
1132 26 304 301 298 299
1133 27 304 301 298 296
1134 44 300 301 298 296
1135 26 298 301 304 305
1136 20 247 252 461 462
1137 34 459 252 247 246
1138 34 253 252 247 246
1139 48 461 252 247 243
1140 35 459 252 247 243
1141 35 253 252 247 243
1142 29 24 148 146 143
1143 26 24 148 146 149
1144 27 146 148 24 28
1145 45 145 148 146 143
1146 26 148 146 149 25
1147 27 148 146 149 147
1148 27 149 146 148 145
1149 29 435 438 442 394
1150 45 437 438 442 394
1151 26 442 438 435 436
1152 27 442 438 435 433
1153 44 437 438 435 433
1154 26 435 438 442 393
1155 22 405 543 544 548
1156 22 405 543 544 541
1157 16 544 543 405 538
1158 3 252 247 244 173
1159 39 246 247 244 173
1160 4 244 247 252 461
1161 2 244 247 252 459
1162 2 244 247 252 253
1163 5 244 247 243 175
1164 2 252 247 244 245
1165 2 252 247 244 242
1166 40 246 247 252 461
1167 41 246 247 243 175
1168 5 252 247 243 175
1169 10 187 186 190 60
1170 25 190 186 187 189
1171 25 190 186 187 183
1172 26 190 186 182 181
1173 27 190 186 182 178
1174 11 187 186 190 192
1175 27 182 186 190 192
1176 25 182 186 187 189
1177 25 182 186 187 183
1178 11 187 186 182 178
1179 10 187 186 182 181
1180 36 548 544 405 538
1181 36 541 544 405 538
1182 37 548 544 405 543
1183 37 541 544 405 543
1184 1 510 319 321 323
1185 23 321 319 510 583
1186 23 321 319 510 509
1187 23 321 319 510 511
1188 1 510 319 321 320
1189 33 316 319 510 583
1190 33 316 319 510 509
1191 33 316 319 510 511
1192 33 465 319 510 583
1193 33 465 319 510 509
1194 33 465 319 510 511
1195 29 190 60 58 59
1196 45 61 60 58 59
1197 26 58 60 190 186
1198 27 58 60 190 192
1199 44 61 60 190 192
1200 26 190 60 58 181
1201 8 544 405 406 402
1202 47 543 405 406 402
1203 43 538 405 406 402
1204 7 406 405 544 543
1205 6 406 405 544 548
1206 6 406 405 544 541
1207 9 406 405 543 544
1208 6 544 405 406 410
1209 6 544 405 406 408
1210 42 538 405 544 543
1211 21 79 55 59 58
1212 36 54 55 79 81
1213 36 52 55 79 81
1214 37 54 55 79 77
1215 37 52 55 79 77
1216 10 229 231 201 404
1217 11 229 231 201 237
1218 10 229 231 445 397
1219 11 229 231 445 444
1220 25 201 231 229 228
1221 25 445 231 229 228
1222 25 201 231 229 226
1223 25 445 231 229 226
1224 26 201 231 445 397
1225 27 201 231 445 444
1226 27 445 231 201 237
1227 26 60 58 181 182
1228 27 60 58 181 51
1229 27 181 58 60 61
1230 9 55 79 77 78
1231 8 78 79 55 59
1232 6 78 79 55 54
1233 6 78 79 55 52
1234 6 55 79 78 80
1235 6 55 79 78 76
1236 42 81 79 78 77
1237 43 81 79 55 59
1238 47 77 79 55 59
1239 7 55 79 78 77
1240 17 55 59 58 60
1241 17 55 59 58 181
1242 32 58 59 55 54
1243 32 58 59 55 52
1244 16 78 77 79 81
1245 22 79 77 78 80
1246 22 79 77 78 76
1247 27 186 182 181 51
1248 44 178 182 181 51
1249 29 182 181 58 59
1250 45 51 181 58 59
1251 26 58 181 182 186
1252 27 58 181 182 178
1253 26 231 445 397 400
1254 27 231 445 397 396
1255 37 80 78 79 77
1256 36 80 78 79 81
1257 37 76 78 79 77
1258 36 76 78 79 81
1259 29 201 404 400 402
1260 26 201 404 400 397
1261 27 400 404 201 237
1262 45 409 404 400 402
1263 21 405 406 402 400
1264 37 410 406 405 543
1265 36 410 406 405 538
1266 37 408 406 405 543
1267 36 408 406 405 538
1268 17 406 402 400 404
1269 32 400 402 406 410
1270 32 400 402 406 408
1271 17 406 402 400 397
1272 26 404 400 397 445
1273 27 404 400 397 396
1274 27 397 400 404 409
1275 27 400 397 445 444
1276 45 396 397 400 402
1277 44 396 397 445 444
1278 29 445 397 400 402
1279 37 198 196 197 199
1280 36 198 196 197 200
1281 37 194 196 197 199
1282 36 194 196 197 200
1283 26 231 201 404 400
1284 27 231 201 404 409
1285 44 237 201 404 409
1286 26 404 201 231 445
1287 26 29 25 149 146
1288 27 29 25 149 147
1289 16 196 199 197 200
1290 22 197 199 196 198
1291 22 197 199 196 194
1292 20 86 561 558 556
1293 34 90 561 86 88
1294 34 537 561 86 88
1295 48 558 561 86 559
1296 35 90 561 86 559
1297 35 537 561 86 559
1298 9 195 197 199 196
1299 8 196 197 195 394
1300 6 196 197 195 163
1301 6 196 197 195 398
1302 6 195 197 196 198
1303 6 195 197 196 194
1304 42 200 197 196 199
1305 43 200 197 195 394
1306 47 199 197 195 394
1307 7 195 197 196 199
1308 27 146 149 25 27
1309 45 147 149 146 143
1310 44 147 149 25 27
1311 29 25 149 146 143
1312 10 31 29 24 148
1313 11 31 29 24 28
1314 10 31 29 25 149
1315 11 31 29 25 27
1316 25 24 29 31 35
1317 25 25 29 31 35
1318 25 24 29 31 34
1319 25 25 29 31 34
1320 26 24 29 25 149
1321 27 24 29 25 27
1322 27 25 29 24 28
1323 21 197 195 394 442
1324 36 163 195 197 200
1325 36 398 195 197 200
1326 37 163 195 197 199
1327 37 398 195 197 199
1328 18 86 84 317 320
1329 46 317 84 86 559
1330 19 86 84 317 464
1331 38 82 84 317 464
1332 38 552 84 317 464
1333 35 82 84 86 559
1334 34 82 84 86 88
1335 35 552 84 86 559
1336 34 552 84 86 88
1337 26 438 435 436 439
1338 27 436 435 438 437
1339 10 434 555 553 554
1340 11 434 555 553 550
1341 10 434 555 557 560
1342 11 434 555 557 440
1343 25 553 555 434 431
1344 25 557 555 434 431
1345 25 553 555 434 429
1346 25 557 555 434 429
1347 26 553 555 557 560
1348 27 553 555 557 440
1349 27 557 555 553 550
1350 17 504 501 500 503
1351 17 504 501 500 498
1352 32 500 501 504 582
1353 32 500 501 504 506
1354 26 503 500 498 497
1355 27 503 500 498 496
1356 27 498 500 503 505
1357 26 555 557 560 556
1358 27 555 557 560 536
1359 26 580 578 577 575
1360 27 580 578 577 574
1361 26 438 442 393 439
1362 27 438 442 393 395
1363 27 393 442 438 437
1364 26 234 232 233 235
1365 27 233 232 234 118
1366 29 502 503 500 501
1367 26 502 503 500 498
1368 27 500 503 502 463
1369 45 505 503 500 501
1370 26 29 24 148 146
1371 27 29 24 148 145
1372 44 28 24 148 145
1373 26 148 24 29 25
1374 1 263 262 267 268
1375 23 267 262 263 264
1376 23 267 262 263 259
1377 23 267 262 263 265
1378 1 263 262 267 109
1379 33 261 262 263 264
1380 33 261 262 263 259
1381 33 261 262 263 265
1382 33 260 262 263 264
1383 33 260 262 263 259
1384 33 260 262 263 265
1385 10 31 30 23 22
1386 25 23 30 31 35
1387 25 23 30 31 34
1388 26 23 30 33 32
1389 27 23 30 33 36
1390 11 31 30 23 21
1391 27 33 30 23 21
1392 25 33 30 31 35
1393 25 33 30 31 34
1394 11 31 30 33 36
1395 10 31 30 33 32
1396 10 434 436 435 438
1397 25 435 436 434 431
1398 25 435 436 434 429
1399 26 435 436 439 393
1400 27 435 436 439 441
1401 11 434 436 435 433
1402 27 439 436 435 433
1403 25 439 436 434 431
1404 25 439 436 434 429
1405 11 434 436 439 441
1406 10 434 436 439 393
1407 26 555 553 554 556
1408 27 555 553 554 551
1409 44 550 553 554 551
1410 26 554 553 555 557
1411 27 299 302 305 307
1412 44 303 302 305 307
1413 29 302 305 304 306
1414 45 307 305 304 306
1415 26 304 305 302 299
1416 27 304 305 302 303
1417 10 295 299 298 301
1418 25 298 299 295 293
1419 25 298 299 295 458
1420 26 298 299 302 305
1421 27 298 299 302 303
1422 11 295 299 298 296
1423 27 302 299 298 296
1424 25 302 299 295 293
1425 25 302 299 295 458
1426 11 295 299 302 303
1427 10 295 299 302 305
1428 27 436 439 393 395
1429 44 441 439 393 395
1430 26 499 497 498 500
1431 27 499 497 498 496
1432 27 556 560 557 440
1433 45 536 560 556 558
1434 44 536 560 557 440
1435 29 557 560 556 558
1436 24 29 31 30 23
1437 24 30 31 29 24
1438 24 30 31 29 25
1439 24 29 31 30 33
1440 26 301 298 299 302
1441 27 299 298 301 300
1442 26 499 502 503 500
1443 27 499 502 503 505
1444 44 463 502 503 505
1445 26 503 502 499 497
1446 26 111 268 267 109
1447 26 267 268 111 91
1448 26 301 304 305 302
1449 27 301 304 305 307
1450 27 305 304 301 300
1451 27 500 498 497 495
1452 45 496 498 500 501
1453 44 496 498 497 495
1454 29 497 498 500 501
1455 1 85 89 111 268
1456 1 85 89 111 91
1457 23 111 89 85 110
1458 23 111 89 85 83
1459 23 111 89 85 87
1460 10 295 499 502 503
1461 11 295 499 502 463
1462 10 295 499 497 498
1463 11 295 499 497 495
1464 25 502 499 295 293
1465 25 497 499 295 293
1466 25 502 499 295 458
1467 25 497 499 295 458
1468 26 502 499 497 498
1469 27 502 499 497 495
1470 27 497 499 502 463
1471 29 553 554 556 558
1472 26 553 554 556 560
1473 27 556 554 553 550
1474 45 551 554 556 558
1475 29 439 393 442 394
1476 45 395 393 442 394
1477 26 442 393 439 436
1478 27 442 393 439 441
1479 24 499 295 299 298
1480 24 299 295 499 502
1481 24 299 295 499 497
1482 24 499 295 299 302
1483 17 195 394 442 438
1484 17 195 394 442 393
1485 32 442 394 195 163
1486 32 442 394 195 398
1487 26 554 556 560 557
1488 27 554 556 560 536
1489 27 560 556 554 551
1490 17 561 558 556 554
1491 17 561 558 556 560
1492 32 556 558 561 537
1493 32 556 558 561 90
1494 24 555 434 436 435
1495 24 436 434 555 553
1496 24 436 434 555 557
1497 24 555 434 436 439
1498 10 345 349 344 347
1499 25 344 349 345 346
1500 25 344 349 345 340
1501 26 344 349 354 356
1502 11 345 349 344 341
1503 27 354 349 344 341
1504 25 354 349 345 346
1505 25 354 349 345 340
1506 10 345 349 354 356
1507 12 345 349 354 357
1508 28 344 349 354 357

Impropers

1 26 280 283 281 285
2 26 276 278 281 116
3 25 276 277 280 275
4 24 282 280 283 277
5 24 274 276 277 278
6 1 113 274 276 117
7 1 113 274 276 273
8 3 113 274 117 273
9 13 276 274 117 273
10 30 278 116 227 114
11 25 177 49 47 50
12 24 56 15 13 17
13 24 447 281 278 283
14 13 356 361 363 360
15 13 356 361 363 362
16 13 356 361 360 362
17 14 363 361 360 362
18 24 361 356 351 354
19 3 274 113 115 158
20 3 274 113 115 157
21 3 274 113 158 157
22 14 115 113 158 157
23 29 223 357 359 354
24 26 349 354 356 357
25 13 281 447 446 450
26 13 281 447 446 448
27 13 281 447 450 448
28 14 446 447 450 448
29 26 347 351 356 173
30 5 379 223 224 357
31 5 379 223 222 357
32 15 224 223 222 357
33 4 379 223 224 222
34 25 49 47 174 45
35 12 15 56 177 132
36 12 15 56 177 57
37 13 15 56 132 57
38 13 177 56 132 57
39 24 56 177 49 124
40 25 14 17 15 18
41 29 244 173 171 351
42 27 176 174 47 169
43 8 472 269 271 466
44 8 472 269 270 466
45 16 271 269 270 466
46 7 472 269 271 270
47 5 43 41 40 285
48 5 43 41 42 285
49 15 40 41 42 285
50 4 43 41 40 42
51 3 89 85 110 83
52 3 89 85 110 87
53 3 89 85 83 87
54 14 110 85 83 87
55 29 41 285 286 283
56 11 472 473 467 471
57 11 472 473 467 443
58 7 472 473 471 443
59 17 471 473 443 467
60 19 84 86 561 559
61 18 84 86 561 88
62 20 84 86 559 88
63 20 561 86 559 88
64 25 15 13 11 53
65 25 128 180 185 179
66 6 379 430 380 428
67 6 379 430 380 432
68 4 379 430 428 432
69 17 428 430 432 380
70 2 287 282 279 280
71 2 287 282 483 280
72 13 280 282 279 483
73 3 287 282 279 483
74 25 12 14 17 16
75 22 269 472 473 466
76 21 269 472 473 474
77 23 269 472 466 474
78 23 473 472 466 474
79 19 223 379 430 193
80 18 223 379 430 378
81 20 223 379 193 378
82 20 430 379 193 378
83 25 348 352 353 290
84 22 131 251 250 125
85 21 131 251 250 248
86 23 131 251 125 248
87 23 250 251 125 248
88 9 251 131 134 129
89 9 251 131 133 129
90 17 134 131 133 129
91 7 251 131 134 133
92 22 528 531 532 527
93 21 528 531 532 533
94 23 528 531 527 533
95 23 532 531 527 533
96 8 531 528 507 527
97 8 531 528 529 527
98 16 507 528 529 527
99 7 531 528 507 529
100 24 337 342 348 343
101 25 13 11 12 10
102 27 14 12 11 9
103 25 334 390 386 391
104 27 388 384 386 380
105 25 384 388 392 387
106 25 388 392 334 335
107 24 337 334 390 392
108 25 390 386 384 382
109 12 342 337 334 338
110 12 342 337 334 336
111 13 342 337 338 336
112 13 334 337 338 336
113 25 342 348 352 284
114 3 282 287 289 288
115 3 282 287 289 489
116 3 282 287 288 489
117 14 289 287 288 489
118 25 350 343 342 339
119 10 251 250 125 103
120 10 251 250 125 102
121 7 251 250 103 102
122 16 103 250 102 125
123 11 531 532 534 508
124 11 531 532 534 530
125 7 531 532 508 530
126 17 508 532 530 534
127 10 368 372 370 375
128 10 368 372 370 373
129 7 368 372 375 373
130 16 375 372 373 370
131 8 123 294 297 291
132 8 123 294 249 291
133 16 297 294 249 291
134 7 123 294 297 249
135 6 4 8 9 7
136 6 4 8 9 6
137 4 4 8 7 6
138 17 7 8 6 9
139 22 367 368 372 370
140 21 367 368 372 366
141 23 367 368 370 366
142 23 372 368 370 366
143 25 580 456 453 457
144 25 456 453 575 452
145 6 140 142 143 144
146 6 140 142 143 141
147 4 140 142 144 141
148 17 144 142 141 143
149 19 257 140 142 139
150 18 257 140 142 138
151 20 257 140 139 138
152 20 142 140 139 138
153 3 63 545 576 572
154 3 63 545 576 546
155 3 63 545 572 546
156 14 576 545 572 546
157 24 319 321 320 323
158 27 255 462 421 461
159 25 326 323 321 324
160 2 545 63 98 64
161 2 545 63 539 64
162 13 64 63 98 539
163 3 545 63 98 539
164 13 322 152 154 151
165 13 322 152 154 150
166 13 322 152 151 150
167 14 154 152 151 150
168 26 67 65 64 542
169 30 65 542 547 540
170 24 63 64 65 66
171 24 69 67 70 65
172 13 67 69 46 44
173 13 67 69 46 48
174 13 67 69 44 48
175 14 46 69 44 48
176 26 67 70 68 72
177 25 68 66 64 100
178 29 257 72 74 70
179 24 71 68 66 70
180 5 140 257 254 72
181 5 140 257 258 72
182 15 254 257 258 72
183 4 140 257 254 258
184 29 569 327 156 325
185 24 152 322 325 320
186 26 321 320 322 317
187 26 322 325 326 327
188 29 84 317 464 320
189 1 204 71 68 75
190 1 204 71 68 101
191 3 204 71 75 101
192 13 68 71 75 101
193 24 328 326 323 325
194 5 568 569 567 327
195 5 568 569 451 327
196 15 567 569 451 327
197 4 568 569 567 451
198 19 569 568 571 564
199 18 569 568 571 565
200 20 569 568 564 565
201 20 571 568 564 565
202 6 568 571 573 570
203 6 568 571 573 566
204 4 568 571 570 566
205 17 570 571 566 573
206 1 383 328 326 385
207 1 383 328 326 332
208 3 383 328 385 332
209 13 326 328 385 332
210 25 26 22 23 20
211 25 462 255 217 256
212 3 328 383 512 381
213 3 328 383 512 389
214 3 328 383 381 389
215 14 512 383 381 389
216 25 22 23 30 21
217 27 22 26 32 534
218 25 30 33 32 36
219 24 92 112 91 109
220 13 112 92 93 94
221 13 112 92 93 38
222 13 112 92 94 38
223 14 93 92 94 38
224 24 219 424 423 217
225 12 424 219 218 221
226 12 424 219 218 427
227 13 424 219 221 427
228 13 218 219 221 427
229 24 219 218 425 216
230 27 128 130 135 129
231 25 255 217 424 220
232 24 262 267 109 268
233 5 4 3 99 95
234 5 4 3 2 95
235 15 99 3 2 95
236 4 4 3 99 2
237 25 218 425 374 426
238 19 105 108 504 107
239 18 105 108 504 19
240 20 105 108 107 19
241 20 504 108 107 19
242 25 371 188 216 184
243 26 112 109 267 155
244 25 425 374 371 376
245 28 3 95 105 91
246 25 188 216 218 215
247 25 423 421 462 420
248 19 3 4 8 1
249 18 3 4 8 5
250 20 3 4 1 5
251 20 8 4 1 5
252 5 108 105 106 95
253 5 108 105 104 95
254 15 106 105 104 95
255 4 108 105 106 104
256 25 33 32 26 535
257 24 89 111 268 91
258 27 577 575 453 573
259 25 575 577 578 574
260 9 368 367 364 369
261 9 368 367 365 369
262 17 364 367 365 369
263 7 368 367 364 365
264 3 71 204 203 202
265 3 71 204 203 205
266 3 71 204 202 205
267 14 203 204 202 205
268 25 424 423 421 422
269 26 111 91 112 95
270 27 188 371 374 369
271 30 109 155 153 37
272 6 108 504 501 506
273 6 108 504 501 582
274 4 108 504 506 582
275 17 506 504 582 501
276 25 130 128 180 126
277 25 469 470 585 468
278 25 470 585 516 584
279 24 515 516 333 585
280 27 470 469 331 467
281 25 333 331 469 330
282 25 475 477 479 562
283 24 515 475 477 478
284 12 516 515 475 513
285 12 516 515 475 514
286 13 516 515 513 514
287 13 475 515 513 514
288 25 516 333 331 272
289 25 480 478 475 476
290 3 345 403 401 407
291 3 345 403 401 399
292 3 345 403 407 399
293 14 401 403 407 399
294 19 41 43 168 39
295 18 41 43 168 170
296 20 41 43 39 170
297 20 168 43 39 170
298 22 523 521 520 519
299 21 523 521 520 525
300 23 523 521 519 525
301 23 520 521 519 525
302 25 482 480 478 481
303 25 477 479 482 563
304 1 162 165 347 164
305 1 162 165 347 166
306 3 162 165 164 166
307 13 347 165 164 166
308 6 43 168 169 172
309 6 43 168 169 167
310 4 43 168 172 167
311 17 172 168 167 169
312 25 347 344 349 341
313 8 521 523 522 519
314 8 521 523 526 519
315 16 522 523 526 519
316 7 521 523 522 526
317 24 229 233 235 232
318 25 60 190 186 192
319 8 312 311 308 313
320 8 312 311 314 313
321 16 308 311 314 313
322 7 312 311 308 314
323 3 165 162 160 161
324 3 165 162 160 159
325 3 165 162 161 159
326 14 160 162 161 159
327 12 233 229 231 228
328 12 233 229 231 226
329 13 233 229 228 226
330 13 231 229 228 226
331 22 311 312 310 313
332 21 311 312 310 315
333 23 311 312 313 315
334 23 310 312 313 315
335 24 165 347 344 351
336 5 247 244 245 173
337 5 247 244 242 173
338 15 245 244 242 173
339 4 247 244 245 242
340 2 403 345 346 349
341 2 403 345 340 349
342 13 349 345 346 340
343 3 403 345 346 340
344 25 174 176 124 120
345 25 176 124 177 127
346 24 187 185 136 180
347 12 186 187 185 189
348 12 186 187 185 183
349 13 186 187 189 183
350 13 185 187 189 183
351 11 521 520 358 518
352 11 521 520 358 524
353 7 521 520 518 524
354 17 518 520 524 358
355 27 480 482 479 484
356 25 136 135 130 137
357 25 233 235 239 236
358 25 353 350 343 517
359 27 350 353 352 358
360 12 417 581 580 460
361 12 417 581 580 549
362 13 417 581 460 549
363 13 580 581 460 549
364 22 294 123 121 291
365 21 294 123 121 292
366 23 294 123 291 292
367 23 121 123 291 292
368 11 312 310 306 309
369 11 312 310 306 377
370 7 312 310 309 377
371 17 309 310 377 306
372 8 211 210 207 213
373 8 211 210 212 213
374 16 207 210 212 213
375 7 211 210 207 212
376 25 235 239 238 240
377 10 490 492 486 493
378 10 490 492 486 494
379 7 490 492 493 494
380 16 493 492 494 486
381 11 211 208 413 206
382 11 211 208 413 209
383 7 211 208 206 209
384 17 206 208 209 413
385 9 490 487 485 484
386 9 490 487 491 484
387 17 485 487 491 484
388 7 490 487 485 491
389 25 415 418 417 419
390 27 415 414 412 413
391 24 581 417 455 418
392 25 414 415 418 416
393 25 417 455 412 454
394 25 455 412 414 411
395 22 487 490 492 486
396 21 487 490 492 488
397 23 487 490 486 488
398 23 492 490 486 488
399 22 210 211 208 213
400 21 210 211 208 214
401 23 210 211 213 214
402 23 208 211 213 214
403 11 123 121 241 119
404 11 123 121 241 122
405 7 123 121 119 122
406 17 119 121 122 241
407 27 234 238 239 241
408 24 581 580 456 578
409 25 238 234 232 118
410 25 185 136 135 191
411 25 304 301 298 300
412 6 247 252 461 459
413 6 247 252 461 253
414 4 247 252 459 253
415 17 459 252 253 461
416 25 24 148 146 145
417 27 149 146 148 143
418 25 442 438 435 437
419 19 244 247 252 243
420 18 244 247 252 246
421 20 244 247 243 246
422 20 252 247 243 246
423 24 187 186 182 190
424 10 405 544 543 548
425 10 405 544 543 541
426 7 405 544 548 541
427 16 548 544 541 543
428 2 510 319 316 321
429 2 510 319 465 321
430 13 321 319 316 465
431 3 510 319 316 465
432 25 58 60 190 61
433 22 406 405 544 543
434 21 406 405 544 538
435 23 406 405 543 538
436 23 544 405 543 538
437 11 79 55 59 54
438 11 79 55 59 52
439 7 79 55 54 52
440 17 54 55 52 59
441 24 229 231 201 445
442 27 60 58 181 59
443 22 78 79 55 77
444 21 78 79 55 81
445 23 78 79 77 81
446 23 55 79 77 81
447 25 186 182 181 178
448 25 182 181 58 51
449 25 397 445 231 444
450 8 79 78 80 77
451 8 79 78 76 77
452 16 80 78 76 77
453 7 79 78 80 76
454 25 201 404 400 409
455 9 405 406 410 402
456 9 405 406 408 402
457 17 410 406 408 402
458 7 405 406 410 408
459 3 319 510 583 509
460 3 319 510 583 511
461 3 319 510 509 511
462 14 583 510 509 511
463 27 397 400 404 402
464 25 400 397 445 396
465 8 197 196 198 199
466 8 197 196 194 199
467 16 198 196 194 199
468 7 197 196 198 194
469 25 231 201 404 237
470 25 149 25 29 27
471 6 86 561 558 90
472 6 86 561 558 537
473 4 86 561 90 537
474 17 90 561 537 558
475 22 196 197 195 199
476 21 196 197 195 200
477 23 196 197 199 200
478 23 195 197 199 200
479 25 146 149 25 147
480 24 31 29 24 25
481 11 197 195 394 163
482 11 197 195 394 398
483 7 197 195 163 398
484 17 163 195 398 394
485 5 86 84 82 317
486 5 86 84 552 317
487 15 82 84 552 317
488 4 86 84 82 552
489 25 438 435 436 433
490 24 434 555 553 557
491 27 498 500 503 501
492 25 560 557 555 440
493 25 577 578 580 579
494 27 438 442 393 394
495 25 234 232 233 230
496 25 502 503 500 505
497 25 29 24 148 28
498 2 263 262 261 267
499 2 263 262 260 267
500 13 267 262 261 260
501 3 263 262 261 260
502 24 31 30 33 23
503 24 434 436 439 435
504 25 555 553 554 550
505 25 299 302 305 303
506 25 302 305 304 307
507 24 295 299 302 298
508 25 436 439 393 441
509 25 498 497 499 495
510 25 556 560 557 536
511 12 30 31 29 35
512 12 30 31 29 34
513 13 30 31 35 34
514 13 29 31 35 34
515 25 301 298 299 296
516 25 499 502 503 463
517 25 111 268 267 266
518 27 301 304 305 306
519 25 500 498 497 496
520 1 85 89 111 225
521 1 85 89 111 62
522 3 85 89 225 62
523 13 111 89 225 62
524 3 262 263 264 259
525 3 262 263 264 265
526 3 262 263 259 265
527 14 264 263 259 265
528 24 295 499 502 497
529 25 553 554 556 551
530 25 439 393 442 395
531 12 299 295 499 293
532 12 299 295 499 458
533 13 299 295 293 458
534 13 499 295 293 458
535 27 560 556 554 558
536 12 436 434 555 431
537 12 436 434 555 429
538 13 436 434 431 429
539 13 555 434 431 429
540 24 345 349 354 344
