LAMMPS data file via write_data, version 4 Jul 2026, timestep = 1908250, units = real

585 atoms
11 atom types
615 bonds
18 bond types
1090 angles
35 angle types
1514 dihedrals
48 dihedral types
540 impropers
30 improper types

1.431652616781168 19.722126393216058 xlo xhi
1.431652616781168 19.722126393216058 ylo yhi
1.431652616781168 19.722126393216058 zlo zhi

Masses

1 12.01115
2 12.01115
3 12.01115
4 12.01115
5 1.00797
6 1.00797
7 1.00797
8 14.0067
9 15.9994
10 15.9994
11 15.9994

Pair Coeffs # lj/class2/coul/long

1 0.054 4.01
2 0.054 4.01
3 0.054 4.01
4 0.064 4.01
5 0.02 2.995
6 0.013 1.098
7 0.013 1.098
8 0.065 4.07
9 0.24 3.535
10 0.24 3.535
11 0.24 3.535

Bond Coeffs # class2

1 1.53 299.67 -501.77 679.81
2 1.53 299.67 -501.77 679.81
3 1.53 299.67 -501.77 679.81
4 1.501 321.902 -521.821 572.163
5 1.101 345 -691.89 844.6
6 1.457 365.805 -699.637 998.484
7 1.42 400.395 -835.195 1313.01
8 1.42 400.395 -835.195 1313.01
9 1.101 345 -691.89 844.6
10 1.42 400.395 -835.195 1313.01
11 1.101 345 -691.89 844.6
12 1.42 400.395 -835.195 1313.01
13 1.417 470.836 -627.618 1327.63
14 1.0982 372.825 -803.453 894.317
15 1.412 257.775 0 0
16 1.3768 428.88 -738.235 1114.97
17 1.006 466.74 -1073.6 1251.11
18 0.965 532.506 -1282.9 2004.77

Angle Coeffs # class2

1 108.4 43.9594 -8.3924 -9.3379
2 110.77 41.453 -10.604 5.129
3 112.67 39.516 -7.443 -9.5583
4 110.77 41.453 -10.604 5.129
5 111.27 54.5381 -8.3642 -13.0838
6 112.67 39.516 -7.443 -9.5583
7 110.77 41.453 -10.604 5.129
8 111.27 54.5381 -8.3642 -13.0838
9 120.05 44.7148 -22.7352 0
10 112.444 47.2337 -10.6612 -10.2062
11 109 80 0 0
12 110.954 50.8652 -4.4522 -10.0298
13 104.5 35.7454 -10.0067 -6.2729
14 102.969 38.9739 -6.2595 -8.171
15 110.77 41.453 -10.604 5.129
16 111.91 60.7147 -13.3366 -13.0785
17 111.27 54.5381 -8.3642 -13.0838
18 105.8 52.7061 -12.109 -9.8681
19 110.77 41.453 -10.604 5.129
20 111.27 54.5381 -8.3642 -13.0838
21 111.27 54.5381 -8.3642 -13.0838
22 111 44.3234 -9.4454 0
23 111 44.3234 -9.4454 0
24 118.9 61.0226 -34.9931 0
25 117.94 35.1558 -12.4682 0
26 120 102 0 0
27 123.42 73.6781 -21.6787 0
28 110 41.6 0 0
29 107.66 39.641 -12.921 -2.4318
30 110.62 51.3137 -6.7198 -2.6003
31 108.728 58.5446 -10.8088 -12.4006
32 108.728 58.5446 -10.8088 -12.4006
33 108.728 58.5446 -10.8088 -12.4006
34 108.728 58.5446 -10.8088 -12.4006
35 107.067 45.252 -7.5558 -9.512

BondBond Coeffs

1 0 1.53 1.501
2 3.3872 1.53 1.101
3 0 1.53 1.53
4 3.3872 1.53 1.101
5 11.4318 1.53 1.42
6 0 1.53 1.53
7 3.3872 1.53 1.101
8 11.4318 1.53 1.42
9 12.0676 1.501 1.417
10 -2.1113 1.457 1.457
11 0 1.457 1.412
12 -6.4168 1.457 1.006
13 -7.1131 1.42 1.42
14 0 1.42 1.3768
15 3.3872 1.53 1.101
16 4.6217 1.53 1.457
17 11.4318 1.53 1.42
18 -9.6879 1.42 0.965
19 3.3872 1.53 1.101
20 11.4318 1.53 1.42
21 11.4318 1.53 1.42
22 0 1.501 1.501
23 2.9168 1.501 1.101
24 68.2856 1.417 1.417
25 1.0795 1.417 1.0982
26 0 1.417 1.412
27 48.4754 1.417 1.3768
28 0 1.412 1.006
29 5.3316 1.101 1.101
30 12.426 1.101 1.457
31 23.1979 1.101 1.42
32 23.1979 1.101 1.42
33 23.1979 1.101 1.42
34 23.1979 1.101 1.42
35 -1.8749 1.006 1.006

BondAngle Coeffs

1 0 0 1.53 1.501
2 20.754 11.421 1.53 1.101
3 8.016 8.016 1.53 1.53
4 20.754 11.421 1.53 1.101
5 2.6868 20.4033 1.53 1.42
6 8.016 8.016 1.53 1.53
7 20.754 11.421 1.53 1.101
8 2.6868 20.4033 1.53 1.42
9 47.0579 31.0771 1.501 1.417
10 -7.2229 -7.2229 1.457 1.457
11 0 0 1.457 1.412
12 31.8096 20.5799 1.457 1.006
13 -2.8112 -2.8112 1.42 1.42
14 0 0 1.42 1.3768
15 20.754 11.421 1.53 1.101
16 6.0876 16.5702 1.53 1.457
17 2.6868 20.4033 1.53 1.42
18 28.58 18.9277 1.42 0.965
19 20.754 11.421 1.53 1.101
20 2.6868 20.4033 1.53 1.42
21 2.6868 20.4033 1.53 1.42
22 0 0 1.501 1.501
23 26.4608 11.7717 1.501 1.101
24 28.8708 28.8708 1.417 1.417
25 20.0033 24.2183 1.417 1.0982
26 0 0 1.417 1.412
27 58.479 107.681 1.417 1.3768
28 0 0 1.412 1.006
29 18.103 18.103 1.101 1.101
30 13.4582 42.4332 1.101 1.457
31 4.6189 55.327 1.101 1.42
32 4.6189 55.327 1.101 1.42
33 4.6189 55.327 1.101 1.42
34 4.6189 55.327 1.101 1.42
35 28.0322 28.0322 1.006 1.006

Dihedral Coeffs # class2

1 -0.2802 0 -0.0678 0 -0.0122 0
2 0 0 0.0316 0 -0.1681 0
3 0.1764 0 0.1766 0 -0.5206 0
4 0.7137 0 0.266 0 -0.2545 0
5 -0.6732 0 -0.4778 0 -0.167 0
6 0 0 0.0316 0 -0.1681 0
7 0.7137 0 0.266 0 -0.2545 0
8 0.7137 0 0.266 0 -0.2545 0
9 -0.5203 0 -0.3028 0 -0.345 0
10 0 0 4.4072 0 0 0
11 0 0 1.559 0 0 0
12 0 0 3 0 0 0
13 -0.1406 0 0.4168 0 0.015 0
14 0.1904 0 -0.1342 0 -0.246 0
15 0 0 2.25 0 0 0
16 0.5302 0 0 0 -0.3966 0
17 0 0 1.5 0 0 0
18 0 0 0 0 0.05 180
19 -1.1506 0 -0.6344 0 -0.1845 0
20 0 0 0 0 0.13 180
21 0 0 0 0 0.13 180
22 0.5302 0 0 0 -0.3966 0
23 -0.0228 0 0.028 0 -0.1863 0
24 -0.2802 0 -0.0678 0 -0.0122 0
25 -0.2801 0 -0.0678 0 -0.0122 0
26 8.3667 0 1.1932 0 0 0
27 0 0 3.9661 0 0 0
28 0 0 3 0 0 0
29 0 0 4.8498 0 0 0
30 0 0 2.25 0 0 0
31 0 0 0 0 0.05 180
32 0.9513 0 0.1155 0 0.072 0
33 -0.1432 0 0.0617 0 -0.1083 0
34 -0.1432 0 0.0617 0 -0.1083 0
35 -0.1435 0 0.253 0 -0.0905 0
36 -0.1432 0 0.0617 0 -0.1083 0
37 -0.1435 0 0.253 0 -0.0905 0
38 -0.5187 0 -0.4837 0 -0.1692 0
39 -0.2428 0 0.4065 0 -0.3079 0
40 -0.1435 0 0.253 0 -0.0905 0
41 0.1863 0 -0.4338 0 -0.2121 0
42 -0.1435 0 0.253 0 -0.0905 0
43 -0.1435 0 0.253 0 -0.0905 0
44 0 0 1.8769 0 0 0
45 0 0 1.7234 0 0 0
46 0 0 0 0 0.158 180
47 -0.182 0 -0.1084 0 -0.7047 0
48 -0.182 0 -0.1084 0 -0.7047 0

AngleAngleTorsion Coeffs

1 0 108.4 120.05
2 -16.164 112.67 110.77
3 -27.3953 112.67 111.91
4 -29.042 112.67 111.27
5 -12.1038 111.27 105.8
6 -16.164 112.67 110.77
7 -29.042 112.67 111.27
8 -29.042 112.67 111.27
9 -19.0059 111.27 104.5
10 -14.4097 120.05 118.9
11 4.4444 120.05 117.94
12 0 120.05 120
13 -24.3818 112.444 111.91
14 -12.5567 112.444 110.62
15 0 109 120
16 -16.4438 104.5 108.728
17 0 102.969 123.42
18 0 111.91 109
19 -7.5499 111.91 110.954
20 0 111.27 102.969
21 0 111.27 102.969
22 -16.4438 104.5 108.728
23 0 108.4 110.77
24 0 111 120.05
25 -5.8888 120.05 111
26 0 118.9 118.9
27 -4.8141 118.9 117.94
28 0 118.9 120
29 -21.0247 118.9 123.42
30 0 120 110
31 0 109 110.62
32 0 102.969 108.728
33 -12.564 110.77 110.77
34 -12.564 110.77 110.77
35 -20.2006 110.77 111.27
36 -12.564 110.77 110.77
37 -20.2006 110.77 111.27
38 -10.4258 110.62 110.954
39 -15.7572 110.77 111.91
40 -20.2006 110.77 111.27
41 -10.5093 108.728 105.8
42 -20.2006 110.77 111.27
43 -20.2006 110.77 111.27
44 0.3598 117.94 117.94
45 4.2296 117.94 123.42
46 0 111.91 111.27
47 -14.0484 111.27 111.27
48 -14.0484 111.27 111.27

EndBondTorsion Coeffs

1 0 0 0 0 0 0 1.53 1.417
2 0.2486 0.2422 -0.0925 0.0814 0.0591 0.2219 1.53 1.101
3 0.1032 0.5896 -0.4836 0.0579 -0.0043 -0.1906 1.53 1.457
4 -0.319 0.4411 -0.7174 1.1538 0.8409 -0.9138 1.53 1.42
5 -0.58 0.9004 0 0 0.5343 0.9025 1.53 0.965
6 0.2486 0.2422 -0.0925 0.0814 0.0591 0.2219 1.53 1.101
7 -0.319 0.4411 -0.7174 1.1538 0.8409 -0.9138 1.53 1.42
8 -0.319 0.4411 -0.7174 1.1538 0.8409 -0.9138 1.53 1.42
9 -0.2456 1.0517 -0.7795 0.4741 1.2635 0.5576 1.53 1.42
10 0 0.2421 0 0 -0.6918 0 1.501 1.417
11 0 -1.797 0 0 -0.4879 0 1.501 1.0982
12 0 0 0 0 0 0 1.501 1.412
13 -0.0128 -0.0495 -0.1079 0.0997 -0.0046 -0.2657 1.457 1.53
14 0.0628 0.0873 -0.0882 -0.5892 0.714 0.3505 1.457 1.101
15 0 0 0 0 0 0 1.457 1.417
16 -0.162 0.1564 -1.1408 -0.6054 1.3339 0.9648 1.42 1.101
17 0 0 0 0 0 0 1.42 1.417
18 0 0 0 0 0 0 1.53 1.412
19 -0.9466 0.9356 -0.5542 0.057 0.0625 0.4112 1.53 1.006
20 0 0 0 0 0 0 1.53 1.3768
21 0 0 0 0 0 0 1.53 1.3768
22 -0.162 0.1564 -1.1408 -0.6054 1.3339 0.9648 1.42 1.101
23 0 0 0 0 0 0 1.501 1.101
24 0 0 0 0 0 0 1.501 1.417
25 -0.5835 1.122 0.3978 1.3997 0.7756 0 1.417 1.101
26 -0.1185 6.3204 0 -0.1185 6.3204 0 1.417 1.417
27 0 -6.8958 0 0 -0.4669 0 1.417 1.0982
28 0 0 0 0 0 0 1.417 1.412
29 0 0.2655 0 0 4.8905 0 1.417 1.3768
30 0 0 0 0 0 0 1.417 1.006
31 0 0 0 0 0 0 1.412 1.101
32 0 0 0 0 0 0 1.3768 1.101
33 0.213 0.312 0.0777 0.213 0.312 0.0777 1.101 1.101
34 0.213 0.312 0.0777 0.213 0.312 0.0777 1.101 1.101
35 0.9681 0.9551 0.0436 0.5903 0.6669 0.8584 1.101 1.42
36 0.213 0.312 0.0777 0.213 0.312 0.0777 1.101 1.101
37 0.9681 0.9551 0.0436 0.5903 0.6669 0.8584 1.101 1.42
38 -1.1685 0.9266 -0.0993 0.085 0.3061 0.2104 1.101 1.006
39 0.196 0.7056 0.112 0.1022 0.209 0.6433 1.101 1.457
40 0.9681 0.9551 0.0436 0.5903 0.6669 0.8584 1.101 1.42
41 -1.7554 1.3145 0.2263 0.2493 0.6803 0 1.101 0.965
42 0.9681 0.9551 0.0436 0.5903 0.6669 0.8584 1.101 1.42
43 0.9681 0.9551 0.0436 0.5903 0.6669 0.8584 1.101 1.42
44 0 -0.689 0 0 -0.689 0 1.0982 1.0982
45 0 -1.5867 0 0 4.2641 0 1.0982 1.3768
46 0 0 0 0 0 0 1.457 1.42
47 1.0165 0.7553 -0.4609 1.0165 0.7553 -0.4609 1.42 1.42
48 1.0165 0.7553 -0.4609 1.0165 0.7553 -0.4609 1.42 1.42

MiddleBondTorsion Coeffs

1 0 0 0 1.501
2 -14.879 -3.6581 -0.3138 1.53
3 -15.4174 -7.3055 -1.0749 1.53
4 -21.8842 -7.6764 -0.6868 1.53
5 1.2472 0 0.7485 1.42
6 -14.879 -3.6581 -0.3138 1.53
7 -21.8842 -7.6764 -0.6868 1.53
8 -21.8842 -7.6764 -0.6868 1.53
9 -5.9288 -2.7007 -0.3175 1.42
10 0 9.1792 0 1.417
11 0 3.9421 0 1.417
12 0 0 0 1.417
13 -8.0036 -7.7321 -3.064 1.457
14 -6.4529 -6.8122 -1.1632 1.457
15 0 0 0 1.412
16 -6.8007 -4.6546 -1.4101 1.42
17 0 0 0 1.3768
18 0 0 0 1.457
19 -2.2208 0.5479 -0.3527 1.457
20 0 0 0 1.42
21 0 0 0 1.42
22 -6.8007 -4.6546 -1.4101 1.42
23 0 0 0 1.53
24 0 0 0 1.501
25 -5.5679 1.4083 0.301 1.501
26 27.5989 -2.312 0 1.417
27 0 -1.1521 0 1.417
28 0 0 0 1.417
29 0 4.8255 0 1.417
30 0 0 0 1.412
31 0 0 0 1.457
32 0 0 0 1.42
33 -14.261 -0.5322 -0.4864 1.53
34 -14.261 -0.5322 -0.4864 1.53
35 -16.7975 -1.2296 -0.275 1.53
36 -14.261 -0.5322 -0.4864 1.53
37 -16.7975 -1.2296 -0.275 1.53
38 -3.4611 1.6996 -0.6007 1.457
39 -10.4959 -0.7647 -0.0545 1.53
40 -16.7975 -1.2296 -0.275 1.53
41 0 0.9241 -0.5889 1.42
42 -16.7975 -1.2296 -0.275 1.53
43 -16.7975 -1.2296 -0.275 1.53
44 0 4.8228 0 1.417
45 0 5.5432 0 1.417
46 0 0 0 1.53
47 -17.2585 -3.6157 -0.8364 1.53
48 -17.2585 -3.6157 -0.8364 1.53

BondBond13 Coeffs

1 0 1.53 1.417
2 0 1.53 1.101
3 0 1.53 1.457
4 0 1.53 1.42
5 0 1.53 0.965
6 0 1.53 1.101
7 0 1.53 1.42
8 0 1.53 1.42
9 0 1.53 1.42
10 2.5085 1.501 1.417
11 0.8743 1.501 1.0982
12 0 1.501 1.412
13 0 1.457 1.53
14 0 1.457 1.101
15 0 1.457 1.417
16 0 1.42 1.101
17 0 1.42 1.417
18 0 1.53 1.412
19 0 1.53 1.006
20 0 1.53 1.3768
21 0 1.53 1.3768
22 0 1.42 1.101
23 0 1.501 1.101
24 0 1.501 1.417
25 -3.4826 1.417 1.101
26 53 1.417 1.417
27 -6.2741 1.417 1.0982
28 0 1.417 1.412
29 -2.2436 1.417 1.3768
30 0 1.417 1.006
31 0 1.412 1.101
32 0 1.3768 1.101
33 0 1.101 1.101
34 0 1.101 1.101
35 0 1.101 1.42
36 0 1.101 1.101
37 0 1.101 1.42
38 0 1.101 1.006
39 0 1.101 1.457
40 0 1.101 1.42
41 0 1.101 0.965
42 0 1.101 1.42
43 0 1.101 1.42
44 -1.7077 1.0982 1.0982
45 2.0517 1.0982 1.3768
46 0 1.457 1.42
47 0 1.42 1.42
48 0 1.42 1.42

AngleTorsion Coeffs

1 0 0 0 0 0 0 108.4 120.05
2 -0.2454 0 -0.1136 0.3113 0.4516 -0.1988 112.67 110.77
3 -1.9225 -1.345 0.221 2.0125 0.944 -2.7612 112.67 111.91
4 0.5623 -0.3041 -0.4015 0.9672 -0.7566 -1.2331 112.67 111.27
5 -3.5903 2.5225 0.4888 0.8726 -0.3577 0.3888 111.27 105.8
6 -0.2454 0 -0.1136 0.3113 0.4516 -0.1988 112.67 110.77
7 0.5623 -0.3041 -0.4015 0.9672 -0.7566 -1.2331 112.67 111.27
8 0.5623 -0.3041 -0.4015 0.9672 -0.7566 -1.2331 112.67 111.27
9 -2.7466 1.4877 -0.8955 0.5676 0.945 0.0703 111.27 104.5
10 0 -4.4683 0 0 3.8987 0 120.05 118.9
11 0 -0.1242 0 0 3.4601 0 120.05 117.94
12 0 0 0 0 0 0 120.05 120
13 1.2031 1.3645 -0.7071 -2.7883 1.5193 1.4796 112.444 111.91
14 -1.3582 0.1465 -0.5729 -2.6321 0.9353 -0.8398 112.444 110.62
15 0 0 0 0 0 0 109 120
16 -0.7777 0.434 -0.6653 -1.8234 1.6393 0.5144 104.5 108.728
17 0 0 0 0 0 0 102.969 123.42
18 0 0 0 0 0 0 111.91 109
19 -3.343 4.4558 -0.0346 0.2873 -0.8072 -0.096 111.91 110.954
20 0 0 0 0 0 0 111.27 102.969
21 0 0 0 0 0 0 111.27 102.969
22 -0.7777 0.434 -0.6653 -1.8234 1.6393 0.5144 104.5 108.728
23 0 0 0 0 0 0 108.4 110.77
24 0 0 0 0 0 0 111 120.05
25 0.2251 0.6548 0.1237 4.6266 0.1632 0.0461 120.05 111
26 1.9767 1.0239 0 1.9767 1.0239 0 118.9 118.9
27 0 2.5014 0 0 2.7147 0 118.9 117.94
28 0 0 0 0 0 0 118.9 120
29 0 10.0155 0 0 1.7404 0 118.9 123.42
30 0 0 0 0 0 0 120 110
31 0 0 0 0 0 0 109 110.62
32 0 0 0 0 0 0 102.969 108.728
33 -0.8085 0.5569 -0.2466 -0.8085 0.5569 -0.2466 110.77 110.77
34 -0.8085 0.5569 -0.2466 -0.8085 0.5569 -0.2466 110.77 110.77
35 2.3668 2.492 -1.0122 -0.1892 0.4918 0.7273 110.77 111.27
36 -0.8085 0.5569 -0.2466 -0.8085 0.5569 -0.2466 110.77 110.77
37 2.3668 2.492 -1.0122 -0.1892 0.4918 0.7273 110.77 111.27
38 -3.9582 2.0063 0.3213 -0.4294 -0.4442 -0.6141 110.62 110.954
39 0.5111 1.6328 -1.0155 -1.1075 0.282 0.8318 110.77 111.91
40 2.3668 2.492 -1.0122 -0.1892 0.4918 0.7273 110.77 111.27
41 -3.406 1.6396 0.0737 0 -0.281 -0.5944 108.728 105.8
42 2.3668 2.492 -1.0122 -0.1892 0.4918 0.7273 110.77 111.27
43 2.3668 2.492 -1.0122 -0.1892 0.4918 0.7273 110.77 111.27
44 0 2.4501 0 0 2.4501 0 117.94 117.94
45 0 1.8729 0 0 2.5706 0 117.94 123.42
46 0 0 0 0 0 0 111.91 111.27
47 0.5511 0.9737 -0.6673 0.5511 0.9737 -0.6673 111.27 111.27
48 0.5511 0.9737 -0.6673 0.5511 0.9737 -0.6673 111.27 111.27

Improper Coeffs # class2

1 0 0
2 0 0
3 0 0
4 0 0
5 0 0
6 0 0
7 0 0
8 0 0
9 0 0
10 0 0
11 0 0
12 0 0
13 0 0
14 0 0
15 0 0
16 0 0
17 0 0
18 0 0
19 0 0
20 0 0
21 0 0
22 0 0
23 0 0
24 7.8153 0
25 4.8912 0
26 0 0
27 13.0421 0
28 0 0
29 0 0
30 0 0

AngleAngle Coeffs

1 2.0403 -1.8202 1.0827 108.4 110.77 111
2 1.0827 -1.8202 2.0403 110.77 108.4 111
3 0.2738 -0.4825 0.2738 110.77 110.77 107.66
4 0.2738 -0.4825 0.2738 110.77 110.77 107.66
5 2.4286 0.5381 -2.5301 110.77 111.91 110.62
6 0.1689 2.5926 3.9177 111.27 110.77 108.728
7 0.2738 -0.4825 0.2738 110.77 110.77 107.66
8 3.9177 2.5926 0.1689 110.77 111.27 108.728
9 3.9177 2.5926 0.1689 110.77 111.27 108.728
10 0.1689 2.5926 3.9177 111.27 110.77 108.728
11 0.1689 2.5926 3.9177 111.27 110.77 108.728
12 0 0 0 111 111 111
13 2.3794 3.0118 2.3794 111 111 107.66
14 -0.3157 -0.3157 -0.3157 107.66 107.66 107.66
15 2.4321 2.4321 -3.5496 107.66 110.62 110.62
16 2.4259 2.4259 2.1283 107.66 108.728 108.728
17 2.4259 2.4259 2.1283 107.66 108.728 108.728
18 -1.3199 -1.3199 0.1184 112.67 110.77 110.77
19 -0.833 -0.833 -3.5744 112.67 111.27 111.27
20 0.1689 2.5926 3.9177 111.27 110.77 108.728
21 -1.3199 -1.3199 0.1184 112.67 110.77 110.77
22 -0.833 -0.833 -3.5744 112.67 111.27 111.27
23 0.1689 2.5926 3.9177 111.27 110.77 108.728
24 0 0 0 120.05 120.05 118.9
25 0 0 0 118.9 117.94 117.94
26 0 0 0 118.9 120 120
27 0 0 0 118.9 123.42 123.42
28 0 0 0 112.444 109 109
29 0 0 0 110.954 109 110
30 0 0 0 110 110 107.067

Atoms # full

283 1 4 0 4.035367167128101 9.469735402861541 4.11809757633166 0 0 0
278 1 4 0 5.326913757723377 8.181604661899842 5.722371340268936 0 0 0
277 1 4 -0.1268 2.940265119917891 8.43133251303118 6.01928048776179 0 0 0
280 1 4 0 2.827072770125115 9.230091820630182 4.914392521704677 0 0 0
276 1 4 0 4.163644015250117 7.826433231095318 6.375812631549781 0 0 0
45 1 5 0.1268 4.719879180795513 5.2233789885691655 3.789689219848922 0 0 0
274 1 1 -0.106 4.138265114925103 6.945830100559099 7.592511621402683 0 0 0
50 1 5 0.1268 6.094865806462808 3.0712543371229843 4.024725742948956 0 0 0
116 1 8 -0.4974 6.60265863155316 7.867755892039451 6.259188544408473 0 0 0
114 1 6 0.2487 6.479608181903804 7.157115809642317 6.971326633354556 0 0 0
49 1 4 -0.1268 6.319597323583159 3.8166076357133836 3.2401193936830675 0 0 0
117 1 5 0.053 3.2856028889902316 7.2157918659479785 8.151386109390149 0 0 0
15 1 4 0 9.51420054727959 2.471765650468121 3.547390257086198 0 0 0
281 1 4 0 5.246556016563794 8.98054818707255 4.607849730874413 0 0 0
227 1 6 0.2487 7.427643548213399 7.827809662523199 5.700235852439809 0 0 0
361 1 1 -0.159 7.729409092847833 4.149699103127262 8.031887250438002 0 1 0
356 1 4 0 6.917292107181163 4.668640719698315 9.174728345797838 0 1 0
359 1 6 0.2487 8.212937034463017 7.740271889262828 9.187619007225539 0 1 0
113 1 1 -0.159 3.92100447105993 5.568790525681005 7.167388843618283 0 0 0
357 1 8 -0.3314 8.312744244515317 6.73527377602143 9.004240314030458 0 1 0
354 1 4 0 7.242315161530823 5.939514063709733 9.645120916795424 0 1 0
447 1 1 -0.159 6.593268710994115 9.10817077533073 3.8797686069980384 0 0 0
351 1 4 0 5.864108608900348 3.863452210603951 9.708364157897314 0 1 0
222 1 5 0.053 9.676175449797626 5.281073888599898 9.610937307181862 -1 0 0
223 1 1 -0.0233 9.583989779411432 6.3831044815224205 9.558585844997092 -1 0 0
47 1 4 -0.1268 5.584147304076238 4.982369879997648 3.127402140217975 0 0 0
360 1 5 0.053 7.758762015468739 3.0247846558890865 7.915768905168145 0 1 0
363 1 5 0.053 7.374865435820185 4.449742730768052 7.003402450755084 0 1 0
362 1 5 0.053 8.776719859671921 4.448402647502352 7.980962259045396 0 1 0
448 1 5 0.053 6.592935827789989 9.891634245514632 2.995932759970769 0 0 0
177 1 4 0 7.495215784969734 3.5466896846215015 2.5101412191671297 0 0 0
446 1 5 0.053 6.799168674046089 8.181529150818555 3.4420755938372447 0 0 0
450 1 5 0.053 7.451574899343435 9.318836639640246 4.599829238316553 0 0 0
285 1 8 -0.3314 3.9797442612921996 9.906801266253485 2.7484494169267517 0 0 0
286 1 6 0.2487 4.938016217041866 9.989068033221901 2.322521943987336 0 0 0
158 1 5 0.053 4.786790744670073 5.29224370750476 6.569707946451971 0 0 0
56 1 1 -0.106 8.287942995434571 2.241900925009136 2.6252889990066572 0 0 0
157 1 5 0.053 3.0174884256076395 5.442935983521573 6.641280675006844 0 0 0
273 1 5 0.053 4.961682608856359 7.16332473506093 8.24260095020582 0 0 0
546 2 5 0.053 3.4117873428405896 1.7736272830493416 4.506229596743308 0 1 0
174 1 4 0.0265 5.897803671294312 5.886695681681983 2.075302358511147 0 0 0
169 1 10 -0.1595 4.990591128680405 6.886982951212097 1.8970514427221439 0 0 0
428 1 5 0.053 9.800810866030146 7.032045479485265 6.907265374218295 -1 0 0
115 1 5 0.053 3.8857015239860844 4.864724684000092 7.980745233206317 0 0 0
275 1 5 0.1268 2.0513427064960217 8.26342620963788 6.620015509062164 0 0 0
40 1 5 0.053 2.797258203183582 8.145763306617638 2.3891539795815855 0 0 0
252 1 1 0.027 8.43640007737399 19.480767115721942 10.39468680116319 0 0 0
141 2 5 0.053 5.103340750893093 9.995881384123692 10.225255917639602 1 -1 1
41 1 1 -0.0233 3.084439104248194 9.062923650371086 1.9213371455477537 0 0 0
139 2 11 -0.5571 6.687397811307977 10.281534379299154 8.25725122951458 1 -1 1
282 1 1 -0.106 1.4446512441457333 9.826579094471535 4.485090431857081 0 0 0
132 1 5 0.053 8.642888387503621 1.9156312720421746 1.6489197920854366 0 0 0
159 1 5 0.053 2.1701750269945475 4.438436318502954 9.533752981856919 0 1 0
453 4 4 -0.1268 10.444905824324133 10.590470218618968 10.101752998007358 0 0 0
53 1 5 0.1268 10.328207076871623 4.1460931984344755 2.456079040685269 0 0 0
110 1 5 0.053 11.784182868106413 1.6659664358541504 1.5465588678711775 0 1 0
13 1 4 -0.1268 10.425677589214526 3.4545406581521694 3.3092337329755654 0 0 0
507 2 5 0.053 1.5897151681679558 3.316233884170596 5.837992987018546 1 0 1
459 1 5 0.053 8.635547019293805 2.035517206864026 9.734548121029082 0 1 0
191 3 5 0.1268 10.218146536296745 10.773041605580046 3.0250123201479653 0 0 0
189 3 5 0.053 8.36369218136751 10.17528532328644 1.693817676380045 0 0 0
271 6 5 0.053 2.244430371501292 6.283352777054878 3.349779847829224 1 1 1
270 6 5 0.053 2.7828819717064133 4.536989380792571 3.111827408602684 1 1 1
269 6 1 0.027 1.977593651164412 5.31358778383576 2.929566278195627 1 1 1
378 1 5 0.053 10.668633936739484 8.098870712549935 9.037433056031297 -1 0 0
329 4 7 0.4241 10.56288687891047 10.118236645903462 6.959733079910808 0 -1 1
57 1 5 0.053 7.669149114327872 1.4432276092964778 3.0550206682948673 0 0 0
576 2 5 0.053 4.014732643664637 1.6185270694556437 6.110250745797633 0 1 0
173 1 8 -0.3314 5.6766962674287855 2.5578377955960354 9.228525882124904 0 1 0
171 1 6 0.2487 6.310734053626399 2.338098542065847 8.490539278315111 0 1 0
73 2 7 0.4241 6.997584162206261 10.487833163216312 7.372312949874424 0 0 0
452 4 5 0.1268 9.453462430370136 10.700715989753265 9.567402999806 0 0 0
42 1 5 0.053 2.146915069962424 9.544186507354656 1.664224969866146 0 0 0
124 1 4 -0.1268 7.876570218415126 4.543977579593914 1.6446952234783976 0 0 0
284 1 5 0.1268 19.597358324764947 8.451986642903435 8.762845993699433 -1 0 0
134 3 5 0.053 14.897860563176854 7.31249562513369 1.48235768897223 0 0 0
472 6 3 0.08 19.31087018004595 5.280036985184556 1.8460007437313237 0 1 1
474 6 5 0.053 18.758556603167346 6.1824231295302745 1.5661576251331084 0 1 1
128 3 4 -0.1268 12.413417070452446 8.069962572689667 1.4530900525006765 0 0 0
294 5 1 0.027 14.476127491036143 3.2876127426588035 10.021759709235756 -1 0 0
136 3 4 -0.1268 10.90152952765754 10.024422089194303 2.6011825605375165 0 0 0
529 2 5 0.053 19.28676877786322 5.056842688126084 5.868932447837254 0 0 1
528 2 1 0.027 19.060291390344968 4.027635716938049 6.107108346001184 0 0 1
379 1 2 0.08 10.80661964931015 7.045853961379789 8.7920315780066 -1 0 0
527 2 9 -0.266 17.719790974469642 3.6088322620949134 5.848325564626192 0 0 1
288 1 5 0.053 19.271630054095283 7.91752783111877 3.273873373959322 -1 0 0
133 3 5 0.053 15.975043022717399 7.706103997301222 2.7576932736334623 0 0 0
130 3 4 0.0265 12.910002461997582 8.562670125252025 2.678414409617633 0 0 0
287 1 1 -0.159 18.824365256127095 8.608901312246653 4.001900990008081 -1 0 0
11 1 4 -0.1268 11.583706275056558 3.5537344095374173 4.064487505581079 0 0 0
430 1 1 0.027 10.806943233997666 6.975183492773019 7.243999137457562 -1 0 0
432 1 5 0.053 11.221944338105901 6.024902960471263 6.83024398519837 -1 0 0
533 2 5 0.053 17.587383070780568 4.67951030096704 7.555457454029574 0 0 1
531 2 3 0.08 18.052232200654643 3.8030318215490646 7.184036215005006 0 0 1
380 1 10 -0.1595 11.52009626837594 8.085922363311724 6.699901505950322 -1 0 0
251 3 3 0.08 14.712232025477109 6.069675725907236 3.353866848484911 0 0 0
131 3 1 0.027 14.928766648879312 7.355972959831655 2.6173183072067907 0 0 0
193 1 11 -0.5571 12.013414051157724 6.689798800699928 9.46854588367382 -1 0 0
342 1 4 0 17.511152912109573 8.251648009684617 9.175380897493351 -1 0 0
12 1 4 0.0265 11.838607762725688 2.5787607647098083 5.073678663440033 0 0 0
336 1 5 0.053 17.51547868683516 7.055379387417984 7.3189261643671335 -1 0 0
390 1 4 -0.1268 14.920559163005327 9.272044685441752 7.291327179857294 -1 0 0
384 1 4 0.0265 12.874677060004428 8.060499858179595 6.914280985242557 -1 0 0
387 1 5 0.1268 13.183312789054403 5.789727711174226 6.749105004595602 -1 0 0
388 1 4 -0.1268 13.572847430474194 6.795138028986554 7.037245623203158 -1 0 0
335 1 5 0.1268 15.503588612407524 5.914558983757966 7.49521548179057 -1 0 0
392 1 4 -0.1268 14.903417176791097 6.833292657225387 7.335008475363011 -1 0 0
334 1 4 0 15.607357410138265 8.066651051199237 7.432208345666664 -1 0 0
386 1 4 -0.1268 13.555953228225476 9.22398949477127 7.011452753082457 -1 0 0
337 1 1 -0.106 17.103264319063896 8.039811423509338 7.676348232457977 -1 0 0
382 1 5 0.1268 13.041409869674627 10.150369979581164 6.852482847674575 -1 0 0
10 1 5 0.1268 12.22877255241968 4.492558649287927 3.955466023388894 0 0 0
9 1 10 -0.1595 12.977403236800793 2.8661416484149767 5.848635892317201 0 0 0
106 1 5 0.053 16.556084543747982 2.2452668123381434 3.297876343114764 0 0 1
338 1 5 0.053 17.551924705682207 8.862142592935516 7.0438549536919535 -1 0 0
248 3 5 0.053 13.691721253944133 5.931655272246607 3.6250187147688484 0 0 0
250 3 1 0.027 15.70700973585386 5.339987346917384 4.1673567225772725 0 0 0
102 3 5 0.053 15.46122630639531 4.721681856151081 5.027275103937617 0 0 0
103 3 5 0.053 16.683771549002014 5.8664093054016195 4.366822005714928 0 0 0
355 1 7 0.4241 12.614772487563489 7.435213006264783 9.237418000952221 0 1 0
129 3 10 -0.1595 14.160555341494582 8.4031104329748 3.230752922808734 0 0 0
125 3 9 -0.266 15.350630382938304 4.8785217437441535 2.798502112804761 0 0 0
530 2 5 0.053 18.137762408977782 3.123519307520513 9.122939576284725 0 0 1
532 2 1 0.027 17.95023024834589 2.665345433726216 8.159556763358436 0 0 1
508 2 5 0.053 16.935143957641657 2.1925659049733928 8.058766592595777 0 0 1
19 1 5 0.053 18.66380511829126 1.7331484289395283 3.0317889024467917 0 0 1
466 6 9 -0.266 18.95554759526029 4.783544539187119 3.155571102382138 0 1 1
5 1 5 0.053 15.651529397963753 2.2775958746818006 5.446147068987624 0 0 0
348 1 4 -0.1268 18.838547655399882 8.418507167583353 9.53632798558059 -1 0 0
135 3 4 -0.1268 12.085995984686464 9.551693594410988 3.1844442818006127 0 0 0
249 5 5 0.053 14.809830991749548 2.214409667154065 10.130468260971188 -1 0 0
137 3 5 0.1268 12.38779046320817 9.878446124284944 4.213979167190202 0 0 0
339 1 5 0.1268 15.427533462963073 8.192749306413283 9.986653785497012 -1 0 0
364 1 5 0.053 15.81293362962865 10.443264424134632 5.102069804158999 0 0 0
289 1 5 0.053 17.801524820514615 8.916776053424481 3.7429301310346084 -1 0 0
489 1 5 0.053 18.829338785994008 7.868029877219864 4.744847463000531 -1 0 0
391 1 5 0.1268 15.401849889778747 10.244772484818528 7.441750910160247 -1 0 0
37 1 7 0.4241 15.05909846922781 10.193324670584536 2.8697584273531467 0 0 0
297 5 5 0.053 13.371712469237512 3.296196767810647 9.967979000055479 -1 0 0
291 5 9 -0.266 15.204369609634782 4.29652680037168 9.355029168838069 -1 0 0
279 1 5 0.053 19.32280047505706 10.291554733494552 5.413584103189525 -1 0 0
343 1 4 -0.1268 16.55831139568015 8.2265122561856 10.167926380006417 -1 0 0
6 1 5 0.053 14.009452546063013 2.1975451056230115 7.454552197572854 0 0 0
8 1 1 0.027 13.694802566759648 1.8041322204201629 6.491066637756191 0 0 0
99 1 5 0.053 13.975300407923443 1.479284946896299 3.5434724727162177 0 0 0
14 1 4 -0.1268 10.942438725758098 1.537600402642251 5.305303830597122 0 0 0
534 2 10 -0.1595 18.885957063472137 1.5697762600081102 8.100253955260495 0 0 1
96 1 7 0.4241 18.461140936160252 1.7878691254412613 5.023601800322709 0 1 0
501 1 10 -0.1595 19.53605473694369 18.516167790594455 1.4934924642144436 0 -1 1
142 2 1 0.027 4.822846466573243 10.957194632711715 9.756470309781934 1 -1 1
144 2 5 0.053 5.348519400812847 11.678203736624255 10.42469402154708 1 -1 1
483 1 5 0.053 1.4682181763551794 10.694877889818788 3.738933060337159 0 0 0
143 2 10 -0.1595 3.402133437030405 11.093050489998289 9.719039243395105 1 -1 1
564 4 11 -0.5571 9.786775918337222 10.54774528466991 6.60954900923056 0 0 0
461 1 10 -0.1595 8.632954739126896 18.279542671172532 9.634740276419084 0 0 0
244 1 1 -0.0233 5.698933940798957 1.5372955705765317 10.287909712037264 0 1 0
17 1 4 -0.1268 9.778411427155705 1.527464414297922 4.579087087425505 0 0 0
138 2 5 0.053 4.753221605765299 10.806314428848987 7.621354940203863 1 -1 1
245 1 5 0.053 5.356655349409642 18.800097784950047 9.90444309629176 0 0 0
146 2 4 0.0265 2.807821882575748 12.144091448880372 10.332539337081046 1 -1 1
18 1 5 0.1268 9.051746321959993 18.99825892032919 4.770048259586373 0 -1 0
572 2 5 0.053 2.6052723649251135 18.97626125274202 5.774600633270814 0 0 0
545 2 1 -0.159 3.5836391537383534 19.304912832475853 5.331632070476353 0 0 0
140 2 2 0.08 5.507793812310752 11.07779250476142 8.375469880228117 1 -1 1
539 2 5 0.053 5.375903675647733 18.56791359161077 4.377452799366911 0 0 0
63 2 1 -0.106 4.399954998518432 18.131910771886318 4.799904927197114 0 0 0
98 2 5 0.053 3.9298489339754274 17.818441128320007 3.8268566362148717 0 0 0
464 4 6 0.2487 4.556486066912759 14.431353031530104 3.386663588112696 0 -1 1
254 2 5 0.053 6.467425113907658 12.888940722574052 8.779093419321239 1 -1 1
258 2 5 0.053 6.252152770239377 12.678247058130093 7.027489016547687 1 -1 1
540 2 6 0.2487 6.542917651310024 18.408428301921326 5.937826527326937 0 0 0
547 2 6 0.2487 7.605173731449003 17.346345336035405 6.749589442544716 0 0 0
151 4 5 0.053 6.389027159602512 12.167539158948728 5.15340274754277 0 -1 1
152 4 1 -0.159 6.002732855889998 12.985531728236039 4.423616807471948 0 -1 1
156 4 6 0.2487 8.094234540606319 11.502668491339156 4.634131738009849 0 -1 1
65 2 4 0 5.690069041337149 16.73788011301731 6.5691505907882375 0 0 0
542 2 8 -0.4974 6.653090854755115 17.693236530152706 6.6253146642896334 0 0 0
46 2 5 0.053 7.5048225343805255 16.246857520302385 8.429871172082308 0 0 0
64 2 4 0 4.529184102380173 17.027356202700858 5.818210533767942 0 0 0
48 2 5 0.053 7.412990382342059 14.510093514272224 8.187613847445519 0 0 0
67 2 4 0 5.6862195787161 15.606764707289221 7.340117184990775 0 0 0
69 2 1 -0.159 6.808006508606539 15.398880405029075 8.386228051556444 0 0 0
44 2 5 0.053 6.353478441134186 15.216878873751561 9.408054397137041 0 0 0
70 2 4 0 4.572406785918709 14.697343495413806 7.421359392508636 0 0 0
66 2 4 -0.1268 3.4266935996187833 16.187831689863415 5.990924707653358 0 0 0
72 2 8 -0.3314 4.572553692768909 13.497371673169578 8.182974838789871 0 0 0
68 2 4 0 3.3984522126491123 15.018275019815647 6.750978405104517 0 0 0
74 2 6 0.2487 3.687690121261479 13.036958832421318 8.093089504621028 0 0 0
257 2 1 -0.0233 5.726588456023757 12.579469970448834 8.032633501278763 1 -1 1
100 2 5 0.1268 2.5762409243371183 16.336316298052303 5.312058818145269 0 0 0
150 4 5 0.053 5.238641902068224 12.557896393487624 3.8223569267656847 0 -1 1
327 4 8 -0.3314 8.772337374082877 12.256117117830197 4.411880534113688 0 -1 1
322 4 4 0 6.960101165540639 13.636394392150253 3.4742429841288085 0 -1 1
320 4 4 0 6.483221760362608 14.61122792400784 2.6214212040428864 0 -1 1
325 4 4 0 8.31115091617332 13.335317059638822 3.5944048563840183 0 -1 1
317 4 8 -0.3314 5.017443754572497 14.966949254678848 2.6630783087318752 0 -1 1
154 4 5 0.053 5.492727499595231 13.701432934702186 5.098698775410915 0 -1 1
326 4 4 0 9.164339282761524 14.023082017616053 2.723296155841086 0 -1 1
451 4 5 0.053 8.438198972001432 12.977773423263006 6.370297510128896 0 0 0
569 4 1 -0.0233 9.332804501631099 12.788529339961862 5.705056949293701 0 0 0
321 4 4 0 7.376844456348073 15.282067402585223 1.8102241948742281 0 -1 1
323 4 4 -0.1268 8.71869391806076 14.9969456195884 1.9128353616332867 0 -1 1
20 2 5 0.1268 2.8703340429063866 18.958891335313822 9.212664611370077 1 -1 1
559 4 11 -0.5571 2.0533029154120106 14.874100954497155 2.205148607204568 0 0 1
22 2 4 -0.1268 1.9305821330958222 18.432236792602637 9.512234414026667 1 -1 1
71 2 1 -0.106 2.082663252804734 14.335680961105096 6.806870891526493 0 0 0
205 2 5 0.053 2.968141410809106 12.373763756382122 6.270544736953581 0 0 0
567 4 5 0.053 9.761232845447568 13.74441560596841 5.359419370317758 0 0 0
75 2 5 0.053 1.8807407090143777 13.974100964717767 7.840211949682214 0 0 0
570 4 5 0.053 9.825503616885957 12.486354013990105 8.35808179688468 0 0 0
568 4 2 0.08 10.287037497887555 11.834972128408369 6.408341381386573 0 0 0
204 2 1 -0.159 2.1320183329895697 13.00862696770717 6.011229741593353 0 0 0
88 4 5 0.053 2.931098975618746 12.963072564909336 2.257266497490197 0 0 1
23 2 4 -0.1268 2.05573150264513 17.450861344109338 10.473417023597772 1 -1 1
203 2 5 0.053 2.2554103527173974 13.153809528267226 4.891405535960011 0 0 0
462 1 4 0.0265 9.923952096994046 17.701405819564794 9.573586284466161 0 0 0
255 1 4 -0.1268 9.99728710406944 16.30984782415261 9.553479363687368 0 0 0
256 1 5 0.1268 9.05571490107286 15.796982891881155 9.625498896170095 0 0 0
86 4 2 0.08 2.874375784257724 13.925574824001568 1.614783649259657 0 0 1
148 2 4 -0.1268 19.683685567769455 12.26238802583867 10.506743932018392 0 -1 1
202 2 5 0.053 19.444085975714906 12.458490937816624 6.110255194364503 -1 0 0
372 1 1 -0.0233 15.246424752726451 13.135387896231897 2.9456473772930813 0 0 0
573 4 10 -0.1595 11.785088244271739 11.866616553848917 8.476627467085297 0 0 0
32 2 4 -0.1268 17.858025225788566 18.044294991803476 9.32025652063199 0 -1 1
33 2 4 -0.1268 18.03813800110245 16.998028572146918 10.273267000913231 0 -1 1
373 1 5 0.053 15.23634601948586 13.809282040420516 3.8033858317068385 0 0 0
371 1 4 0.0265 15.524574389036177 13.066230723656039 6.721087631025699 0 0 0
422 1 5 0.1268 13.167497087448288 18.41160835086343 9.609533273675071 0 0 0
1 1 11 -0.5571 15.579105497762098 18.65087583024293 6.368137436432707 0 -1 0
104 1 5 0.053 16.47345199162077 19.687316381001697 1.8576333481907858 0 -1 1
112 1 4 0 15.665448794216383 16.16798852757487 2.6938131903625075 0 0 0
16 1 5 0.1268 11.214930285879714 19.143037187325433 6.034320215695591 0 -1 0
420 1 5 0.1268 11.09054749987857 19.556377890032305 9.734240854280955 0 0 0
577 4 4 -0.1268 12.792305349661998 11.031847289288196 10.533170310226815 0 0 0
318 4 7 0.4241 19.457066153598568 14.505961837887286 2.382685955374862 -1 -1 1
366 1 5 0.053 16.984291750226397 12.105998334366811 3.482739724161879 0 0 0
512 4 5 0.053 11.17308247134578 15.945004197728714 3.005419561848493 0 -1 1
108 1 2 0.08 18.10893838522546 19.20202918291455 3.307837129440169 0 -1 1
506 1 5 0.053 19.654150319251066 17.71413962583913 3.415076318274239 0 -1 1
4 1 2 0.08 14.88805410192219 19.702951115113546 5.615506668691977 0 -1 0
565 4 5 0.053 11.175637519340256 11.789332836800632 5.755836825698782 0 0 0
105 1 1 -0.0233 16.62222579593581 19.5201478072253 2.9539290170436874 0 -1 1
424 1 4 0 12.430913038502988 16.400281624649878 9.655468786364091 0 0 0
423 1 4 -0.1268 12.253446530280339 17.792284428837757 9.617363497467426 0 0 0
221 1 5 0.053 14.54823566725249 16.561013637370905 9.79548591580168 0 0 0
218 1 4 0 14.33977204555661 14.775720673572884 8.709598011236306 0 0 0
94 1 5 0.053 17.110505130184485 14.99964862995057 4.007343361724945 0 0 0
7 1 5 0.053 13.013356261261675 19.250147575989843 6.692649393622893 0 -1 0
365 1 5 0.053 14.473987217891855 11.690240666759886 5.067378399442335 0 0 0
91 1 4 0 15.225914034033027 17.49213664941873 2.5061881862107 0 0 0
36 2 5 0.1268 17.175978463432628 16.38167910687832 10.555064431884055 0 -1 1
582 1 5 0.053 18.24058521179204 17.107635071490556 2.571636293742346 0 -1 1
574 4 5 0.1268 13.710971787175822 11.588897949906475 10.39489860987271 0 0 0
571 4 1 0.027 10.739189031921988 12.419073022407394 7.757108638142299 0 0 0
566 4 5 0.053 10.968178201859267 13.514788253641969 7.401238324527614 0 0 0
389 4 5 0.053 11.242182809927494 14.879662224606022 4.507242275283106 0 -1 1
83 1 5 0.053 12.178189189205513 18.36053483322451 2.404822488794456 0 0 0
184 1 5 0.1268 16.921744082726796 12.729584700957965 8.344995498175562 0 0 0
216 1 4 -0.1268 15.455002630020832 14.035851484292984 8.947465922448696 0 0 0
215 1 5 0.1268 15.958344578150575 14.147861917451483 9.895370906507136 0 0 0
3 1 1 -0.0233 14.494647072673397 19.089736240845635 4.264199786267885 0 -1 0
95 1 8 -0.1654 15.604125786168504 18.502896614136226 3.480186951828936 0 0 0
109 1 4 0 15.483168515370156 15.142160957948251 1.6926963366540062 0 0 0
26 2 4 0.0265 18.946586169634912 18.794315944614528 9.03396659989528 0 -1 1
374 1 4 -0.1268 14.397995024344707 13.893499087500171 6.438327381297613 0 0 0
328 4 1 -0.106 10.679641555278772 13.888949814495303 2.5905702614476116 0 -1 1
101 2 5 0.053 19.490847644549277 14.967439581420189 6.6075424495937165 -1 0 0
385 4 5 0.053 11.001661490165352 14.02264743905785 1.540753042754638 0 -1 1
375 1 5 0.053 14.192116171291719 12.837545778316683 2.670946828986711 0 0 0
107 1 11 -0.5571 18.154799771566015 19.229555820333445 4.743463801646593 0 -1 1
92 1 1 -0.159 16.385241338942322 15.828973286989326 4.070736572146551 0 0 0
155 1 8 -0.3314 15.912612909697756 13.76519761926356 1.7969478597620474 0 0 0
370 1 11 -0.5571 15.65039528791633 10.834501764927701 2.442292181617259 0 0 0
426 1 5 0.1268 13.004667553341037 15.37293059589451 7.242105366584637 0 0 0
369 1 10 -0.1595 16.286759703425876 12.341709903012566 5.808722416865511 0 0 0
217 1 4 -0.1268 11.242766185560779 15.642214366624845 9.715242474208992 0 0 0
220 1 5 0.1268 11.232470576828801 14.526845395104386 9.687769935561114 0 0 0
425 1 4 -0.1268 13.87301875999052 14.713714812290855 7.403311554645474 0 0 0
38 1 5 0.053 15.756361721514187 15.669349366522761 4.9573149487933765 0 0 0
376 1 5 0.1268 13.918410708510068 13.97510175740663 5.4643855139861 0 0 0
188 1 4 -0.1268 16.025932496595843 13.15161398145992 8.02131090011591 0 0 0
2 1 5 0.053 13.830998584766103 18.249117295642105 4.467082499530708 0 -1 0
421 1 4 -0.1268 11.111404801314803 18.445146937846303 9.631294365669987 0 0 0
381 4 5 0.053 12.478149302395723 14.792212889748086 3.193952869148397 0 -1 1
504 1 1 0.027 18.89571471336067 18.020912610653657 2.6869412178032457 0 -1 1
145 2 5 0.1268 19.02444437987487 11.499209558420059 10.03289782408084 0 -1 1
367 1 1 0.027 15.593113363638308 11.522293938607943 4.890494881486498 0 0 0
575 4 4 0.0265 11.663207698466863 11.150909877412523 9.702822792132498 0 0 0
93 1 5 0.053 16.938929524263898 16.70692400649844 4.459357242978378 0 0 0
383 4 1 -0.159 11.421812963757294 14.985847409919717 3.426780684603637 0 -1 1
368 1 2 0.08 15.92677444928905 11.891045060295044 3.3928957044016865 0 0 0
97 1 7 0.4241 16.33624603966564 18.42385467669972 5.740435596590605 0 0 0
219 1 1 -0.106 13.798959400915358 15.71605835722648 9.781949315981091 0 0 0
332 4 5 0.053 11.172323830171475 12.945077292338423 2.888357916594308 0 -1 1
535 2 5 0.1268 16.83584026573766 18.207527828313978 8.95695246745106 0 -1 1
161 1 5 0.053 2.6372468315437407 5.858539088449013 10.545220087951341 0 1 0
85 1 1 -0.159 12.191493925974857 18.920794193531265 1.4499700039303782 0 0 0
584 6 5 0.1268 5.128238051670932 5.168551055130209 16.096754219622568 1 1 0
470 6 4 -0.1268 3.839960138699064 4.316795140785393 17.664896059769514 1 1 0
585 6 4 -0.1268 4.894992559079037 4.316772986636343 16.799334075771657 1 1 0
516 6 4 0 5.722593090309109 3.133666708281573 16.7690500398993 1 1 0
468 6 5 0.1268 3.1982526460064777 5.2717598958436795 17.562986449583917 1 1 0
562 6 5 0.1268 7.697803745552035 5.616278140131422 16.450332627820472 1 1 0
469 6 4 0.0265 3.408325553653006 3.228045286533262 18.43583623332752 1 1 0
331 6 4 -0.1268 4.365494254680131 2.212965044018416 18.494557107670065 1 1 0
477 6 4 -0.1268 8.518186747004059 4.96672402566173 16.550273717022872 1 1 0
475 6 4 0 8.229205348204236 3.6068311694680766 16.342785331780334 1 1 0
513 6 5 0.053 6.7300049288415105 3.582755330700988 14.924362202117067 1 1 0
515 6 1 -0.106 6.91029229952665 3.111732701662026 15.842002442316089 1 1 0
333 6 4 -0.1268 5.40407623859211 2.053397391428381 17.605399100241296 1 1 0
192 3 5 0.1268 8.477065073683713 8.646235445109898 16.827785409377725 0 0 -1
341 1 5 0.1268 4.924228519819866 5.958429116872696 12.002245154462324 0 1 0
478 6 4 -0.1268 9.273051596518194 2.738815106855772 16.655732216920796 1 1 0
166 1 5 0.053 3.5750458709187867 4.117222043280089 12.129843917476594 0 1 0
170 1 5 0.053 2.998284093370094 8.015229053513714 18.39248507568233 0 0 -1
172 1 5 0.053 5.3665635988089395 7.232906227995372 18.07113204823146 0 0 -1
514 6 5 0.053 6.995673985738984 2.0429400289830135 15.49846886367031 1 1 0
175 1 7 0.4241 7.532847701090013 3.2253030279628514 11.349693102054815 0 1 0
526 1 5 0.053 3.872899208831892 6.49392614752488 13.528056590541388 0 0 0
401 1 5 0.053 7.985150803517194 8.399288665517854 13.196564232721977 0 1 0
399 1 5 0.053 8.597231627729858 7.109977831338684 12.267965089525172 0 1 0
233 5 4 0 1.9945298397398252 2.3781005105107447 14.072547629153167 0 0 0
519 1 9 -0.266 2.7109802476891467 7.716945919645607 14.760572696009644 0 0 0
403 1 1 -0.159 7.646671147718309 7.550722730160671 12.62740860210923 0 1 0
407 1 5 0.053 7.18053255135263 6.9063704566535975 13.34928759196037 0 1 0
521 1 3 0.08 2.8591429233787693 8.533563662622862 13.64332873663238 0 0 0
226 5 5 0.053 4.080697297797498 2.554433390644815 14.392040273752919 0 0 0
228 5 5 0.053 3.3333301114479403 2.34890476041673 15.885708097317282 0 0 0
183 3 5 0.053 8.537021333552381 8.650696418300633 19.101140694729285 0 0 -1
190 3 4 -0.1268 8.725117839243923 9.768641238025829 16.757475623839916 0 0 -1
39 1 11 -0.5571 3.990346087748583 9.83528506387895 18.078814003066036 0 0 -1
523 1 1 0.027 2.943198478828881 7.0434345347963125 13.537575472052351 0 0 0
187 3 1 -0.106 8.962314606339305 9.645267268722353 19.21199883074986 0 0 -1
522 1 5 0.053 2.122212532434255 6.491809375506351 13.094424019642863 0 0 0
449 1 7 0.4241 3.193698556795455 10.395505154364077 18.120904802733094 0 0 -1
229 5 1 -0.106 3.2923087765591967 2.008588921072343 14.834955808769836 0 0 0
476 6 5 0.1268 9.095881467459861 1.6066617714377887 16.565849814640067 1 1 0
43 1 2 0.08 3.7425098762475066 8.665187216839328 18.870573383213742 0 0 -1
168 1 1 0.027 5.085671396796161 7.801656956058803 19.04159015009177 0 0 -1
344 1 4 -0.1268 5.367462113178523 5.689542813562695 11.071955151069103 0 1 0
313 1 9 -0.266 10.177208051105087 3.277086908533284 12.59022189232654 0 0 0
479 6 4 -0.1268 9.757866516239822 5.439776083868775 16.82616494425843 1 1 0
563 6 5 0.1268 9.954721140839764 6.50395785540639 16.952687753663504 1 1 0
525 1 5 0.053 3.7548842186314153 9.219116777468292 13.63406052639039 0 0 0
61 3 5 0.1268 8.840682546702435 9.833175305738315 14.564844745490834 0 0 -1
518 1 5 0.053 1.9611648241638067 10.178205478686492 12.639639337664832 0 0 0
456 4 4 -0.1268 10.462713785013847 9.708163319216464 11.177312893062096 0 0 0
457 4 5 0.1268 9.511938726401555 9.226576024934051 11.392479478861771 0 0 0
520 1 1 0.027 1.623545205234139 9.461735495936374 13.358612403938212 0 0 0
290 1 5 0.1268 2.0313775290415617 8.661294180463877 11.027557844122917 0 0 0
460 4 5 0.053 10.407385129564625 8.4432053212245 13.544381147668865 0 0 0
480 6 4 -0.1268 10.557623740825107 3.1300514746192056 16.940818722048057 1 1 0
186 3 4 0 8.911282690703839 10.434852240163803 17.933069357726914 0 0 -1
120 1 5 0.1268 7.590895857353723 6.431496629145926 18.94042804496075 0 0 -1
160 1 5 0.053 1.5554400638449752 4.659186823131961 11.24391922388853 0 1 0
346 1 5 0.053 5.9428606745284664 8.331022358391056 11.504597551143016 0 1 0
345 1 1 -0.106 6.8257844997675505 7.760504929365285 11.301736274748249 0 1 0
164 1 5 0.053 3.38952455702453 2.924184769952623 11.03406624651455 0 1 0
165 1 1 -0.106 3.589944285926146 3.959614389957276 11.065647795347589 0 1 0
236 5 5 0.1268 1.9023319413438782 4.257258779822884 15.113134721901627 0 0 0
243 1 11 -0.5571 7.1132423981045445 2.5798506357966504 11.942673306449608 0 1 0
60 3 4 -0.1268 8.844799229317847 10.372573703972071 15.504404152711912 0 0 -1
127 1 5 0.1268 8.694556540124614 4.34034520761012 19.253347853154246 0 0 -1
347 1 4 0 4.945286268207953 4.485188122016163 10.590476765358423 0 1 0
176 1 4 -0.1268 7.11452776272808 5.698114735474966 19.67769172874044 0 0 -1
167 1 5 0.053 5.871280948693839 8.54204341090378 19.238602234749 0 0 -1
162 1 1 -0.159 2.424270614885184 4.787381377617624 10.602256241273624 0 1 0
467 6 10 -0.1595 2.237950706136747 3.1287598983466953 19.156941701959074 1 1 0
427 1 5 0.053 13.822890786818395 15.189901022629543 10.746736852746407 0 0 0
340 1 5 0.053 7.483231463802067 8.34052456597492 10.613786199893445 0 1 0
349 1 4 0 6.5033830322320165 6.430816207694162 10.677273038757637 0 1 0
471 6 5 0.053 19.398407659080352 4.497322556785582 17.991318694152806 0 1 0
524 1 5 0.053 1.4731489735285734 9.895164495536028 14.345881870942195 0 0 0
179 3 5 0.1268 10.901310545676228 8.048163120896486 18.18515821316832 0 0 -1
314 1 5 0.053 11.077297023362624 4.8816714991589585 11.414022073225594 0 0 0
235 5 4 -0.1268 19.596407847724112 3.5656442848022363 14.385020712286757 -1 0 0
311 1 1 0.027 11.238509751314746 3.839638792189875 11.81952917985904 0 0 0
352 1 4 -0.1268 19.22266159503039 8.501208744672805 10.819187718147665 -1 0 0
126 3 5 0.1268 12.921269144465088 7.195885068275736 19.332790320729774 0 0 -1
180 3 4 -0.1268 11.231408650264493 8.518270234235196 19.16240419275197 0 0 -1
315 1 5 0.053 11.207614684563044 4.61730139202771 13.889700814852489 0 0 0
549 4 5 0.053 11.371762325261962 7.383944784414359 12.490349339316522 0 0 0
482 6 4 0.0265 10.843496230625222 4.517940621737921 17.018209352401257 1 1 0
481 6 5 0.1268 11.234033933860994 2.2998875012080395 17.044001061377514 1 1 0
292 5 5 0.053 14.406498488807543 5.306284797234065 10.98217558506983 -1 0 0
312 1 3 0.08 11.364223014663333 3.729813243719037 13.289602969359754 0 0 0
496 1 5 0.1268 18.938923706041972 1.7068905083096217 17.773306791366018 0 0 0
358 1 10 -0.1595 18.642363499606088 8.896925499431859 13.099058803642224 -1 0 0
214 4 5 0.053 18.958135350382378 8.872993329028318 16.372978110275866 0 0 0
581 4 1 -0.106 11.441688066907325 8.34023843697943 13.022706791640578 0 0 0
353 1 4 0.0265 18.350871723224948 8.559046229055063 11.8432613673702 -1 0 0
454 4 5 0.1268 11.594853227069947 9.3580994552258 15.47208035411355 0 0 0
310 1 1 0.027 12.174524440965119 2.642645588907624 14.008263560941245 0 0 0
484 6 10 -0.1595 12.093537333518046 5.0049448581724345 17.41088584563356 1 1 0
241 5 10 -0.1595 16.579873963899267 3.1697103251580856 12.25739875358605 -1 0 0
239 5 4 -0.1268 18.314549813626577 3.824158123222526 13.891192762431483 -1 0 0
493 6 5 0.053 15.969073443119912 3.1522985714287284 17.945103467701543 1 1 0
492 6 1 0.027 15.829905897131306 4.185387285932169 17.586151308705613 1 1 0
208 4 1 0.027 17.065896470142462 7.705375670881165 16.200796787367366 0 0 0
487 6 1 0.027 13.118259472458147 4.095614448369792 17.773131818456317 1 1 0
419 4 5 0.1268 13.780445350318997 7.0063388718726625 12.684789800893107 0 0 0
418 4 4 -0.1268 13.79232136094375 7.592670079775373 13.671028402488545 0 0 0
414 4 4 0.0265 14.776513302854742 7.827319729598795 15.864811024992129 0 0 0
417 4 4 0 12.632656024164655 8.267141743167656 13.988836269568743 0 0 0
416 4 5 0.1268 15.721231959544662 6.804544898610107 14.0980180811452 0 0 0
415 4 4 -0.1268 14.863731706976466 7.375890944350064 14.521300610028918 0 0 0
413 4 10 -0.1595 15.754136537086193 7.800169167752107 16.753209985264835 0 0 0
455 4 4 -0.1268 12.590632943808764 8.875204428075973 15.260974361253169 0 0 0
412 4 4 -0.1268 13.589951904458388 8.614830196705375 16.21139448283452 0 0 0
206 4 5 0.053 17.299507826795846 6.647528673277342 15.903448249085628 0 0 0
490 6 3 0.08 14.529563192568103 4.806838043630396 17.500829242471937 1 1 0
211 4 3 0.08 18.229783205239915 8.310394682169024 16.977420543316008 0 0 0
209 4 5 0.053 17.085088812182995 8.233054304558063 15.23711247876125 0 0 0
486 6 9 -0.266 15.159320155639042 4.4043946422342914 16.374669280168703 1 1 0
240 5 5 0.1268 17.835092826195208 4.749122287064633 14.054385108913284 -1 0 0
485 6 5 0.053 13.057721023617248 3.743927322712013 18.85748814401366 1 1 0
488 6 5 0.053 14.345078220045867 5.876507131936971 17.529005492925737 1 1 0
121 5 1 0.027 16.17853937253269 4.488040788550714 11.820255836527737 -1 0 0
491 6 5 0.053 13.071430082247566 3.2095125105903612 17.18791042574084 1 1 0
213 4 9 -0.266 18.850713516320294 7.547437303938566 18.007333214304698 0 0 0
494 6 5 0.053 16.66651426616353 4.858939990066418 17.78755985725787 1 1 0
122 5 5 0.053 15.968142227970734 5.1463525143630395 12.681793808087129 -1 0 0
119 5 5 0.053 17.0117610764009 5.104503513919282 11.46170775251198 -1 0 0
238 5 4 0.0265 17.774083646670565 2.922336906804645 12.981189768211143 -1 0 0
580 4 4 0 11.566132059988485 9.475326288771862 11.957620028925968 0 0 0
210 4 1 0.027 18.182618412442697 8.763482390930065 18.37235173603573 0 0 0
350 1 4 -0.1268 16.96855573368535 8.4868311119107 11.464371791770985 -1 0 0
411 4 5 0.1268 13.534637066033152 9.16559229449237 17.153736440972555 0 0 0
207 4 5 0.053 17.253472209691864 8.670236225335412 18.964181370460903 0 0 0
377 1 5 0.053 13.000378047887061 3.074760887485871 14.5571734540462 0 0 0
309 1 5 0.053 11.521222316439466 2.1236663749211178 14.695475012978495 0 0 0
517 1 5 0.1268 16.225053519119896 8.592883237959388 12.281447799446228 -1 0 0
123 5 3 0.08 15.039856682399064 4.476019629919964 10.808713749941564 -1 0 0
234 5 4 -0.1268 18.501593589797984 1.7520072454322075 12.576477062095943 -1 0 0
306 1 10 -0.1595 12.722976992306712 1.7199603368037135 13.099796500569836 0 0 0
578 4 4 -0.1268 12.697161566632154 10.229721854338871 11.655209071921385 0 0 0
308 1 5 0.053 11.658965706604961 3.172274465188073 11.093259707913525 0 0 0
579 4 5 0.1268 13.617291581922492 9.952463815240812 12.263391822407858 0 0 0
212 4 5 0.053 18.897392567698788 9.592240413247866 18.78607115207569 0 0 0
232 5 4 -0.1268 1.4472121556736723 1.5165300324256232 13.123153176669286 0 0 0
429 4 5 0.053 16.260156983044837 10.31050877678837 13.783948513641802 -1 0 0
473 6 1 0.027 19.47558999668848 4.160584560569015 19.035576565561698 0 1 0
443 6 5 0.053 18.509852687140487 3.6570484620573787 19.163466921595003 0 1 0
30 2 4 0 19.25060475986513 16.751517879857456 10.91735662540207 0 -1 1
272 6 5 0.1268 6.128723866863117 19.551394378120246 17.771369686490104 1 0 0
330 6 5 0.1268 4.213138208186925 19.565393471111584 19.127417107585785 1 0 0
242 1 5 0.053 4.984807337801528 1.7207811438255574 11.123819896667648 0 1 0
319 4 1 -0.106 6.938522120119462 16.405785906617513 19.056297297822006 0 -1 0
147 2 5 0.1268 4.667069875566709 13.36542080140735 11.083835688378159 1 -1 1
247 1 2 0.08 7.057502925201821 19.660901802476868 11.09977159401174 0 0 0
541 5 5 0.053 5.180420238900371 10.876722796784108 15.745576617695317 0 -1 0
80 3 5 0.053 9.548852579776403 15.260707807398413 11.86250209955783 0 0 -1
77 3 9 -0.266 8.841964007966043 13.280867917021627 11.006992464458497 0 0 -1
52 3 5 0.053 8.357153471013834 11.375454061600044 12.741681161943172 0 0 -1
246 1 5 0.053 6.892166014591065 18.81547974839875 11.76845551159239 0 0 0
544 5 1 0.027 4.938779884461077 11.900529523030128 15.429541618142329 0 -1 0
548 5 5 0.053 4.349876801945294 12.434625408731076 16.24714677193909 0 -1 0
543 5 9 -0.266 4.312513660818736 11.981019400529446 14.104028374333511 0 -1 0
55 3 1 0.027 9.270396296483277 11.909076227048327 13.131081443173512 0 0 -1
79 3 3 0.08 9.691143726739787 13.010521376713761 12.118061038698613 0 0 -1
538 5 5 0.053 6.473117637301115 12.248488966527953 13.762503052485853 0 -1 0
405 5 3 0.08 5.612104529252186 12.640227792343097 14.354657208002843 0 -1 0
444 5 5 0.1268 5.015291388845749 18.863529574037365 13.336107971303027 0 -1 0
231 5 4 0 3.571367541894017 18.817444259878844 14.927382020471004 0 -1 0
58 3 4 0.0265 9.092702782487539 11.754063146892737 15.506033655166796 0 0 -1
59 3 10 -0.1595 9.10134328564965 12.526313443733173 14.374362398998874 0 0 -1
182 3 4 -0.1268 9.20329674323731 11.797686128259832 17.907735632904995 0 0 -1
181 3 4 -0.1268 9.201371616976838 12.446323379489442 16.694794537198874 0 0 -1
445 5 4 -0.1268 4.479126495466863 18.254768029815306 14.043628320203664 0 -1 0
78 3 1 0.027 8.963319316938385 14.282236523972252 12.030869025888865 0 0 -1
404 5 4 -0.1268 3.4148809078296125 16.637351052347544 15.986013236464949 0 -1 0
583 4 5 0.053 6.36940163684638 15.43784749390001 17.177886755975123 0 -1 0
406 5 1 0.027 5.635644770858075 14.201988644883876 14.290253234498264 0 -1 0
402 5 10 -0.1595 4.758885703761609 14.772156384565672 15.328285589741926 0 -1 0
510 4 1 -0.159 7.158660057422881 16.123040229989684 17.594244299160884 0 -1 0
511 4 5 0.053 7.161616028379685 17.05855277863855 16.890836977113118 0 -1 0
408 5 5 0.053 6.658445510150728 14.55167340602549 14.362647995557822 0 -1 0
400 5 4 0.0265 4.352422819662289 16.11218498155973 15.118766237741877 0 -1 0
509 4 5 0.053 8.231516545111258 15.709908324050184 17.520198222387457 0 -1 0
410 5 5 0.053 5.264348492036825 14.494042688278585 13.311561561426354 0 -1 0
537 4 5 0.053 3.17346299846484 12.789480498141872 18.08552587037314 0 0 0
397 5 4 -0.1268 4.800789670743988 16.89997437748548 14.071673211231236 0 -1 0
396 5 5 0.1268 5.499049898858016 16.500438884209014 13.321978863803018 0 -1 0
198 4 5 0.053 8.804701225474428 17.164982728926773 14.358173931434711 -1 0 0
201 5 4 -0.1268 3.1194005677262497 17.99879639180404 15.900655000762615 0 -1 0
409 5 5 0.1268 2.945438880646528 16.04626484589499 16.772620804951224 0 -1 0
76 3 5 0.053 8.123665586870267 14.476223497084707 12.667794018016266 0 0 -1
27 2 5 0.1268 3.56330620715539 14.989187360383488 12.007897350692772 1 -1 1
25 2 4 -0.1268 2.964964869046685 14.214835764507788 11.536900366945195 1 -1 1
237 5 5 0.1268 2.3458815241129787 18.412014530147545 16.553733658446454 0 -1 0
561 4 1 0.027 2.3644810457396894 13.419235223125309 18.51704232415641 0 0 0
51 3 5 0.1268 9.300256887239026 13.557044458811163 16.738721049735993 0 0 -1
178 3 5 0.1268 9.394629118689299 12.32911785632372 18.876176355931065 0 0 -1
196 4 1 0.027 9.816458787026061 16.755929987974866 14.599049561614946 -1 0 0
194 4 5 0.053 9.736841547459596 15.7271404437835 15.04400969575177 -1 0 0
552 4 5 0.053 4.068813688184482 15.413071816119315 18.977883335010922 0 0 0
149 2 4 -0.1268 3.555384959633655 13.13493322968832 10.96246787608679 1 -1 1
230 5 5 0.1268 2.1481716434702127 19.024274892086705 12.753781427740307 0 -1 0
90 4 5 0.053 2.077432451432632 14.252939179659156 17.877269077707094 0 0 0
253 1 5 0.053 9.261167387538928 19.520731370255195 11.1672655383052 0 0 0
536 4 5 0.1268 1.7673927449853812 13.336318646653336 16.09592592436795 0 0 0
54 3 5 0.053 10.07342297552377 11.13936780455286 13.157712373190686 0 0 -1
199 4 9 -0.266 10.618905243733272 17.65290340359808 15.289137334471182 -1 0 0
21 2 5 0.1268 3.0955302353762733 17.288743865028458 10.780921050353108 1 -1 1
82 4 5 0.053 5.027614374937707 13.788529618206288 19.191472414173244 0 0 0
29 2 4 0 1.6252357169472207 14.407950511550384 11.566117032338498 1 -1 1
34 2 5 0.053 1.6381381430731696 16.22280356982141 12.986400750763607 1 -1 1
24 2 4 -0.1268 19.124895255442233 13.421359799698854 11.05248689483527 0 -1 1
316 4 5 0.053 5.911354799144959 16.740964882660325 19.245155329010714 0 -1 0
465 4 5 0.053 7.4753004916745 17.29777215211588 19.33087565576235 0 -1 0
324 4 5 0.1268 9.49260070105374 15.564262369283535 19.60689494183873 0 -1 0
84 4 1 -0.0233 4.37496371093463 14.537684564537834 19.671518295932298 0 0 0
28 2 5 0.1268 18.037673812321948 13.527418545971434 11.145922798399734 0 -1 1
111 1 4 0 14.488012875165465 17.706715965020482 19.6288701485968 0 0 -1
495 1 5 0.1268 18.17767702322013 19.341351516888338 15.462908844301058 0 -1 0
300 1 5 0.1268 13.381817433111605 19.370778592406488 15.758512333385962 0 -1 0
81 3 5 0.053 10.787586532758686 12.974377211433461 11.949658099113803 0 0 -1
200 4 5 0.053 10.996283058694527 18.076484949753613 13.236297297382496 -1 0 0
197 4 3 0.08 11.084229188026603 17.27838878700044 13.96585434559112 -1 0 0
153 1 6 0.2487 15.672530898664892 13.33175708718869 19.238983260565504 0 0 -1
554 4 4 -0.1268 17.522606419548886 11.699326711911638 17.553141479814663 -1 0 0
35 2 5 0.053 18.441356021897167 15.559810417190864 12.481974152160403 0 -1 1
62 1 5 0.053 13.76411941349946 19.010681757788866 18.20011694038926 0 0 -1
307 1 5 0.1268 14.428950225996052 18.873902013150605 11.607278756574438 0 -1 0
264 1 5 0.053 12.466834121794662 14.556036163329395 17.315359121304287 0 0 -1
441 4 5 0.1268 13.887248308895732 10.95334205237232 14.744959963593585 -1 0 0
259 1 5 0.053 13.348850080096701 13.14909480014315 16.720225921871204 0 0 -1
463 1 5 0.1268 17.71194933983428 15.261216672710272 17.026867430842092 0 -1 0
500 1 4 0.0265 18.824854740525822 18.07508436887557 18.655883791444513 0 -1 0
505 1 5 0.1268 18.64583361906496 15.982875882532735 19.219982026516607 0 -1 0
304 1 4 0.0265 13.725538506635079 19.27677099444994 13.602274928833545 0 -1 0
393 4 4 -0.1268 12.984974188046756 12.799976917412138 14.359266508527082 -1 0 0
305 1 4 -0.1268 14.602347469089487 18.697133934292154 12.677086117406294 0 -1 0
458 1 5 0.053 18.06902769335892 17.022786088575344 14.004046034264135 0 -1 0
431 4 5 0.053 17.095896192259495 11.611701901072117 13.014170288100138 -1 0 0
303 1 5 0.1268 16.341598730571732 17.445022400036905 12.247985644605876 0 -1 0
395 4 5 0.1268 11.979310347579151 12.637047481218875 14.640871833140235 -1 0 0
89 1 1 -0.106 13.67591716320146 18.95707680290311 19.24570297955663 0 0 -1
498 1 4 -0.1268 18.62395362791168 18.96362648388622 17.618621581157875 0 -1 0
560 4 4 -0.1268 19.096691013905527 12.875751086754923 16.21651133298297 -1 0 0
266 1 5 0.1268 13.490244553272865 16.90306238062619 17.94163411539737 0 0 -1
433 4 5 0.1268 16.338239857700973 13.802413318200712 12.75323736751326 -1 0 0
555 4 4 0 17.24191800651939 11.781334685522278 15.145416712998491 -1 0 0
502 1 4 -0.1268 17.97466652459831 16.33506599673671 17.161461249916382 0 -1 0
301 1 4 -0.1268 13.986211667032011 18.953587698940368 14.970344567536852 0 -1 0
295 1 1 -0.106 17.217148656090203 16.876173239230894 14.755910104720222 0 -1 0
262 1 1 -0.106 14.697470584814752 14.575155863496573 17.58606303655027 0 0 -1
497 1 4 -0.1268 18.10379909705028 18.615593107783642 16.395080856917097 0 -1 0
439 4 4 -0.1268 14.022248985003799 11.901961244973364 14.298318741185993 -1 0 0
118 5 5 0.1268 18.021995267729853 19.39557754925665 11.846036543458696 -1 -1 0
268 1 4 -0.1268 14.267104131544805 16.686033438149945 18.697146471302744 0 0 -1
302 1 4 -0.1268 15.654063915051022 17.92854675291224 13.01776775497557 0 -1 0
503 1 4 -0.1268 18.496965387368423 16.73330168456337 18.40035359235461 0 -1 0
299 1 4 0 15.982884597495882 17.717139649973703 14.348675866701635 0 -1 0
553 4 4 -0.1268 16.827683675724025 11.34187079812894 16.413898389654435 -1 0 0
163 4 5 0.053 12.968006810667102 16.66115203858088 13.053856562156055 -1 0 0
434 4 1 -0.106 16.53144200985487 11.37157818280743 13.895638037839054 -1 0 0
437 4 5 0.1268 14.650438045015521 15.443754452472849 12.939714535529728 -1 0 0
551 4 5 0.1268 17.132872485494765 11.4725462973476 18.627308490874928 -1 0 0
267 1 4 0 14.83823720148263 15.462703067880177 18.756849335090532 0 0 -1
293 1 5 0.053 16.975167332153358 15.876432329864967 14.560660390484973 0 -1 0
440 4 5 0.1268 18.874271605090414 12.772265797406309 14.179730526792865 -1 0 0
558 4 10 -0.1595 19.50477043744681 12.593340976371671 18.58179428478252 -1 0 0
87 1 5 0.053 11.583600194985443 18.494681701943954 18.98989853564866 0 0 -1
556 4 4 0.0265 18.732020879712792 12.437288010324599 17.503391013200694 -1 0 0
557 4 4 -0.1268 18.358526263319312 12.597276394354383 15.11159699294907 -1 0 0
398 4 5 0.053 12.916077935881491 16.595706111449537 14.813642130441574 -1 0 0
263 1 1 -0.159 13.384712611841925 13.878025595650872 17.518302987011598 0 0 -1
31 2 1 -0.106 19.386325752543243 15.738933333542324 12.06131463218496 0 -1 1
296 1 5 0.1268 15.335097850657652 17.947256719904 16.383310808848414 0 -1 0
436 4 4 0 15.283225074955123 12.27261332240821 13.851836798797361 -1 0 0
261 1 5 0.053 15.51421832505185 13.804299287146366 17.46283395376151 0 0 -1
195 4 1 0.027 12.342538534732055 16.37708133488808 13.897928310430633 -1 0 0
438 4 4 -0.1268 14.380016671935257 14.439322925465161 13.272976916064085 -1 0 0
394 4 10 -0.1595 11.994517618968183 14.978259483479295 13.90288129130854 -1 0 0
442 4 4 0.0265 13.092369319532471 14.097146887678031 13.805364380588562 -1 0 0
298 1 4 -0.1268 15.09866088994496 18.203591961924413 15.293935445096315 0 -1 0
499 1 4 0 17.74085041806084 17.26747525676989 16.148811503987233 0 -1 0
435 4 4 -0.1268 15.399073868361366 13.504941542516079 13.21884595393498 -1 0 0
260 1 5 0.053 14.89293328774167 15.189733062472373 16.6876254384162 0 0 -1
265 1 5 0.053 13.19070784245186 13.375335079894043 18.484816877068944 0 0 -1
550 4 5 0.1268 15.905038362510378 10.740519308649537 16.565012274428685 -1 0 0
225 1 5 0.053 14.16869037687769 1.6296083219193223 19.609643263028683 0 1 -1
224 1 5 0.053 9.804997078920534 6.527176184497593 10.660500116916241 -1 0 0
185 3 4 0 10.47827839934142 9.46548736246163 19.701437877319446 0 0 -1

Velocities

283 -0.007018682200414068 0.007758110435955595 -0.005868645816839887
278 0.00121630320118133 -0.005342118749409524 -0.0009925238787082628
277 -0.004160199636468142 0.0010774059487298384 -0.0030819157798526804
280 0.00398159899334778 -0.00862069967748306 -0.005840420084939036
276 -0.005028652830936491 -0.0025431742727597536 -0.002759627274575573
45 0.010681230277591302 0.0005650081268882461 0.005038425208627058
274 0.0002812321219785951 0.0023863132866418424 -0.000664393848480735
50 -0.018037260964796766 -0.012080753484054295 -0.018351236410967454
116 -0.005739433904523082 0.0023724284765447843 0.0006299131178856786
114 0.008868595169772868 -0.016225620884843073 0.015305427626039586
49 -0.007183735083852711 -0.0038441235691517887 0.0021471186291201283
117 0.005281594896109324 0.027010501651824035 -0.021970515751177488
15 0.005773711583173088 0.0017342696363254664 0.008300616868471064
281 -0.0048860054358731 -0.002930723673489935 -0.0053852846392228445
227 0.013722950234276835 -0.001260457335439062 -0.01713651153257447
361 -0.0007083600018350094 0.003541249176607869 0.00446222911061632
356 0.0002236471596122717 -0.0002445755699633351 -0.0023707932562891305
359 0.01767302577049154 1.4299311106240999e-05 0.00924826743419378
113 0.0003572225692000819 0.0005807984899115965 0.005756406366874255
357 0.0012148080010468607 0.008387852335338012 0.0021972711159763294
354 0.005598805663905759 0.005003679598890723 -0.00452734271584695
447 -0.0048209292872892235 -0.0037476142224129724 0.0017599363446137183
351 0.004896117201459823 0.005487320789295677 -0.007273710583098024
222 0.01282322395074802 0.008907425675545647 0.012943477890393427
223 -0.004148971229460422 0.0008904101179170661 0.013543763383793322
47 -0.001533739521625723 -0.0011055344373281876 -0.0034026152099997844
360 0.02779349684765576 -0.0072549335180239274 0.00712409076177954
363 0.00868139594700173 -0.012276226496805568 -0.009535781190096187
362 0.02505084553621795 0.004718593156761633 0.03304112991842977
448 -0.008479691259487197 0.002945046788453457 0.007480169833476608
177 -2.7865481430622878e-05 9.209503865300387e-05 -0.011021722156687263
446 0.018470956264316107 -0.01366359636800889 -0.020910291315862285
450 0.0019502396140724009 -0.010109196134950853 -0.007690806122628795
285 -0.004040681651987634 -0.000517030840222911 0.0016943103308255428
286 0.00012818777437278439 0.0182086549602064 -0.0015633113360870043
158 -0.012052594121992116 0.008379578665635374 0.01107101743996671
56 -0.00026775540636676386 0.0005595470951224804 -0.004793754976649878
157 -0.0009948521739723466 0.0018902653534884379 0.019444614108113656
273 -0.036106826237330344 -0.013773988813803366 0.02681528823962126
546 0.005631405630621879 -0.010950751786374481 0.0003030253008563704
174 -0.0007994508568099988 -0.00018497903959092564 -0.00289067837104256
169 0.0010475574997281234 0.005961628295050533 0.002409657760081679
428 0.005721814566020234 0.0005215841587581167 -0.008668950685381477
115 0.01159233409907485 -0.005948630819154747 0.007297731306429184
275 -0.0035393370231015823 0.003925499268744205 -0.038407353575428294
40 -0.026955179719816848 -0.0050758127181225535 -0.0020934786880786476
252 0.0005780145491055743 0.010783744156788871 -0.00576526080311467
141 0.01315624875978727 0.005762159043074555 -0.021782908009744986
41 0.007831181594500029 -0.006341154469446439 0.009264057836239206
139 0.0022553106638391325 -0.0007626323014068152 0.002974377355002513
282 -0.006952547750944314 -0.003464156083716004 0.002354077431648072
132 -0.015308935499036018 0.006812232405621864 -0.021280610410417268
159 -0.011331225675788318 0.023665073046266905 -0.02201486197345086
453 -0.009912549269901972 0.0017976494781488587 -0.0038763834633326315
53 -0.005724458267374215 0.003073784702600502 -0.016614718149785886
110 -0.029942851946147122 0.002760406184400739 -0.017117656803288594
13 0.004355781414456615 -0.001902254606256668 0.005987787308433639
507 0.01059486997050472 0.006874725060444519 -0.0096715740736071
459 0.009216002495375755 -0.011262156716701947 -0.03447253939884218
191 0.0053904856347520135 -0.009677854358719668 0.025104811740238882
189 -0.022351081174716944 -0.013928160165912348 -0.010873904648547749
271 0.008408912753397774 -0.0045769564917422624 -0.00892508076199268
270 0.00971681887737832 -0.02813399336369121 -0.007675844417410725
269 -0.0034924627223585085 -0.005032280332895674 -0.0038839581861004435
378 0.006823152690799378 0.019009144214571814 -0.005528529819729009
329 -0.012777181948950462 0.009148220126777303 0.006677225962861978
57 -0.002180139292545646 -0.0016211826240460276 -0.008630213077119251
576 0.0066965330918257685 -0.008205318450785573 -0.013578463869694716
173 -0.0004919082859733782 0.0010714523159136376 0.0015743442954388222
171 0.02158381102457594 -0.03923197723760084 0.0038749762593321617
73 0.0053548305435155655 0.014010329663888595 -0.024555016449681083
452 0.005548974782059956 0.01625701316991947 -0.008342145603677327
42 0.010980297543860946 0.02373583603362915 -0.001772243826926084
124 0.0005863260355107212 0.004313969192004385 -0.0016464422831643144
284 -0.016393178080407748 0.00746247999963982 0.009161878194365194
134 0.0020909839454468994 0.02068514262324057 0.013879594368426664
472 -0.0009141466524121794 0.0024768103423079843 -0.003768327102760624
474 0.025276289163860963 -0.015464289970827097 -0.013757698145447469
128 0.0019009365581208642 -0.0004069832108578584 -0.00799980993986136
294 0.0025253089922312676 -0.002688704854644244 0.005611464728001763
136 0.0009330126054082859 0.000508549797073769 -0.004279300463104873
529 0.016161575141170493 -0.00630718921714607 -0.018530163926377134
528 -0.0019288680285481333 0.003996283572437624 -0.005113147528742004
379 -0.008321828707974158 -0.0033143328806958614 0.0025787398283207293
527 0.0033873891435063615 0.0029666747929414485 0.0009618746358618238
288 0.01930900727275484 -0.021463051201353528 -0.0007258517593024352
133 -8.876215462397983e-05 -0.013164047815986367 0.013629702063108231
130 0.0009992291399426863 -0.001835444193744569 -0.005489093911926132
287 0.001089205184321954 -0.003911016136617402 -0.002621969653614806
11 0.013593296793394674 0.003671620088831506 -0.003664815418930323
430 -0.005758765374481921 -0.002599869941669872 0.0027081697443294855
432 0.031226477783665156 0.02066194898528388 0.003424813757620287
533 0.011736445354617757 -0.010838916827435197 -0.021599151724092172
531 -0.0018122347249833394 0.00022414468249070345 -0.0035606131224394278
380 0.0009569232943099589 -0.0069578789872320555 -0.002580946526392258
251 0.005299397676679069 -0.001927895592435283 0.003947447772834075
131 -0.0004713685059991184 0.004325263877107716 0.000626244762359209
193 0.007794059295815278 0.0019354061743241861 0.0010000385909988082
342 0.00281026481310487 0.006174081059105405 0.005525642425888392
12 -0.003341348559856292 0.003877903167676995 -0.0017489936424387004
336 -0.012184253879027256 -0.02804105331392023 -0.007995039665030543
390 0.0007097329715455374 0.001172303316184588 -0.005127379188036452
384 0.001213651838343347 -0.007662623257657075 -0.002937830982738012
387 -0.016254415178041076 -0.0002836293668525636 -0.02657195919642239
388 0.005150833275009953 -0.004438616410763007 0.0007955473205859033
335 -2.2961019225322573e-05 0.037981132739604996 0.022529273385985156
392 -0.0010781317999368188 0.0019330462527900447 -0.004120435672548004
334 0.0014927456527505884 -0.010012839325556785 -0.004026607158074969
386 -0.008430327097043853 0.005570234331571177 0.0005241567035552754
337 -0.0020588566014658263 -0.006291531190394678 -0.0039149087472690035
382 0.012073773666623875 -0.005855556081822826 -0.017203876789994074
10 -0.022451495230563424 -0.01404830625512341 -0.02553226025856702
9 0.0008408760315057907 0.005416820117162086 -0.002557183617748215
106 0.006991316271893499 -0.009990889268565296 0.017401987374149493
338 6.701184277898542e-05 0.01027440925449859 -0.0040999402563097545
248 -0.022008026500746482 0.019997727320354305 -0.011463004302318055
250 0.0028531085722074325 -0.005761228753472357 -0.00670350370610395
102 0.009090594957186377 -0.01116918338434536 0.0174320402856654
103 -0.004286991820616508 -0.005509301106402855 0.0061223966968848645
355 -0.016193829701548357 0.009873227967422385 -0.003009985220379348
129 -5.8661152906585645e-06 -0.005484016683669589 0.00403257532862267
125 -0.0024592812464120663 0.005259897622631263 0.003352317881736689
530 0.005909232684563637 -0.014915007794922943 -0.006758047189808653
532 -0.0005055432400488454 -0.006005155463819282 -0.0023780029451415646
508 0.0025480309542045814 -0.006211103123450584 -0.00679232703519099
19 -0.0144388538119067 -0.005849647678232185 -0.011351220393620976
466 -0.0029938241238038916 -0.00549259645063285 -0.001203856578299283
5 0.0048303044968772 0.018767547251596364 0.01338061266739305
348 -0.010261797361038683 0.0047623189769743016 -0.0006063838293747758
135 0.006733832399335343 0.001032207620221149 -0.003077959208340604
249 -0.021672238518017955 0.02760729367326148 0.021621310736037874
137 -0.022887884321656716 0.00420845636587176 0.0010391116202331523
339 0.006689291808072157 0.0025510643506147803 0.01691690177877716
364 0.007556705021804256 0.013793462155785821 -0.022824672621705847
289 0.0238229273186729 -0.006888798294667123 -0.017639171526921755
489 0.0012777501504022096 0.0033268708346250895 -0.005262254374622318
391 0.01018517302321542 -0.01807736160067835 -0.0015054599540213615
37 -0.0073004995333691754 0.01916993968766764 0.0005046605660496103
297 -0.0026634226589836462 -0.034771883436398886 0.02156254322948153
291 0.0036060437199750693 -0.0010435712188220263 0.007114928433333351
279 0.008544499605616736 0.030261284148272113 0.015662170727474743
343 -0.01185569189267904 0.005589854038378306 0.0022335353283073236
6 0.019149448713752064 -0.019890135960803478 -0.006225925718814696
8 -0.004887691178492004 -0.001808527794298915 -0.0025497618553425973
99 0.00014660765979697892 0.019003395909633014 -0.00944398051884988
14 0.00364496799141501 0.008242757434356167 0.0032600402359066593
534 0.0022855587001659387 -0.006262693452700631 6.130600192372206e-05
96 0.0009251604174128271 0.014734924480263138 0.011465046853294211
501 0.0006578568930719783 0.0031728370427663096 -0.00014380069275043509
142 0.0013925405496242296 -0.0007780750826279894 -0.0056317322262014555
144 -0.017319339192908408 -0.0014879357444063921 -0.009281478501781296
483 -0.008680321647590007 0.008090771262363735 -0.036594370971942465
143 -0.0009097575602740001 -0.006491196588348332 -0.000848812611588187
564 -0.0027658016307704095 -0.00683474434423875 -0.0020901024501516715
461 -0.0014128537367693176 0.001176719165302024 0.004207806862026359
244 -0.0011220949909520005 0.007885699944925011 -0.004509277249965751
17 0.00349382064268446 0.003283038735997856 0.0001809256868503848
138 0.022795792676776328 -0.016212956539866284 0.024699335080724735
245 0.013387174072161334 -0.00988848894531659 -0.024005148207978434
146 -0.002181712363548214 0.0007307677945154975 0.004650127452117051
18 0.019906963552347886 0.02249802348163673 -0.03851357189825716
572 -0.0074233564476696295 -0.014397617441613797 -0.0020523757201469464
545 -0.002930279330209132 0.002718896586585505 0.009553183885056951
140 0.0011975365426573467 -0.008703315372794075 -0.005422848539138223
539 0.0195945359103233 -0.032511357360151004 -0.04487325984901392
63 0.0032624334716657806 0.001992138209504553 0.0032433388845962605
98 -0.0066010254623398296 0.03147286105002114 -0.009691307724349531
464 0.008196375934456596 -0.014495926023622999 -0.004734888468596272
254 0.01174560746312446 -0.011873338426762659 -0.0032392981761793934
258 0.0063858156931945916 -0.008086752721691662 0.019716853151797963
540 -0.0016906189020962832 0.022869318871279853 0.007619878394161869
547 -0.011768761423327629 0.006005666024951599 -0.01483861946788983
151 0.014605574337701974 -0.010341407245213683 0.0010904229192382155
152 0.0009013003122784699 -0.003195984180653431 -0.0030614175784836385
156 0.010232381894343126 -0.0009433382352162289 -0.0036377837867366115
65 -0.0037776012254502893 0.0021186805508334587 0.005413833679796122
542 0.0023822104694264422 0.0020925660603386 -0.003384963791383115
46 0.018859931693904614 0.02018544570832782 0.03885109324919833
64 0.0037284369190326927 -0.005480888571471971 -0.003791118415526402
48 0.006907184849927439 0.007978183190277209 -0.019198231860166438
67 -0.004402586732923502 0.007923924658035294 -4.6211274355360596e-05
69 -0.001817606040022734 0.006244759873474886 0.0063003162208370034
44 -0.03280990562142781 0.020730426160208454 0.008068665439593073
70 -0.0018833861031604083 -0.0018083807256756173 -0.007061685729430559
66 -3.85758761224709e-06 -0.001520855604956503 -0.0023721782484349917
72 0.00919999615594001 0.0030164792302714875 0.0002443539114624798
68 -0.0006213744638795927 -0.0005814930493394602 0.008739022546700899
74 0.009027642495706235 -0.0011155168324787636 0.009030591269967421
257 -0.0006280611715787628 0.004392298139521515 -0.003733604928961629
100 0.01857434637634822 -0.013522367699133744 -0.00011916840736633196
150 -0.01170246377106864 -0.012592162260575739 -0.02235142366157861
327 -0.00542318439808136 -0.0016729933210708117 0.003558558258865046
322 0.001809363637630835 -0.004070532223335432 0.008310618423430576
320 0.0021851139871989327 0.0036137010487357012 -0.003888403710905593
325 0.012391748596180181 -0.004590867916302807 -0.005549811258917706
317 -0.0018647662445719561 0.001179910201249676 0.0007602895453066327
154 0.003828498941751676 -0.006838099204876844 -0.013185869446745935
326 -0.005330069578607908 0.0022729816572387308 -0.0027999811719326625
451 -0.013415882806551812 -0.03456178235778716 0.011311837663799033
569 0.005425755495807768 -0.008641596785414402 -0.0071463478890496845
321 -0.0041183049206940684 -0.006569152280959843 0.000786253892427751
323 -0.0029055433499110056 0.0062889420755594195 0.00402976786532887
20 0.030878464174884004 0.0038145040543711736 0.00409720486440487
559 0.00093166513536507 0.0019125142865480563 -0.0002054303628648246
22 -0.009280623871768055 0.002273938532840769 0.0023503130540482634
71 -0.005660553608373213 0.0004649931430559686 0.00414420124045102
205 -0.0012882960333393514 0.023301266714159052 -0.016276327252226677
567 0.0004310788388070018 0.008266327124560212 -0.037449133712729815
75 -0.016515678113058905 -0.02285374639203956 -0.009351500709444559
570 -0.003635505611253366 0.016953224750740452 0.018230028530070382
568 0.0030830929522534345 -0.0069243914259962845 0.001461165959552382
204 -0.011049216690010265 0.008489966099131543 0.0024249092613527297
88 -0.00810405109283666 -0.0166981429636483 0.0024400164285378586
23 -0.006586623963538384 0.004004300913651508 -0.002916379612851283
203 -0.005201399387848036 -0.024323814500499735 -0.0006816830706964944
462 0.003626180812885655 -0.0050217465113697145 -0.010238373011365194
255 -0.0087512115795682 -0.0026137060866646467 0.003528618121065277
256 -0.01246980229816451 -0.0026338758377284477 -0.008092498033649384
86 0.0027277964206994746 -0.0030555538411345166 -0.004033008225214179
148 0.002783421300372811 0.000978920179716922 0.0010514191543809473
202 -0.024417701676053442 0.02765211765821779 -0.0064419218429328
372 0.005898131672187161 0.0006963101483112232 -0.007648064219553366
573 -0.0024740035820842686 0.006850238500510252 0.0014222011990451635
32 0.0007560210095554209 -0.002973600879059963 0.008101511915656875
33 -0.01008867030495762 -0.0018973674827220113 0.003670683082598551
373 -0.0029588395140626774 -0.017390000807842674 -0.00178160608010885
371 0.0052361676982669815 0.0015773657684313848 -0.00010510084628061181
422 0.01280705147442237 -0.008232172112889397 -0.014492037875754139
1 0.0015810538633161243 0.005540265379474653 -0.001989773355186995
104 0.02742740173364382 0.0063493229390813284 0.014978013309191573
112 0.002613833684265557 -0.001057868831040727 -0.00447071887055365
16 -0.011086997258415181 -0.01713957714186914 0.027149626409420622
420 0.014366962045402798 -0.0043018046555546195 0.010157510979399544
577 0.006813583179114786 0.00043268043657501096 -0.00036225464362850016
318 0.003128474741773116 0.012253650903440634 0.017542016052325082
366 -0.02488991099519693 0.00047829200852026545 0.024172113508076815
512 0.01065725160434746 -0.009300793392427783 -0.002520401985524853
108 -0.0002487164481547656 0.004531657748269424 0.0013001178339445958
506 -0.0017624097869308158 0.012800414553177207 -0.01130219050460542
4 -0.002614339627319487 -0.003492983955780474 -0.00601707215723759
565 -0.0037592622286282853 0.0012067400817563783 0.028950245193496576
105 -0.0037668550989704793 -0.004093007905085972 0.0006270395428987038
424 0.00081748997405601 -0.000822570631942627 -0.0032742734291950613
423 0.00016132791908898185 0.0038705162098959757 0.005393770188929269
221 0.013357474888570699 -0.005945036104529282 0.008218094916105057
218 -0.0019252320913390832 0.006692301561792895 -0.004319061876154069
94 0.021119019661100184 0.01205921333252468 0.006928206162810358
7 0.014491361994483358 0.029368241585615924 -0.0031902612484561105
365 -0.005719171899236435 0.00421305321695638 0.000318390700264754
91 -0.0021994056362881153 -0.0028954349788475205 0.005573257479455038
36 0.015630747476815587 0.00090201697300201 -0.0023873447036490054
582 -0.004213795389133411 0.01537780971891442 -0.02220318280008835
574 0.009780781441469722 0.01290986739917199 -0.010849418785701177
571 0.006223200814844195 -0.0038341122179302895 -0.0018312254189352375
566 0.008897712023546748 0.005075237916614656 0.0256031648357442
389 0.00528134975805192 -0.01804429012412014 0.024480582183949013
83 0.009179968617287364 -0.01515889546934247 0.014638997269055359
184 0.0037388230877884333 -0.0035498844178015513 -0.003008883296778037
216 -0.00542476159952153 0.0074743191818904585 -0.0028083639800495
215 0.001607738413102163 0.006739922915151991 0.01897607060930506
3 -0.00010519803709919033 -0.004924734984201753 0.006049629302426745
95 0.003776119243220352 0.0037424678189588202 -0.0017299499386568588
109 -3.180266942393273e-05 0.0021796985752528717 0.004290088038452078
26 0.0019099841577515685 0.004003410764556133 3.939143986141762e-05
374 0.006629947318925252 -0.00404761953360553 0.0037687789509895063
328 -0.00010354005633280256 -0.0007983341406247292 -0.000732350572559438
101 -0.019131486995013852 0.020305153163131563 0.02198882343683566
385 -0.019420458598828162 0.004920057597934642 0.01965037198487735
375 -0.0023129391233303893 0.009516442767802627 0.028908570860096693
107 -0.0014599151949460226 -0.0041909497245039146 -0.001896023837120472
92 -0.005757028866479315 -0.002689916495580972 -0.0027762378488259964
155 -0.0016886193362470763 -5.168134750847836e-05 -0.0020557515958668678
370 0.0009428510922029922 -0.006550651236432354 0.001790971499542591
426 -0.028869047924874353 -0.0092546096865888 -0.021464231957346983
369 0.0037787191944260085 0.0005272183855973007 -0.0007457456837291616
217 0.011036649430114133 0.006066190609857305 0.003781263066888254
220 0.004564719839980911 0.016178779253343236 0.01916100869739189
425 -0.003981698571266521 0.0019985841412180675 0.0037464834123833433
38 0.033132805541368715 0.00034007329719655814 -0.019985775759640407
376 0.006313531092689437 -0.00599608346906703 -0.016744137598462973
188 -0.0006795231074422575 0.004283131492128707 0.0025181205602631132
2 0.007416738789360789 0.007665597136568443 -0.005000373232713289
421 0.0005554002303534791 -0.0008355439683079464 -0.002003072945839943
381 0.00874951674651268 -0.03493710940063821 0.033500131793030505
504 -0.0018750233109141685 -0.0031720718877068154 0.008306734689560853
145 0.0018874908676714056 0.003768601166490072 0.010770052248516262
367 0.002998638166728789 0.001432640936480686 -0.002465471103294701
575 -0.0029792462792674304 0.007314388571584505 -0.008540720298145598
93 -0.01932377125997729 0.006687998161839602 0.008718569478824252
383 0.007038239980422961 -0.007381885031711823 0.005491731053293206
368 -0.005181562056045515 -0.0009628481588172299 -0.005088799582014501
97 0.003161592025172719 -0.0021769178856668892 0.002606689177437998
219 0.009306164192964143 0.0040808495136256595 0.01314745356541502
332 -0.0019232098893873417 -0.008209141562409808 0.01763880891853309
535 0.005693956693624991 0.009397151355552098 0.001411033006949645
161 -0.011489968683012344 -0.004512394904515801 0.04064938850526579
85 0.004397888475236379 -0.002059394004649988 0.00232157359440316
584 -0.00986241260911857 -0.02539717624939916 -0.015350687596421561
470 0.00019503064366233546 -0.0038477616891554175 -0.007621258634770752
585 0.00567991706364614 0.0022662981672781817 0.005193985025663366
516 -0.006600190546275147 0.000967088877816405 0.00017082352621976545
468 0.0025049876380876346 -0.013604701757107476 -0.007591222893159394
562 -0.001261872051049929 0.00014917226568385828 -0.013681598078040084
469 -0.002818400901360216 0.00042255015187000653 -0.004482405117172186
331 0.005121604192871149 0.0018293363235225438 -0.00028296520512072275
477 -0.0006116719426382971 -0.002740981968615299 0.004593037439573442
475 0.0032296180879773408 -0.0006862182303661017 -0.0021720770127831085
513 -0.0039939447183731285 0.01968709737761157 -0.008748933601279906
515 -0.0006970165693203737 -0.00144553123167157 0.0011794368698841865
333 0.0018279080810701604 -0.0048693821468655 0.0034135288769627887
192 -0.018829835380593733 0.002111900840027797 0.005925239885305019
341 -0.006033683776843126 -0.009854083247702629 -0.03395393105555303
478 -0.0017523135407784213 0.004704454760040258 0.0005434457808206979
166 0.012412625607063174 -0.0019991911377956442 0.003407622821347825
170 0.010617513677788671 0.011529936879534892 0.009963728481338816
172 -0.010549263903601846 -0.03392334227061727 -0.023304177653661256
514 0.01673320715169445 0.01573194641103494 0.005943676807818233
175 0.01803790588111719 -0.032070447852028804 0.010153160674706023
526 -0.009699622929633321 -0.01781538468361685 0.03718687795365564
401 0.0030005761932224476 -0.017475902059995847 -0.02081042262761185
399 -0.013486310307623895 0.011042536990076996 0.000824887958647442
233 -0.005661377403510046 -0.006153442036646883 -0.003256544085125027
519 0.0008355498680469939 -0.0004904634066667056 0.0009944614819261213
403 0.0032135231280408876 -0.0004111864211383591 0.003945241820488075
407 0.007950423316499628 0.016360736469599745 0.018900131595739788
521 0.0012410906229891165 -0.0008228291027138217 -0.007843871181321228
226 -0.00693641056756895 0.003677791607547438 0.015081238045707344
228 -0.028270786911669944 0.01936918409618583 0.0031835724601436185
183 0.021287527524098373 0.02212825127404155 0.002170443435462986
190 -0.010926157719793087 -0.0008007822899628388 -0.0006756439726278564
39 -0.0021172093763918124 0.002414469048548502 0.0008609816673249025
523 0.005609803737974325 0.0032263799812467854 0.004251589932201575
187 -0.005453365844977644 0.00546093209510096 -0.0017406344587659614
522 0.006608548553547615 0.011165000955609993 -0.007244663056884079
449 -0.0001533760062931285 -0.035024005870586836 0.007320840066083885
229 0.0011817701578751643 -0.0058663309821305075 -0.001716217838436014
476 0.01429119386291759 -0.028468655861638766 0.010013687205746665
43 0.0018341350253680557 0.0011491690659157202 0.006379566754755114
168 1.8827830486383976e-05 -0.005982183813212806 0.00199333944132779
344 0.005403800000221865 -0.004068772215102441 -0.004374716097086341
313 0.005876258370203242 0.007695469103784045 -0.0007260301011030606
479 -0.0012730008333791403 0.01160813358724385 -0.0001297290760432296
563 -0.017269792055256146 0.005025823250763037 0.0029991351772323534
525 -0.025073000548980602 0.03169483350548223 -0.007134790798017769
61 0.0056916635436902495 -0.007836293107664195 -0.006053152308457393
518 0.006980019227668524 -0.023371893886304437 -0.017215858331958545
456 0.0024933729466011813 0.0036979126139249966 -0.005492750433807968
457 0.004691898965749671 0.006849055045338748 -0.022712204879643705
520 0.007486657606697129 0.0024595549934141913 0.0020169476800290277
290 -0.006743026950910834 -0.00447229463862625 -0.016794664985262282
460 -0.012843504778008871 0.021966582595616357 -0.018710209212368677
480 -0.0056788294779656695 1.2641509741974747e-05 -0.005076184118947623
186 -0.005918082123897131 -0.0019659965501041417 0.0010813115088118116
120 -0.007297848254410488 -0.00959846718429577 -0.015995783934747158
160 -0.004041776432738722 0.042463412459436696 -0.02719663470145721
346 -0.010849039780070019 0.007612470496444411 0.006800774575801781
345 0.012252497749612873 -0.003007053743056938 -0.0016934193504623309
164 -0.03382236841212824 -0.017300243566892443 0.0019438862470536923
165 -0.005535326174650993 -0.00110054447875311 -0.0011420145707088933
236 -0.0234262000072737 0.01858190859601236 0.04465680444402918
243 0.0024630536384047676 0.00230644298526159 -0.003142469798127149
60 -0.0017963400824917986 0.0015351600124423332 0.0002900423502291024
127 -0.016475288960014215 -0.01346723868281801 -0.013282513346261654
347 0.007820269604663881 -0.003091321108889874 -0.0028709138380201586
176 -0.0014405269657199592 -0.003497785246516128 -0.0032079455433716413
167 -0.0014661556014953833 0.00542888928032091 -0.004236952830039706
162 -0.010118187347986932 0.0018064878556272247 -0.009423102843698539
467 -0.003458875057590472 0.007880599709170934 0.001192281627121881
427 -0.000709343485909975 0.012981635704786797 0.011600967312300809
340 0.00594436415797552 -0.02349308769996183 -0.009734980181698334
349 -0.004305497153812098 0.005758187863919228 -0.0018999072607048327
471 0.014642501197772103 -0.01745945385984981 -0.0003962385953056028
524 0.008097435546404607 0.012979562622752665 0.011231110537193743
179 0.016594078585665837 -0.006614059977407674 -0.017470821792574184
314 0.017436859232330234 -0.010298003113121084 0.01255562171098595
235 -0.003362633875832665 -0.002752666567019081 0.0022322386759752438
311 -0.00774586080510007 -0.002641418626624454 -0.0003923049039609622
352 -0.0010076908219424727 0.0024917212781663464 -0.00589768281499903
126 -0.014844922618367675 -0.015159986043376672 -0.014915536866944797
180 -0.0012695396442011814 0.004935925897570579 -0.0009912149084654123
315 -0.011068102019697535 -0.0015064736873195833 -0.007345745645174268
549 -0.011279804754760737 -0.0057221169494186645 0.005450390884645816
482 -0.008777977073102398 -0.002517065412643882 -0.0006411164971134853
481 0.004732560563554229 -0.005303642250749444 0.01037389630637226
292 0.0013120721247844823 0.02103186860812837 -0.02246509024636307
312 0.008012309617127875 -0.0013344258759996393 -0.0020979666175378556
496 -0.011498689735109681 0.028615747538080775 -0.01676614573519737
358 0.0021606023811621368 0.003670890618440392 0.009907769967615972
214 -0.013215778499329235 0.03410133336203384 0.005737339060836905
581 0.002701193801567826 0.0018406738363936257 -0.0009325595904768377
353 0.004426496801157832 -0.007941455843641781 0.0007744076776206501
454 0.01073511660479832 -0.000453820302364001 0.005534787593363755
310 0.01185664696229222 -0.0011035922089660617 -0.004527284260894802
484 0.0007545434561435726 0.0015740940549226466 -0.00044446547543297766
241 0.0033044574543076867 0.002843050135230326 -0.0027146502639236645
239 -0.002807183453171683 0.004265652543448045 -0.001923351544962274
493 0.021561057540315384 0.005138706433937691 0.007294017437441758
492 -0.00833466529070435 0.0025140918816691366 -0.0010254725359896558
208 0.0029821084077795044 -0.005251446182179773 -0.0045980367626079904
487 0.00633527640345616 0.0014776404858580414 0.01671446578988388
419 0.009283836108444913 -0.0232842561683537 -0.0215128836456662
418 -0.0033269424652140073 -0.005033309216815317 -0.0075481345522132055
414 0.006215120840027275 0.00012965496053201698 0.007982010542624382
417 0.0007708926767953997 -0.003574421127248493 0.002098328683037138
416 0.005796926747640885 0.018619840453290386 0.002230019438884588
415 0.0017071837041779507 -0.0052790195513967315 -0.004945774747712334
413 -0.007968362873533067 -0.0020966352796433873 0.003353546730638868
455 0.0027117037746468356 -0.0018163922238481572 -0.005921669179320989
412 0.007056663344204135 -0.003924809980987011 -0.0026735536146776607
206 -0.023406942722782195 0.01638958446260988 -0.021115842175590167
490 0.010964916263412562 -0.0020996760190853474 -0.010927974817384526
211 -0.009147807860492452 -0.0005454270943456617 0.008454386560998948
209 -0.010837566442047553 -0.005265088742143766 0.010038241824073478
486 0.007346251651584462 0.0036491258070348756 0.001090667942947018
240 0.01653978158059788 0.030373932489774658 0.002466467183346091
485 -0.016031826848296363 -0.0037166017165990387 0.0164708486076182
488 -0.032198074307989946 0.005961834544112618 -0.003526597590565064
121 0.001531858699567988 -0.0037700262400429028 0.0013796216643635992
491 -0.004095212512022691 0.007939806536340679 0.04085008331036622
213 0.002498003208165288 0.0006704729478732603 0.0010061812246563839
494 0.005218568891623902 -0.0027700638759294346 -0.012143550218438779
122 -0.011524713715098325 -0.011878332821058999 -0.006252719300026168
119 0.023560780341096835 0.003110084182525365 0.02608177349121952
238 -0.0015264112172036484 0.0016761029130612924 -0.002482346048082838
580 0.000741870527063197 0.0006176566193949228 0.002260486843570731
210 -0.004963533295337768 0.0018196730956608303 -0.00030506927449176107
350 0.009346004414901729 -0.007508722496034744 -0.00016279821940003758
411 0.0071142566524422446 0.004502617647405185 -0.0010731873818653475
207 -0.014492697423985432 -0.0557089084391752 -0.00015741191376629943
377 -0.02118848305471437 0.0156471097855118 -0.021516552519559955
309 -0.011136901423328887 -0.01968606721350726 -0.003975759500963742
517 0.01617655278060591 0.02233796451028077 0.009251552345016081
123 0.0004795620593740914 0.006904703876998418 0.006605438989405932
234 0.004449783023918478 -0.004658659596998493 0.00012365303239244088
306 0.0003541709367316188 -0.004178005997148499 -0.0006290253537349376
578 -0.003997003498327106 -0.005714927760341419 -0.005203741201637537
308 -0.019221780132701958 0.009997928852917289 0.024659140481508413
579 -0.01046012322441533 0.011376334003867294 -0.013379873969078328
212 -0.005141431475749735 -0.012232715904697718 -0.002435193701751642
232 0.0017049209349204583 -0.0010030251985075212 -0.0028378352861997353
429 -0.009177005356517694 0.005418309050889841 -1.7831209384165607e-05
473 -0.0037482775562383917 0.005220222830458751 0.005577137814617256
443 0.02078223338977326 0.01690015989250062 0.0019056565274903645
30 -0.004179036259033176 0.003667068202104867 0.0007782241099603645
272 -0.023090170240514706 0.014097581767323095 -0.007497688582961627
330 0.0027629179314637986 -0.0069804612559842836 0.004875293108343396
242 -0.015265529193103419 0.017725765005328485 0.014731566672737766
319 3.702689489785916e-05 -0.003545404597871196 0.005455884614897319
147 0.004169937646424262 0.020489247663128946 0.010891400309872904
247 -0.004005199505180679 0.0025394336114529297 0.0027441772320023557
541 -0.02798784045784529 0.015167189268661214 -0.006783909249675077
80 0.007856719398205597 -0.004821161268169275 0.019262055322270384
77 -0.00045564112471453184 -0.0015854391254436957 -0.0027066408798213314
52 0.043565652878061946 -0.0002151427573802795 0.002814223549665605
246 0.0014810298693292538 -0.0056324553460957855 0.0012332696473158471
544 -0.0039717738436332835 0.0015932169451046958 -0.005966940358270543
548 -0.030334658280474484 -0.007702371757531968 -0.01897329901123357
543 0.0005514632500302114 0.003639156204527032 0.0003231730809328197
55 -0.008215859186272184 -0.008044421893492469 0.0002295034821638895
79 0.006072563718767764 0.007703831169753166 -0.0030931585515364514
538 0.003810201455210777 0.009120474722071292 -0.003985030922364403
405 -0.0015579263640129281 -3.838889224151303e-05 -0.00011201872082500531
444 -0.004894342485327161 -0.01924587184278916 -0.004660644539373894
231 0.0003696579655480975 0.0025941207624465903 -0.0008300025816971766
58 -0.000814314062987016 -0.006243013329481791 0.005606710244100235
59 -7.372171497341528e-05 -6.66938126461004e-05 0.000722115575108615
182 -0.004560507726172947 0.0026686310356432313 0.0031142066703455746
181 0.002905609053746142 -0.006098449198852445 0.004223328684749558
445 -0.0031834162190714174 -0.004044710739335358 0.004420077172844524
78 -0.0022197313361681714 0.0025347122849654147 0.002943774833603445
404 0.0029234980810893155 -0.0010002044077926917 -0.0005025889511325462
583 -0.004563460312309052 -0.013983935952273251 -0.01584490961810354
406 -0.0038618187272370405 0.005495961215433489 -0.004935575642520419
402 -0.0003547807149020449 0.0008324962107488937 -0.001651338705452201
510 0.010116607963909008 0.006152284049198021 -0.0046055912234122314
511 0.021383872551985355 0.0008471126628198938 0.013502189844947611
408 -0.03401749132431375 0.010148956128036938 -0.0043352336358230695
400 0.00217938724203803 -0.0020734953259638556 0.0034308770831393953
509 -0.016578440094633384 0.01066325076430957 -0.003880924445649301
410 0.022362087032368427 0.0263217485481438 0.01087166319094868
537 -0.0008424945615568228 0.04781470785828436 -0.0012208506727084882
397 0.001524715528231038 -0.003507958053080893 -0.004154889390419341
396 -0.004652491123879084 0.015249351039093723 0.00219693684448392
198 0.013496635057628189 -0.0036243570166045037 0.014333058688985188
201 -0.006020934200990716 0.003956616121680447 -0.007940655590260987
409 0.008540880452780291 0.002058238063166437 -0.008534702580575933
76 0.0165745272038049 0.0023724034379912513 0.01874617785013395
27 0.035088743031326156 -0.0084735342294001 0.0344364016283372
25 -0.0032633394409023143 0.003987236560611352 0.0028057376613601563
237 -0.008432419506218074 -0.016918278411726367 0.0024815152558928335
561 -0.0016526805699403453 -0.001290997122341441 -0.0028731810806976637
51 0.0001484470745331009 0.0027929774985920547 0.010599973561440981
178 -0.00915607060902664 0.0019136723731485179 0.019257175916410265
196 0.012504120332349421 -0.0036055707894792374 0.003954298727299507
194 0.01725896235213146 -0.0025188574436131685 -0.004029532367874828
552 -0.002089698181162115 0.0009155201892480102 0.009877047481032722
149 0.003043241415092552 0.0018497183361328281 0.003771926131990187
230 0.025884867984930535 -0.005676316858785213 0.01425088652458134
90 -0.026900535153365733 -0.026624209386458344 0.007112338111808459
253 -0.027333291907986095 0.0008515152744892127 -0.02329295141237126
536 0.008212342897455106 -0.006488477238490388 0.003873071053664942
54 -0.007589121513911351 -0.016412037398148817 -0.007436513733732056
199 -0.0016260240455430567 -0.0042165970610065695 0.0049163014128727235
21 0.019446012742251006 -0.015134219611702795 -0.0040283664148255405
82 -0.0017944184560154369 0.007457840369540212 -0.0008801779266508729
29 -0.0021664657871364483 0.00022181148420863408 -0.005635925393056069
34 -0.017133080697629623 0.003156378528771496 0.016151819280879068
24 -0.0009091194085085103 0.0011200917263779534 0.003213390777873504
316 0.0014838223024838555 0.0010655947060329062 -0.018486485441391594
465 -0.023136571781872953 0.027622631167669012 -0.014484929446289947
324 -0.010985036100110958 -0.014732006537859475 -0.010722965452307248
84 -0.0016092517503817844 -0.004485932897330711 -0.002349936456230576
28 -0.007315789269352104 -0.03212368585658237 -0.01643030993699768
111 0.003420600783168454 0.0004200759834375618 0.0030219243745352705
495 0.010232624318362624 0.006793304325475829 0.0006096719203235791
300 0.014696602287268195 -0.015585782172155482 0.022517821001500463
81 0.0210286204614725 0.007965445938310821 0.02471626605229882
200 0.014087231821355902 -0.009242888525866261 0.0022680668680188087
197 -0.007445364652995718 0.002180405357914905 0.00027960825061227386
153 -0.03757789350634801 -0.0005127985209487408 -0.017858376407565622
554 0.001879834873738002 -0.008257181841861538 -0.007622454532941844
35 -0.007212936164668024 0.04153947769863572 -0.010040765868027789
62 0.011899964361083194 0.020173777951674042 -0.02941314470468441
307 0.023534672290318446 -0.0015595572322594426 -0.00553862074351483
264 0.004427536793899273 -0.028805612870524647 0.021535868498307353
441 0.012434248862637205 -0.00786365329880712 -0.02265464648980199
259 0.017690154871852257 0.013692717750810327 0.0042121579147901345
463 0.008152165963075641 0.01963690461503464 0.03339952633201697
500 -0.008432498563733822 -0.0004123550567959263 0.0005245867309010055
505 0.004611700371296097 -0.00371956377363298 -0.01717127653824574
304 -0.006347129756157387 0.0021010335065004327 -0.003960193739647308
393 0.004511500383756517 -0.001127594937596301 0.005134284334733006
305 0.006746002081617394 0.0024843805421983015 0.008627667170377985
458 0.01116502212280046 0.0295639037690369 0.015482534581711555
431 -0.019995554794318 -0.02634905984331946 -0.013022352510772304
303 0.002885623812259059 0.013729714637637346 0.008500246724163189
395 -0.008226564797540914 -0.007832153315172537 0.0106791517799674
89 -0.011829491857024805 -8.670200544482669e-05 -0.006518863181586309
498 -0.0002785036624360166 0.0013661625291999976 0.005240119740358063
560 -0.0008225889203242279 -0.0034428007377867178 -0.006325811289506603
266 0.013949875269106004 -0.007311544782891573 0.006101156729185239
433 -0.04011493972370364 -0.008580476018301078 0.031151324673325875
555 0.003906480959616455 0.00256934156173667 -0.0011608196854658748
502 -0.0018462192798820753 0.003407597221655766 -0.0014102657421668997
301 0.008527717599318366 -0.007823128571182315 -0.000769068790876747
295 -0.00103034672944978 -0.0047647536023998315 -0.001630541855912807
262 -0.0013864803341936884 -0.0035584721940267548 0.009012758841338115
497 -0.0073131926480585994 -0.0023976454902021856 0.0005013765206927787
439 -0.0006714079909657041 0.0024583017531143903 -0.0017607490977132364
118 -0.015228955298755549 0.026769429412115672 0.03516009627608042
268 -0.006021756324107244 -0.006616624729554195 0.001922943823543524
302 0.005934025356140669 0.0017798440319894712 0.00405666820736071
503 -0.0007137559804738531 -0.005681579746444206 0.0017755497245287347
299 0.003228369960350578 -0.002274374191198331 0.004313618322938381
553 0.003524275754220798 -0.008134965104632085 0.0019013852329490231
163 0.016830015428572254 -0.030785174439222154 -0.01295199714945284
434 -0.002587762882163694 0.0032466879033407696 0.008326588328299347
437 -0.008942151000811386 -0.0010240262130766706 -0.024732513348636777
551 -0.0011003527848266277 0.014513949294744389 -0.01281972999240692
267 0.004353096615780253 0.0011940957811478338 0.004254035862165244
293 -0.020102449700840432 0.021896709749926378 -0.02376235111214982
440 0.022174568025987666 -0.014631321399537652 0.00590670167529938
558 -0.00011605656210945755 -0.0021248362980373875 0.003952006852995367
87 -0.011998529956157782 0.01029003466057586 -0.009895467326360685
556 0.002794662905821469 -0.0016385215665331878 0.0004983096458048602
557 0.011457865622539736 0.006019591632213465 0.0007550222206797314
398 0.021391415760801644 0.0014136954219941625 0.0223427512805278
263 -0.006917427546021295 0.00634864529040102 -0.0023037149455025292
31 0.002952189177058246 0.0011262790797651326 0.0030401982963248284
296 -0.0013639918066298208 -0.0021490571995202022 -0.0026384468016022984
436 0.003787013024694766 -0.011200252664020634 -0.005304106838861704
261 -0.015293877388073612 -0.022224305713387963 0.012952606467677345
195 0.0020839424377762776 0.0007222777776465789 0.0020616204021255773
438 -0.008479452094479076 0.0070691069605285884 0.0035838344337561817
394 0.00234976877593571 -0.002863879242347942 0.0017766791724629248
442 0.0005351494319671507 0.0013749347212226868 0.0054514793392687775
298 -0.0009604099703353694 0.0025401127454256077 -0.0004031301634815017
499 -0.00656357878203493 -0.0013863458853304294 0.004117159828885402
435 -0.0015267835838951509 -0.0014365439889843959 0.005511359469262094
260 0.0035033150315518955 -0.006233196402902706 0.006196887580354473
265 -0.01604045704556416 0.007282087476384432 -0.0019621068467992656
550 -0.026903813593093396 -0.0031341625610454725 0.0045684527608808615
225 0.002183822916592124 0.0044060571783356576 0.019794426867936605
224 0.009403745386417086 0.02457610419675025 -0.003725730393998984
185 0.003156536613144143 0.0019160173530670332 -0.0011804164367952058

Bonds

1 13 283 281
2 15 283 285
3 15 278 116
4 13 277 280
5 14 277 275
6 13 280 283
7 13 276 277
8 13 276 278
9 4 274 276
10 5 274 117
11 5 274 273
12 17 114 116
13 13 49 47
14 14 49 50
15 13 15 13
16 13 281 278
17 17 227 116
18 4 361 356
19 5 361 363
20 5 361 360
21 5 361 362
22 13 356 351
23 17 359 357
24 1 113 274
25 5 113 115
26 5 113 158
27 5 113 157
28 13 354 356
29 15 354 357
30 4 447 281
31 5 447 446
32 5 447 450
33 5 447 448
34 15 351 173
35 6 223 357
36 2 223 379
37 5 223 224
38 5 223 222
39 13 47 174
40 14 47 45
41 13 177 49
42 13 177 124
43 17 286 285
44 4 56 15
45 4 56 177
46 5 56 132
47 5 56 57
48 16 174 169
49 13 174 176
50 8 252 461
51 2 252 247
52 5 252 459
53 5 252 253
54 6 41 285
55 2 41 43
56 5 41 40
57 5 41 42
58 4 282 280
59 1 282 287
60 5 282 279
61 5 282 483
62 13 453 575
63 14 453 452
64 13 13 11
65 14 13 53
66 7 269 466
67 3 269 472
68 5 269 271
69 5 269 270
70 18 329 564
71 17 171 173
72 18 73 139
73 14 124 127
74 12 472 466
75 11 472 474
76 13 128 180
77 14 128 126
78 7 294 291
79 3 294 123
80 5 294 297
81 5 294 249
82 13 136 135
83 14 136 191
84 7 528 527
85 3 528 531
86 5 528 507
87 5 528 529
88 10 379 193
89 9 379 378
90 16 130 129
91 13 130 128
92 5 287 289
93 5 287 288
94 5 287 489
95 14 11 10
96 8 430 380
97 2 430 379
98 5 430 428
99 5 430 432
100 12 531 527
101 11 531 533
102 12 251 125
103 11 251 248
104 8 131 129
105 3 131 251
106 5 131 134
107 5 131 133
108 13 342 348
109 16 12 9
110 13 12 14
111 13 12 11
112 13 390 386
113 14 390 391
114 16 384 380
115 13 384 388
116 13 388 392
117 14 388 387
118 14 392 335
119 13 334 390
120 13 334 392
121 13 386 384
122 14 386 382
123 4 337 342
124 4 337 334
125 5 337 338
126 5 337 336
127 3 250 251
128 7 250 125
129 5 250 103
130 5 250 102
131 18 355 193
132 3 532 531
133 8 532 534
134 5 532 508
135 5 532 530
136 13 348 352
137 14 348 284
138 13 135 130
139 14 135 137
140 18 37 370
141 13 343 342
142 14 343 339
143 8 8 9
144 2 8 4
145 5 8 7
146 5 8 6
147 13 14 17
148 14 14 16
149 18 96 107
150 8 142 143
151 2 142 140
152 5 142 144
153 5 142 141
154 6 244 173
155 2 244 247
156 5 244 245
157 5 244 242
158 13 17 15
159 14 17 18
160 16 146 143
161 13 146 149
162 5 545 576
163 5 545 572
164 5 545 546
165 10 140 139
166 9 140 138
167 4 63 64
168 1 63 545
169 5 63 98
170 5 63 539
171 17 464 317
172 17 540 542
173 17 547 542
174 4 152 322
175 5 152 154
176 5 152 151
177 5 152 150
178 17 156 327
179 15 65 542
180 13 65 67
181 13 64 65
182 13 67 70
183 4 69 67
184 5 69 46
185 5 69 44
186 5 69 48
187 15 70 72
188 13 66 64
189 14 66 100
190 13 68 66
191 13 68 70
192 17 74 72
193 6 257 72
194 2 257 140
195 5 257 254
196 5 257 258
197 13 322 325
198 13 320 322
199 15 320 317
200 15 325 327
201 13 326 323
202 13 326 325
203 6 569 327
204 2 569 568
205 5 569 567
206 5 569 451
207 13 321 320
208 13 323 321
209 14 323 324
210 13 22 23
211 14 22 20
212 4 71 68
213 5 71 75
214 5 71 101
215 10 568 564
216 9 568 565
217 1 204 71
218 5 204 203
219 5 204 202
220 5 204 205
221 13 23 30
222 14 23 21
223 16 462 461
224 13 462 255
225 13 462 421
226 13 255 217
227 14 255 256
228 10 86 559
229 9 86 88
230 13 148 146
231 14 148 145
232 6 372 155
233 2 372 368
234 5 372 373
235 5 372 375
236 14 32 535
237 13 33 32
238 14 33 36
239 16 371 369
240 13 371 188
241 13 112 91
242 13 577 578
243 14 577 574
244 18 318 559
245 10 108 107
246 9 108 19
247 10 4 1
248 9 4 5
249 6 105 95
250 2 105 108
251 5 105 106
252 5 105 104
253 13 424 423
254 13 423 421
255 14 423 422
256 13 218 425
257 13 218 216
258 15 91 95
259 8 571 573
260 2 571 568
261 5 571 570
262 5 571 566
263 14 216 215
264 2 3 4
265 6 3 95
266 5 3 99
267 5 3 2
268 13 109 112
269 15 109 155
270 16 26 534
271 13 26 22
272 13 26 32
273 13 374 371
274 14 374 376
275 4 328 326
276 5 328 385
277 5 328 332
278 4 92 112
279 5 92 93
280 5 92 94
281 5 92 38
282 13 217 424
283 14 217 220
284 13 425 374
285 14 425 426
286 13 188 216
287 14 188 184
288 14 421 420
289 8 504 501
290 2 504 108
291 5 504 506
292 5 504 582
293 8 367 369
294 2 367 368
295 5 367 365
296 5 367 364
297 16 575 573
298 13 575 577
299 1 383 328
300 5 383 512
301 5 383 381
302 5 383 389
303 10 368 370
304 9 368 366
305 18 97 1
306 4 219 424
307 4 219 218
308 5 219 221
309 5 219 427
310 1 85 89
311 5 85 110
312 5 85 83
313 5 85 87
314 13 470 585
315 14 470 468
316 13 585 516
317 14 585 584
318 13 516 333
319 16 469 467
320 13 469 470
321 13 469 331
322 14 331 330
323 13 477 479
324 14 477 562
325 13 475 477
326 13 475 478
327 4 515 516
328 4 515 475
329 5 515 513
330 5 515 514
331 13 333 331
332 14 333 272
333 14 478 476
334 18 175 243
335 13 233 235
336 5 403 401
337 5 403 407
338 5 403 399
339 12 521 519
340 11 521 525
341 13 190 186
342 14 190 192
343 7 523 519
344 3 523 521
345 5 523 522
346 5 523 526
347 4 187 186
348 4 187 185
349 5 187 189
350 5 187 183
351 18 449 39
352 4 229 233
353 4 229 231
354 5 229 228
355 5 229 226
356 10 43 39
357 9 43 170
358 8 168 169
359 2 168 43
360 5 168 172
361 5 168 167
362 13 344 349
363 14 344 341
364 13 479 482
365 14 479 563
366 13 456 453
367 14 456 457
368 3 520 521
369 8 520 358
370 5 520 518
371 5 520 524
372 13 480 478
373 14 480 481
374 13 186 182
375 4 345 349
376 1 345 403
377 5 345 346
378 5 345 340
379 4 165 347
380 5 165 164
381 5 165 166
382 13 60 190
383 14 60 61
384 13 347 344
385 13 347 351
386 13 176 124
387 14 176 120
388 1 162 165
389 5 162 160
390 5 162 161
391 5 162 159
392 13 349 354
393 13 235 239
394 14 235 236
395 7 311 313
396 3 311 312
397 5 311 308
398 5 311 314
399 14 352 290
400 14 180 179
401 16 482 484
402 13 482 480
403 12 312 313
404 11 312 315
405 4 581 417
406 4 581 580
407 5 581 460
408 5 581 549
409 16 353 358
410 13 353 350
411 13 353 352
412 3 310 312
413 8 310 306
414 5 310 309
415 5 310 377
416 14 239 240
417 3 492 490
418 7 492 486
419 5 492 493
420 5 492 494
421 3 208 211
422 8 208 413
423 5 208 206
424 5 208 209
425 8 487 484
426 3 487 490
427 5 487 485
428 5 487 491
429 13 418 417
430 14 418 419
431 16 414 413
432 13 414 415
433 13 414 412
434 13 417 455
435 13 415 418
436 14 415 416
437 13 455 412
438 14 455 454
439 14 412 411
440 12 490 486
441 11 490 488
442 12 211 213
443 11 211 214
444 3 121 123
445 8 121 241
446 5 121 119
447 5 121 122
448 16 238 241
449 13 238 234
450 13 238 239
451 13 580 456
452 13 580 578
453 7 210 213
454 3 210 211
455 5 210 207
456 5 210 212
457 13 350 343
458 14 350 517
459 12 123 291
460 11 123 292
461 13 234 232
462 14 234 118
463 14 578 579
464 13 232 233
465 14 232 230
466 3 473 472
467 8 473 467
468 5 473 471
469 5 473 443
470 13 30 33
471 4 319 321
472 1 319 510
473 5 319 316
474 5 319 465
475 10 247 243
476 9 247 246
477 3 544 405
478 7 544 543
479 5 544 548
480 5 544 541
481 3 55 79
482 8 55 59
483 5 55 54
484 5 55 52
485 12 79 77
486 11 79 81
487 12 405 543
488 11 405 538
489 13 231 201
490 13 231 445
491 16 58 59
492 13 58 60
493 13 58 181
494 13 182 181
495 14 182 178
496 14 181 51
497 14 445 444
498 7 78 77
499 3 78 79
500 5 78 80
501 5 78 76
502 13 404 400
503 14 404 409
504 8 406 402
505 3 406 405
506 5 406 410
507 5 406 408
508 5 510 583
509 5 510 509
510 5 510 511
511 16 400 402
512 13 400 397
513 13 397 445
514 14 397 396
515 13 201 404
516 14 201 237
517 14 25 27
518 8 561 558
519 2 561 86
520 5 561 90
521 5 561 537
522 7 196 199
523 3 196 197
524 5 196 198
525 5 196 194
526 13 149 25
527 14 149 147
528 13 29 24
529 13 29 25
530 13 24 148
531 14 24 28
532 6 84 317
533 2 84 86
534 5 84 82
535 5 84 552
536 13 111 268
537 13 111 91
538 12 197 199
539 11 197 200
540 17 153 155
541 13 554 556
542 14 554 551
543 16 500 501
544 13 500 498
545 16 304 306
546 13 304 301
547 13 304 305
548 14 393 395
549 14 305 307
550 4 89 111
551 5 89 225
552 5 89 62
553 13 498 497
554 14 498 496
555 13 560 557
556 14 560 536
557 13 555 553
558 13 555 557
559 13 502 503
560 14 502 463
561 13 301 298
562 14 301 300
563 4 295 299
564 4 295 499
565 5 295 293
566 5 295 458
567 4 262 267
568 1 262 263
569 5 262 261
570 5 262 260
571 14 497 495
572 13 439 393
573 14 439 441
574 13 268 267
575 14 268 266
576 13 302 305
577 14 302 303
578 13 503 500
579 14 503 505
580 13 299 302
581 13 553 554
582 14 553 550
583 4 434 436
584 4 434 555
585 5 434 431
586 5 434 429
587 13 267 109
588 16 556 558
589 13 556 560
590 14 557 440
591 5 263 264
592 5 263 259
593 5 263 265
594 4 31 30
595 4 31 29
596 5 31 35
597 5 31 34
598 13 436 439
599 3 195 197
600 8 195 394
601 5 195 163
602 5 195 398
603 13 438 435
604 14 438 437
605 16 442 394
606 13 442 438
607 13 442 393
608 13 298 299
609 14 298 296
610 13 499 502
611 13 499 497
612 13 435 436
613 14 435 433
614 13 185 136
615 13 185 180

Angles

1 24 280 283 281
2 26 281 283 285
3 26 280 283 285
4 24 276 278 281
5 26 276 278 116
6 26 281 278 116
7 24 276 277 280
8 25 276 277 275
9 25 280 277 275
10 9 282 280 277
11 24 277 280 283
12 9 282 280 283
13 9 274 276 277
14 9 274 276 278
15 24 277 276 278
16 1 113 274 276
17 2 113 274 117
18 2 113 274 273
19 23 276 274 117
20 29 117 274 273
21 23 276 274 273
22 28 278 116 227
23 28 278 116 114
24 35 227 116 114
25 24 177 49 47
26 25 177 49 50
27 25 47 49 50
28 9 56 15 17
29 24 17 15 13
30 9 56 15 13
31 9 447 281 283
32 24 283 281 278
33 9 447 281 278
34 23 356 361 363
35 23 356 361 360
36 23 356 361 362
37 29 363 361 360
38 29 363 361 362
39 29 360 361 362
40 9 361 356 354
41 24 354 356 351
42 9 361 356 351
43 2 274 113 115
44 29 115 113 158
45 29 115 113 157
46 2 274 113 158
47 29 158 113 157
48 2 274 113 157
49 11 223 357 354
50 28 354 357 359
51 12 223 357 359
52 24 349 354 356
53 26 356 354 357
54 26 349 354 357
55 23 281 447 446
56 23 281 447 450
57 23 281 447 448
58 29 446 447 450
59 29 446 447 448
60 29 450 447 448
61 24 347 351 356
62 26 356 351 173
63 26 347 351 173
64 16 379 223 357
65 30 224 223 357
66 30 222 223 357
67 15 379 223 224
68 29 224 223 222
69 15 379 223 222
70 24 49 47 174
71 25 49 47 45
72 25 174 47 45
73 9 56 177 49
74 9 56 177 124
75 24 49 177 124
76 11 41 285 283
77 28 283 285 286
78 12 41 285 286
79 22 15 56 177
80 23 15 56 132
81 23 15 56 57
82 23 177 56 132
83 29 132 56 57
84 23 177 56 57
85 27 47 174 169
86 24 47 174 176
87 27 176 174 169
88 14 168 169 174
89 17 247 252 461
90 15 247 252 459
91 15 247 252 253
92 32 459 252 461
93 29 459 252 253
94 32 253 252 461
95 16 43 41 285
96 30 40 41 285
97 30 42 41 285
98 15 43 41 40
99 29 40 41 42
100 15 43 41 42
101 18 140 139 73
102 1 287 282 280
103 23 280 282 279
104 23 280 282 483
105 2 287 282 279
106 29 279 282 483
107 2 287 282 483
108 24 456 453 575
109 25 456 453 452
110 25 575 453 452
111 24 15 13 11
112 25 15 13 53
113 25 11 13 53
114 31 271 269 466
115 19 472 269 271
116 29 271 269 270
117 31 270 269 466
118 19 472 269 270
119 20 472 269 466
120 11 244 173 351
121 28 351 173 171
122 12 244 173 171
123 24 177 124 176
124 25 177 124 127
125 25 176 124 127
126 6 269 472 473
127 8 269 472 466
128 7 269 472 474
129 7 473 472 474
130 34 474 472 466
131 8 473 472 466
132 24 130 128 180
133 25 130 128 126
134 25 180 128 126
135 31 297 294 291
136 19 123 294 297
137 29 297 294 249
138 31 249 294 291
139 19 123 294 249
140 20 123 294 291
141 24 185 136 135
142 25 185 136 191
143 25 135 136 191
144 31 507 528 527
145 19 531 528 507
146 29 507 528 529
147 31 529 528 527
148 19 531 528 529
149 20 531 528 527
150 3 223 379 430
151 5 223 379 193
152 4 223 379 378
153 4 430 379 378
154 33 378 379 193
155 5 430 379 193
156 13 528 527 531
157 27 135 130 129
158 24 135 130 128
159 27 128 130 129
160 2 282 287 289
161 2 282 287 288
162 2 282 287 489
163 29 289 287 288
164 29 289 287 489
165 29 288 287 489
166 24 12 11 13
167 25 12 11 10
168 25 13 11 10
169 17 379 430 380
170 15 379 430 428
171 15 379 430 432
172 32 428 430 380
173 29 428 430 432
174 32 432 430 380
175 6 528 531 532
176 8 528 531 527
177 7 528 531 533
178 7 532 531 533
179 34 533 531 527
180 8 532 531 527
181 14 430 380 384
182 6 131 251 250
183 8 131 251 125
184 7 131 251 248
185 7 250 251 248
186 34 248 251 125
187 8 250 251 125
188 21 251 131 129
189 32 134 131 129
190 32 133 131 129
191 19 251 131 134
192 29 134 131 133
193 19 251 131 133
194 18 379 193 355
195 9 337 342 343
196 24 343 342 348
197 9 337 342 348
198 27 14 12 9
199 27 11 12 9
200 24 14 12 11
201 24 334 390 386
202 25 334 390 391
203 25 386 390 391
204 27 386 384 380
205 24 386 384 388
206 27 388 384 380
207 24 384 388 392
208 25 384 388 387
209 25 392 388 387
210 24 334 392 388
211 25 334 392 335
212 25 388 392 335
213 9 337 334 390
214 9 337 334 392
215 24 390 334 392
216 24 390 386 384
217 25 390 386 382
218 25 384 386 382
219 22 342 337 334
220 23 342 337 338
221 23 342 337 336
222 23 334 337 338
223 29 338 337 336
224 23 334 337 336
225 14 8 9 12
226 20 251 250 125
227 19 251 250 103
228 19 251 250 102
229 31 103 250 125
230 29 103 250 102
231 31 102 250 125
232 14 131 129 130
233 13 250 125 251
234 21 531 532 534
235 19 531 532 508
236 19 531 532 530
237 32 508 532 534
238 29 508 532 530
239 32 530 532 534
240 13 269 466 472
241 24 342 348 352
242 25 342 348 284
243 25 352 348 284
244 24 136 135 130
245 25 136 135 137
246 25 130 135 137
247 13 294 291 123
248 24 350 343 342
249 25 350 343 339
250 25 342 343 339
251 17 4 8 9
252 15 4 8 7
253 15 4 8 6
254 32 7 8 9
255 29 7 8 6
256 32 6 8 9
257 24 12 14 17
258 25 12 14 16
259 25 17 14 16
260 14 532 534 26
261 14 504 501 500
262 17 140 142 143
263 15 140 142 144
264 15 140 142 141
265 32 144 142 143
266 29 144 142 141
267 32 141 142 143
268 14 142 143 146
269 18 568 564 329
270 14 252 461 462
271 16 247 244 173
272 30 245 244 173
273 30 242 244 173
274 15 247 244 245
275 29 245 244 242
276 15 247 244 242
277 24 14 17 15
278 25 14 17 18
279 25 15 17 18
280 27 148 146 143
281 24 148 146 149
282 27 149 146 143
283 2 63 545 576
284 2 63 545 572
285 2 63 545 546
286 29 576 545 572
287 29 576 545 546
288 29 572 545 546
289 3 257 140 142
290 5 257 140 139
291 4 257 140 138
292 4 142 140 138
293 33 138 140 139
294 5 142 140 139
295 1 545 63 64
296 23 64 63 98
297 23 64 63 539
298 2 545 63 98
299 29 98 63 539
300 2 545 63 539
301 23 322 152 154
302 23 322 152 151
303 23 322 152 150
304 29 154 152 151
305 29 154 152 150
306 29 151 152 150
307 26 64 65 542
308 24 64 65 67
309 26 67 65 542
310 28 65 542 547
311 28 65 542 540
312 35 547 542 540
313 9 63 64 66
314 24 66 64 65
315 9 63 64 65
316 9 69 67 65
317 24 65 67 70
318 9 69 67 70
319 23 67 69 46
320 23 67 69 44
321 23 67 69 48
322 29 46 69 44
323 29 46 69 48
324 29 44 69 48
325 24 68 70 67
326 26 68 70 72
327 26 67 70 72
328 24 68 66 64
329 25 68 66 100
330 25 64 66 100
331 11 257 72 70
332 28 70 72 74
333 12 257 72 74
334 9 71 68 66
335 9 71 68 70
336 24 66 68 70
337 16 140 257 72
338 30 254 257 72
339 30 258 257 72
340 15 140 257 254
341 29 254 257 258
342 15 140 257 258
343 11 569 327 325
344 28 325 327 156
345 12 569 327 156
346 9 152 322 320
347 24 320 322 325
348 9 152 322 325
349 24 321 320 322
350 26 322 320 317
351 26 321 320 317
352 24 326 325 322
353 26 326 325 327
354 26 322 325 327
355 11 84 317 320
356 28 320 317 464
357 12 84 317 464
358 9 328 326 323
359 9 328 326 325
360 24 323 326 325
361 16 568 569 327
362 30 567 569 327
363 30 451 569 327
364 15 568 569 567
365 29 567 569 451
366 15 568 569 451
367 9 319 321 323
368 24 323 321 320
369 9 319 321 320
370 24 326 323 321
371 25 326 323 324
372 25 321 323 324
373 18 86 559 318
374 24 26 22 23
375 25 26 22 20
376 25 23 22 20
377 1 204 71 68
378 2 204 71 75
379 2 204 71 101
380 23 68 71 75
381 29 75 71 101
382 23 68 71 101
383 3 569 568 571
384 5 569 568 564
385 4 569 568 565
386 4 571 568 565
387 33 565 568 564
388 5 571 568 564
389 2 71 204 203
390 29 203 204 202
391 29 203 204 205
392 2 71 204 202
393 29 202 204 205
394 2 71 204 205
395 24 22 23 30
396 25 22 23 21
397 25 30 23 21
398 27 255 462 461
399 27 421 462 461
400 24 255 462 421
401 24 462 255 217
402 25 462 255 256
403 25 217 255 256
404 3 84 86 561
405 5 84 86 559
406 4 84 86 88
407 4 561 86 88
408 33 88 86 559
409 5 561 86 559
410 24 24 148 146
411 25 24 148 145
412 25 146 148 145
413 16 368 372 155
414 30 373 372 155
415 30 375 372 155
416 15 368 372 373
417 29 373 372 375
418 15 368 372 375
419 14 571 573 575
420 24 26 32 33
421 25 26 32 535
422 25 33 32 535
423 24 30 33 32
424 25 30 33 36
425 25 32 33 36
426 27 374 371 369
427 24 374 371 188
428 27 188 371 369
429 18 4 1 97
430 9 92 112 109
431 24 109 112 91
432 9 92 112 91
433 24 575 577 578
434 25 575 577 574
435 25 578 577 574
436 3 105 108 504
437 5 105 108 107
438 4 105 108 19
439 4 504 108 19
440 33 19 108 107
441 5 504 108 107
442 3 3 4 8
443 5 3 4 1
444 4 3 4 5
445 4 8 4 5
446 33 5 4 1
447 5 8 4 1
448 16 108 105 95
449 30 106 105 95
450 30 104 105 95
451 15 108 105 106
452 29 106 105 104
453 15 108 105 104
454 9 219 424 217
455 24 217 424 423
456 9 219 424 423
457 24 424 423 421
458 25 424 423 422
459 25 421 423 422
460 9 219 218 425
461 9 219 218 216
462 24 425 218 216
463 24 111 91 112
464 26 111 91 95
465 26 112 91 95
466 17 568 571 573
467 15 568 571 570
468 15 568 571 566
469 32 570 571 573
470 29 570 571 566
471 32 566 571 573
472 24 218 216 188
473 25 218 216 215
474 25 188 216 215
475 16 4 3 95
476 30 99 3 95
477 30 2 3 95
478 15 4 3 99
479 29 99 3 2
480 15 4 3 2
481 11 3 95 91
482 11 105 95 91
483 10 3 95 105
484 24 267 109 112
485 26 267 109 155
486 26 112 109 155
487 27 22 26 534
488 27 32 26 534
489 24 22 26 32
490 24 425 374 371
491 25 425 374 376
492 25 371 374 376
493 1 383 328 326
494 2 383 328 385
495 2 383 328 332
496 23 326 328 385
497 29 385 328 332
498 23 326 328 332
499 18 108 107 96
500 23 112 92 93
501 23 112 92 94
502 23 112 92 38
503 29 93 92 94
504 29 93 92 38
505 29 94 92 38
506 11 372 155 109
507 28 109 155 153
508 12 372 155 153
509 18 368 370 37
510 14 367 369 371
511 24 255 217 424
512 25 255 217 220
513 25 424 217 220
514 24 218 425 374
515 25 218 425 426
516 25 374 425 426
517 24 371 188 216
518 25 371 188 184
519 25 216 188 184
520 24 462 421 423
521 25 462 421 420
522 25 423 421 420
523 17 108 504 501
524 15 108 504 506
525 15 108 504 582
526 32 506 504 501
527 29 506 504 582
528 32 582 504 501
529 17 368 367 369
530 15 368 367 365
531 15 368 367 364
532 32 365 367 369
533 29 365 367 364
534 32 364 367 369
535 27 453 575 573
536 24 453 575 577
537 27 577 575 573
538 2 328 383 512
539 29 512 383 381
540 29 512 383 389
541 2 328 383 381
542 29 381 383 389
543 2 328 383 389
544 3 372 368 367
545 5 372 368 370
546 4 372 368 366
547 4 367 368 366
548 33 366 368 370
549 5 367 368 370
550 22 424 219 218
551 23 424 219 221
552 23 424 219 427
553 23 218 219 221
554 29 221 219 427
555 23 218 219 427
556 2 89 85 110
557 29 110 85 83
558 29 110 85 87
559 2 89 85 83
560 29 83 85 87
561 2 89 85 87
562 24 469 470 585
563 25 469 470 468
564 25 585 470 468
565 24 470 585 516
566 25 470 585 584
567 25 516 585 584
568 9 515 516 585
569 24 585 516 333
570 9 515 516 333
571 27 470 469 467
572 27 331 469 467
573 24 470 469 331
574 24 469 331 333
575 25 469 331 330
576 25 333 331 330
577 24 475 477 479
578 25 475 477 562
579 25 479 477 562
580 9 515 475 477
581 9 515 475 478
582 24 477 475 478
583 22 516 515 475
584 23 516 515 513
585 23 516 515 514
586 23 475 515 513
587 29 513 515 514
588 23 475 515 514
589 24 516 333 331
590 25 516 333 272
591 25 331 333 272
592 24 475 478 480
593 25 475 478 476
594 25 480 478 476
595 9 229 233 232
596 24 232 233 235
597 9 229 233 235
598 13 523 519 521
599 2 345 403 401
600 2 345 403 407
601 2 345 403 399
602 29 401 403 407
603 29 401 403 399
604 29 407 403 399
605 6 523 521 520
606 8 523 521 519
607 7 523 521 525
608 7 520 521 525
609 34 525 521 519
610 8 520 521 519
611 24 60 190 186
612 25 60 190 192
613 25 186 190 192
614 18 43 39 449
615 31 522 523 519
616 19 521 523 522
617 29 522 523 526
618 31 526 523 519
619 19 521 523 526
620 20 521 523 519
621 22 186 187 185
622 23 186 187 189
623 23 186 187 183
624 23 185 187 189
625 29 189 187 183
626 23 185 187 183
627 22 233 229 231
628 23 233 229 228
629 23 233 229 226
630 23 231 229 228
631 29 228 229 226
632 23 231 229 226
633 3 41 43 168
634 5 41 43 39
635 4 41 43 170
636 4 168 43 170
637 33 170 43 39
638 5 168 43 39
639 17 43 168 169
640 15 43 168 172
641 15 43 168 167
642 32 172 168 169
643 29 172 168 167
644 32 167 168 169
645 24 347 344 349
646 25 347 344 341
647 25 349 344 341
648 13 311 313 312
649 24 477 479 482
650 25 477 479 563
651 25 482 479 563
652 24 580 456 453
653 25 580 456 457
654 25 453 456 457
655 21 521 520 358
656 19 521 520 518
657 19 521 520 524
658 32 518 520 358
659 29 518 520 524
660 32 524 520 358
661 24 482 480 478
662 25 482 480 481
663 25 478 480 481
664 9 187 186 190
665 24 190 186 182
666 9 187 186 182
667 1 403 345 349
668 23 349 345 346
669 23 349 345 340
670 2 403 345 346
671 29 346 345 340
672 2 403 345 340
673 1 162 165 347
674 2 162 165 164
675 2 162 165 166
676 23 347 165 164
677 29 164 165 166
678 23 347 165 166
679 18 247 243 175
680 24 58 60 190
681 25 58 60 61
682 25 190 60 61
683 9 165 347 344
684 9 165 347 351
685 24 344 347 351
686 24 174 176 124
687 25 174 176 120
688 25 124 176 120
689 2 165 162 160
690 29 160 162 161
691 29 160 162 159
692 2 165 162 161
693 29 161 162 159
694 2 165 162 159
695 14 473 467 469
696 9 345 349 344
697 24 344 349 354
698 9 345 349 354
699 24 233 235 239
700 25 233 235 236
701 25 239 235 236
702 31 308 311 313
703 19 312 311 308
704 29 308 311 314
705 31 314 311 313
706 19 312 311 314
707 20 312 311 313
708 24 353 352 348
709 25 353 352 290
710 25 348 352 290
711 24 185 180 128
712 25 185 180 179
713 25 128 180 179
714 27 479 482 484
715 24 479 482 480
716 27 480 482 484
717 6 311 312 310
718 8 311 312 313
719 7 311 312 315
720 7 310 312 315
721 34 315 312 313
722 8 310 312 313
723 14 520 358 353
724 22 417 581 580
725 23 417 581 460
726 23 417 581 549
727 23 580 581 460
728 29 460 581 549
729 23 580 581 549
730 27 350 353 358
731 27 352 353 358
732 24 350 353 352
733 21 312 310 306
734 19 312 310 309
735 19 312 310 377
736 32 309 310 306
737 29 309 310 377
738 32 377 310 306
739 14 487 484 482
740 14 121 241 238
741 24 238 239 235
742 25 238 239 240
743 25 235 239 240
744 20 490 492 486
745 19 490 492 493
746 19 490 492 494
747 31 493 492 486
748 29 493 492 494
749 31 494 492 486
750 21 211 208 413
751 19 211 208 206
752 19 211 208 209
753 32 206 208 413
754 29 206 208 209
755 32 209 208 413
756 21 490 487 484
757 32 485 487 484
758 32 491 487 484
759 19 490 487 485
760 29 485 487 491
761 19 490 487 491
762 24 415 418 417
763 25 415 418 419
764 25 417 418 419
765 27 415 414 413
766 27 412 414 413
767 24 415 414 412
768 9 581 417 418
769 24 418 417 455
770 9 581 417 455
771 24 414 415 418
772 25 414 415 416
773 25 418 415 416
774 14 208 413 414
775 24 417 455 412
776 25 417 455 454
777 25 412 455 454
778 24 414 412 455
779 25 414 412 411
780 25 455 412 411
781 6 487 490 492
782 8 487 490 486
783 7 487 490 488
784 7 492 490 488
785 34 488 490 486
786 8 492 490 486
787 6 210 211 208
788 8 210 211 213
789 7 210 211 214
790 7 208 211 214
791 34 214 211 213
792 8 208 211 213
793 13 492 486 490
794 21 123 121 241
795 19 123 121 119
796 19 123 121 122
797 32 119 121 241
798 29 119 121 122
799 32 122 121 241
800 13 210 213 211
801 27 234 238 241
802 27 239 238 241
803 24 234 238 239
804 9 581 580 456
805 9 581 580 578
806 24 456 580 578
807 31 207 210 213
808 19 211 210 207
809 29 207 210 212
810 31 212 210 213
811 19 211 210 212
812 20 211 210 213
813 24 353 350 343
814 25 353 350 517
815 25 343 350 517
816 6 294 123 121
817 8 294 123 291
818 7 294 123 292
819 7 121 123 292
820 34 292 123 291
821 8 121 123 291
822 24 238 234 232
823 25 238 234 118
824 25 232 234 118
825 14 310 306 304
826 24 580 578 577
827 25 580 578 579
828 25 577 578 579
829 24 234 232 233
830 25 234 232 230
831 25 233 232 230
832 21 472 473 467
833 19 472 473 471
834 19 472 473 443
835 32 471 473 467
836 29 471 473 443
837 32 443 473 467
838 9 31 30 23
839 24 23 30 33
840 9 31 30 33
841 1 510 319 321
842 23 321 319 316
843 23 321 319 465
844 2 510 319 316
845 29 316 319 465
846 2 510 319 465
847 3 244 247 252
848 5 244 247 243
849 4 244 247 246
850 4 252 247 246
851 33 246 247 243
852 5 252 247 243
853 13 78 77 79
854 20 405 544 543
855 19 405 544 548
856 19 405 544 541
857 31 548 544 543
858 29 548 544 541
859 31 541 544 543
860 13 544 543 405
861 21 79 55 59
862 19 79 55 54
863 19 79 55 52
864 32 54 55 59
865 29 54 55 52
866 32 52 55 59
867 6 78 79 55
868 8 78 79 77
869 7 78 79 81
870 7 55 79 81
871 34 81 79 77
872 8 55 79 77
873 6 406 405 544
874 8 406 405 543
875 7 406 405 538
876 7 544 405 538
877 34 538 405 543
878 8 544 405 543
879 9 229 231 201
880 9 229 231 445
881 24 201 231 445
882 27 60 58 59
883 27 181 58 59
884 24 60 58 181
885 14 55 59 58
886 24 186 182 181
887 25 186 182 178
888 25 181 182 178
889 24 58 181 182
890 25 58 181 51
891 25 182 181 51
892 24 231 445 397
893 25 231 445 444
894 25 397 445 444
895 31 80 78 77
896 19 79 78 80
897 29 80 78 76
898 31 76 78 77
899 19 79 78 76
900 20 79 78 77
901 24 201 404 400
902 25 201 404 409
903 25 400 404 409
904 21 405 406 402
905 32 410 406 402
906 32 408 406 402
907 19 405 406 410
908 29 410 406 408
909 19 405 406 408
910 14 406 402 400
911 2 319 510 583
912 2 319 510 509
913 2 319 510 511
914 29 583 510 509
915 29 583 510 511
916 29 509 510 511
917 27 404 400 402
918 24 404 400 397
919 27 397 400 402
920 24 400 397 445
921 25 400 397 396
922 25 445 397 396
923 24 231 201 404
924 25 231 201 237
925 25 404 201 237
926 24 29 25 149
927 25 29 25 27
928 25 149 25 27
929 17 86 561 558
930 15 86 561 90
931 15 86 561 537
932 32 90 561 558
933 29 90 561 537
934 32 537 561 558
935 31 198 196 199
936 19 197 196 198
937 29 198 196 194
938 31 194 196 199
939 19 197 196 194
940 20 197 196 199
941 24 146 149 25
942 25 146 149 147
943 25 25 149 147
944 13 196 199 197
945 9 31 29 24
946 9 31 29 25
947 24 24 29 25
948 24 29 24 148
949 25 29 24 28
950 25 148 24 28
951 16 86 84 317
952 30 82 84 317
953 30 552 84 317
954 15 86 84 82
955 29 82 84 552
956 15 86 84 552
957 9 89 111 268
958 9 89 111 91
959 24 268 111 91
960 6 196 197 195
961 8 196 197 199
962 7 196 197 200
963 7 195 197 200
964 34 200 197 199
965 8 195 197 199
966 24 553 554 556
967 25 553 554 551
968 25 556 554 551
969 27 503 500 501
970 24 503 500 498
971 27 498 500 501
972 27 301 304 306
973 27 305 304 306
974 24 301 304 305
975 24 442 393 439
976 25 442 393 395
977 25 439 393 395
978 24 304 305 302
979 25 304 305 307
980 25 302 305 307
981 1 85 89 111
982 2 85 89 225
983 2 85 89 62
984 23 111 89 225
985 29 225 89 62
986 23 111 89 62
987 24 500 498 497
988 25 500 498 496
989 25 497 498 496
990 24 556 560 557
991 25 556 560 536
992 25 557 560 536
993 9 434 555 553
994 9 434 555 557
995 24 553 555 557
996 24 499 502 503
997 25 499 502 463
998 25 503 502 463
999 24 304 301 298
1000 25 304 301 300
1001 25 298 301 300
1002 22 299 295 499
1003 23 299 295 293
1004 23 299 295 458
1005 23 499 295 293
1006 29 293 295 458
1007 23 499 295 458
1008 1 263 262 267
1009 23 267 262 261
1010 23 267 262 260
1011 2 263 262 261
1012 29 261 262 260
1013 2 263 262 260
1014 24 499 497 498
1015 25 499 497 495
1016 25 498 497 495
1017 24 436 439 393
1018 25 436 439 441
1019 25 393 439 441
1020 24 111 268 267
1021 25 111 268 266
1022 25 267 268 266
1023 24 299 302 305
1024 25 299 302 303
1025 25 305 302 303
1026 24 502 503 500
1027 25 502 503 505
1028 25 500 503 505
1029 9 295 299 298
1030 24 298 299 302
1031 9 295 299 302
1032 24 555 553 554
1033 25 555 553 550
1034 25 554 553 550
1035 22 436 434 555
1036 23 436 434 431
1037 23 436 434 429
1038 23 555 434 431
1039 29 431 434 429
1040 23 555 434 429
1041 9 262 267 268
1042 24 268 267 109
1043 9 262 267 109
1044 14 561 558 556
1045 27 554 556 558
1046 24 554 556 560
1047 27 560 556 558
1048 24 555 557 560
1049 25 555 557 440
1050 25 560 557 440
1051 2 262 263 264
1052 2 262 263 259
1053 2 262 263 265
1054 29 264 263 259
1055 29 264 263 265
1056 29 259 263 265
1057 22 30 31 29
1058 23 30 31 35
1059 23 30 31 34
1060 23 29 31 35
1061 29 35 31 34
1062 23 29 31 34
1063 9 434 436 435
1064 24 435 436 439
1065 9 434 436 439
1066 21 197 195 394
1067 19 197 195 163
1068 19 197 195 398
1069 32 163 195 394
1070 29 163 195 398
1071 32 398 195 394
1072 24 442 438 435
1073 25 442 438 437
1074 25 435 438 437
1075 14 195 394 442
1076 27 438 442 394
1077 27 393 442 394
1078 24 438 442 393
1079 24 301 298 299
1080 25 301 298 296
1081 25 299 298 296
1082 9 295 499 502
1083 9 295 499 497
1084 24 502 499 497
1085 24 438 435 436
1086 25 438 435 433
1087 25 436 435 433
1088 9 187 185 136
1089 9 187 185 180
1090 24 136 185 180

Dihedrals

1 26 280 283 281 278
2 30 281 283 285 286
3 30 280 283 285 286
4 26 276 278 281 283
5 30 276 278 116 227
6 30 276 278 116 114
7 30 281 278 116 227
8 30 281 278 116 114
9 26 276 277 280 283
10 26 280 277 276 278
11 10 282 280 277 276
12 25 277 280 282 279
13 25 277 280 282 483
14 26 277 280 283 281
15 11 282 280 277 275
16 27 283 280 277 275
17 25 283 280 282 279
18 25 283 280 282 483
19 10 282 280 283 281
20 12 282 280 283 285
21 28 277 280 283 285
22 10 274 276 277 280
23 11 274 276 277 275
24 10 274 276 278 281
25 12 274 276 278 116
26 25 277 276 274 117
27 25 278 276 274 117
28 25 277 276 274 273
29 25 278 276 274 273
30 26 277 276 278 281
31 28 277 276 278 116
32 27 278 276 277 275
33 1 113 274 276 277
34 1 113 274 276 278
35 23 276 274 113 115
36 23 276 274 113 158
37 23 276 274 113 157
38 26 177 49 47 174
39 27 177 49 47 45
40 44 50 49 47 45
41 26 47 49 177 124
42 10 56 15 17 14
43 25 17 15 56 132
44 25 17 15 56 57
45 26 17 15 13 11
46 27 17 15 13 53
47 11 56 15 17 18
48 27 13 15 17 18
49 25 13 15 56 132
50 25 13 15 56 57
51 11 56 15 13 53
52 10 56 15 13 11
53 10 447 281 278 276
54 10 447 281 283 280
55 25 283 281 447 446
56 25 283 281 447 450
57 25 283 281 447 448
58 28 283 281 278 116
59 25 278 281 447 446
60 25 278 281 447 450
61 25 278 281 447 448
62 12 447 281 278 116
63 12 447 281 283 285
64 28 278 281 283 285
65 10 361 356 351 347
66 10 361 356 354 349
67 25 354 356 361 363
68 25 354 356 361 360
69 25 354 356 361 362
70 25 351 356 361 363
71 25 351 356 361 360
72 25 351 356 361 362
73 12 361 356 351 173
74 28 354 356 351 173
75 12 361 356 354 357
76 28 351 356 354 357
77 33 115 113 274 117
78 33 115 113 274 273
79 33 158 113 274 117
80 33 158 113 274 273
81 33 157 113 274 117
82 33 157 113 274 273
83 15 223 357 354 356
84 31 354 357 223 224
85 31 354 357 223 222
86 15 223 357 354 349
87 26 349 354 356 351
88 30 356 354 357 359
89 30 349 354 357 359
90 26 347 351 356 354
91 30 356 351 173 171
92 30 347 351 173 171
93 18 379 223 357 354
94 46 357 223 379 193
95 19 379 223 357 359
96 38 224 223 357 359
97 38 222 223 357 359
98 35 224 223 379 193
99 34 224 223 379 378
100 35 222 223 379 193
101 34 222 223 379 378
102 29 49 47 174 169
103 26 49 47 174 176
104 27 174 47 49 50
105 45 45 47 174 169
106 10 56 177 49 47
107 11 56 177 49 50
108 10 56 177 124 176
109 11 56 177 124 127
110 25 49 177 56 132
111 25 124 177 56 132
112 25 49 177 56 57
113 25 124 177 56 57
114 26 49 177 124 176
115 27 49 177 124 127
116 27 124 177 49 50
117 15 41 285 283 281
118 31 283 285 41 40
119 31 283 285 41 42
120 15 41 285 283 280
121 24 177 56 15 17
122 24 15 56 177 49
123 24 15 56 177 124
124 24 177 56 15 13
125 26 47 174 176 124
126 27 47 174 176 120
127 27 176 174 47 45
128 17 168 169 174 47
129 17 168 169 174 176
130 32 174 169 168 167
131 32 174 169 168 172
132 20 247 252 461 462
133 34 459 252 247 246
134 34 253 252 247 246
135 48 461 252 247 243
136 35 459 252 247 243
137 35 253 252 247 243
138 18 43 41 285 283
139 46 285 41 43 39
140 19 43 41 285 286
141 38 40 41 285 286
142 38 42 41 285 286
143 35 40 41 43 39
144 34 40 41 43 170
145 35 42 41 43 39
146 34 42 41 43 170
147 1 287 282 280 277
148 23 280 282 287 289
149 23 280 282 287 288
150 23 280 282 287 489
151 1 287 282 280 283
152 33 279 282 287 289
153 33 279 282 287 288
154 33 279 282 287 489
155 33 483 282 287 289
156 33 483 282 287 288
157 33 483 282 287 489
158 29 456 453 575 573
159 26 456 453 575 577
160 27 575 453 456 457
161 45 452 453 575 573
162 27 15 13 11 10
163 44 53 13 11 10
164 37 271 269 472 466
165 36 271 269 472 474
166 37 270 269 472 466
167 36 270 269 472 474
168 15 244 173 351 356
169 31 351 173 244 245
170 31 351 173 244 242
171 15 244 173 351 347
172 26 177 124 176 174
173 27 177 124 176 120
174 9 473 472 466 269
175 8 269 472 473 467
176 6 269 472 473 471
177 6 269 472 473 443
178 6 473 472 269 271
179 6 473 472 269 270
180 42 474 472 269 466
181 43 474 472 473 467
182 47 466 472 473 467
183 7 473 472 269 466
184 27 130 128 180 179
185 45 126 128 130 129
186 44 126 128 180 179
187 29 180 128 130 129
188 37 297 294 123 291
189 36 297 294 123 292
190 37 249 294 123 291
191 36 249 294 123 292
192 26 185 136 135 130
193 27 185 136 135 137
194 44 191 136 135 137
195 26 135 136 185 180
196 37 507 528 531 527
197 36 507 528 531 533
198 37 529 528 531 527
199 36 529 528 531 533
200 3 430 379 223 357
201 39 378 379 223 357
202 4 223 379 430 380
203 2 223 379 430 428
204 2 223 379 430 432
205 5 223 379 193 355
206 2 430 379 223 224
207 2 430 379 223 222
208 40 378 379 430 380
209 41 378 379 193 355
210 5 430 379 193 355
211 16 528 527 531 533
212 22 531 527 528 507
213 22 531 527 528 529
214 26 135 130 128 180
215 27 135 130 128 126
216 27 128 130 135 137
217 29 13 11 12 9
218 45 10 11 12 9
219 26 12 11 13 15
220 27 12 11 13 53
221 20 379 430 380 384
222 34 428 430 379 378
223 34 432 430 379 378
224 48 380 430 379 193
225 35 428 430 379 193
226 35 432 430 379 193
227 9 532 531 527 528
228 8 528 531 532 534
229 6 528 531 532 508
230 6 528 531 532 530
231 6 532 531 528 507
232 6 532 531 528 529
233 42 533 531 528 527
234 43 533 531 532 534
235 47 527 531 532 534
236 7 532 531 528 527
237 17 430 380 384 386
238 17 430 380 384 388
239 32 384 380 430 432
240 32 384 380 430 428
241 8 250 251 131 129
242 47 125 251 131 129
243 43 248 251 131 129
244 7 131 251 250 125
245 6 131 251 250 103
246 6 131 251 250 102
247 9 131 251 125 250
248 6 250 251 131 134
249 6 250 251 131 133
250 42 248 251 250 125
251 21 251 131 129 130
252 37 134 131 251 125
253 36 134 131 251 248
254 37 133 131 251 125
255 36 133 131 251 248
256 10 337 342 343 350
257 25 343 342 337 338
258 25 343 342 337 336
259 26 343 342 348 352
260 27 343 342 348 284
261 11 337 342 343 339
262 27 348 342 343 339
263 25 348 342 337 338
264 25 348 342 337 336
265 11 337 342 348 284
266 10 337 342 348 352
267 26 14 12 11 13
268 27 14 12 11 10
269 27 11 12 14 16
270 26 334 390 386 384
271 27 334 390 386 382
272 44 391 390 386 382
273 26 386 390 334 392
274 26 386 384 388 392
275 27 386 384 388 387
276 27 388 384 386 382
277 27 384 388 392 335
278 45 387 388 384 380
279 44 387 388 392 335
280 29 392 388 384 380
281 26 334 392 388 384
282 27 334 392 388 387
283 10 337 334 390 386
284 11 337 334 390 391
285 10 337 334 392 388
286 11 337 334 392 335
287 25 390 334 337 338
288 25 392 334 337 338
289 25 390 334 337 336
290 25 392 334 337 336
291 26 390 334 392 388
292 27 390 334 392 335
293 27 392 334 390 391
294 29 390 386 384 380
295 26 390 386 384 388
296 27 384 386 390 391
297 45 382 386 384 380
298 24 334 337 342 343
299 24 342 337 334 390
300 24 342 337 334 392
301 24 334 337 342 348
302 17 8 9 12 14
303 17 8 9 12 11
304 32 12 9 8 6
305 32 12 9 8 7
306 36 103 250 251 248
307 36 102 250 251 248
308 37 103 250 251 125
309 37 102 250 251 125
310 17 131 129 130 135
311 32 130 129 131 134
312 32 130 129 131 133
313 17 131 129 130 128
314 22 251 125 250 103
315 22 251 125 250 102
316 16 250 125 251 248
317 21 531 532 534 26
318 36 508 532 531 533
319 36 530 532 531 533
320 37 508 532 531 527
321 37 530 532 531 527
322 16 269 466 472 474
323 22 472 466 269 271
324 22 472 466 269 270
325 27 342 348 352 290
326 44 284 348 352 290
327 29 136 135 130 129
328 26 136 135 130 128
329 27 130 135 136 191
330 45 137 135 130 129
331 16 294 291 123 292
332 22 123 291 294 297
333 22 123 291 294 249
334 26 350 343 342 348
335 27 342 343 350 517
336 20 4 8 9 12
337 34 7 8 4 5
338 34 6 8 4 5
339 48 9 8 4 1
340 35 7 8 4 1
341 35 6 8 4 1
342 29 17 14 12 9
343 45 16 14 12 9
344 26 12 14 17 15
345 27 12 14 17 18
346 44 16 14 17 18
347 26 17 14 12 11
348 17 532 534 26 22
349 17 532 534 26 32
350 32 26 534 532 508
351 32 26 534 532 530
352 17 504 501 500 503
353 17 504 501 500 498
354 32 500 501 504 582
355 32 500 501 504 506
356 20 140 142 143 146
357 34 144 142 140 138
358 34 141 142 140 138
359 48 143 142 140 139
360 35 144 142 140 139
361 35 141 142 140 139
362 17 142 143 146 148
363 17 142 143 146 149
364 32 146 143 142 141
365 32 146 143 142 144
366 17 252 461 462 255
367 17 252 461 462 421
368 32 462 461 252 253
369 32 462 461 252 459
370 18 247 244 173 351
371 46 173 244 247 243
372 19 247 244 173 171
373 38 245 244 173 171
374 38 242 244 173 171
375 35 245 244 247 243
376 34 245 244 247 246
377 35 242 244 247 243
378 34 242 244 247 246
379 26 14 17 15 13
380 27 15 17 14 16
381 26 148 146 149 25
382 27 148 146 149 147
383 27 149 146 148 145
384 3 142 140 257 72
385 39 138 140 257 72
386 4 257 140 142 143
387 2 257 140 142 144
388 2 257 140 142 141
389 5 257 140 139 73
390 2 142 140 257 254
391 2 142 140 257 258
392 40 138 140 142 143
393 41 138 140 139 73
394 5 142 140 139 73
395 1 545 63 64 66
396 23 64 63 545 576
397 23 64 63 545 572
398 23 64 63 545 546
399 1 545 63 64 65
400 33 98 63 545 576
401 33 98 63 545 572
402 33 98 63 545 546
403 33 539 63 545 576
404 33 539 63 545 572
405 33 539 63 545 546
406 30 64 65 542 547
407 30 64 65 542 540
408 26 64 65 67 70
409 30 67 65 542 547
410 30 67 65 542 540
411 10 63 64 66 68
412 25 66 64 63 98
413 25 66 64 63 539
414 28 66 64 65 542
415 26 66 64 65 67
416 11 63 64 66 100
417 27 65 64 66 100
418 25 65 64 63 98
419 25 65 64 63 539
420 10 63 64 65 67
421 12 63 64 65 542
422 10 69 67 70 68
423 10 69 67 65 64
424 25 65 67 69 46
425 25 65 67 69 44
426 25 65 67 69 48
427 28 70 67 65 542
428 25 70 67 69 46
429 25 70 67 69 44
430 25 70 67 69 48
431 12 69 67 65 542
432 12 69 67 70 72
433 28 65 67 70 72
434 26 68 70 67 65
435 30 68 70 72 74
436 30 67 70 72 74
437 26 68 66 64 65
438 26 64 66 68 70
439 15 257 72 70 68
440 31 70 72 257 254
441 31 70 72 257 258
442 15 257 72 70 67
443 10 71 68 66 64
444 11 71 68 66 100
445 10 71 68 70 67
446 25 66 68 71 75
447 25 70 68 71 75
448 25 66 68 71 101
449 25 70 68 71 101
450 26 66 68 70 67
451 27 70 68 66 100
452 12 71 68 70 72
453 28 66 68 70 72
454 18 140 257 72 70
455 46 72 257 140 139
456 19 140 257 72 74
457 38 254 257 72 74
458 38 258 257 72 74
459 35 254 257 140 139
460 34 254 257 140 138
461 35 258 257 140 139
462 34 258 257 140 138
463 15 569 327 325 326
464 31 325 327 569 567
465 31 325 327 569 451
466 15 569 327 325 322
467 10 152 322 325 326
468 10 152 322 320 321
469 25 320 322 152 154
470 25 320 322 152 151
471 25 320 322 152 150
472 25 325 322 152 154
473 25 325 322 152 151
474 25 325 322 152 150
475 12 152 322 320 317
476 28 325 322 320 317
477 12 152 322 325 327
478 28 320 322 325 327
479 26 321 320 322 325
480 30 322 320 317 464
481 30 321 320 317 464
482 26 326 325 322 320
483 30 326 325 327 156
484 30 322 325 327 156
485 15 84 317 320 322
486 31 320 317 84 82
487 31 320 317 84 552
488 15 84 317 320 321
489 10 328 326 323 321
490 11 328 326 323 324
491 10 328 326 325 322
492 25 323 326 328 385
493 25 325 326 328 385
494 25 323 326 328 332
495 25 325 326 328 332
496 26 323 326 325 322
497 27 325 326 323 324
498 12 328 326 325 327
499 28 323 326 325 327
500 18 568 569 327 325
501 46 327 569 568 564
502 19 568 569 327 156
503 38 567 569 327 156
504 38 451 569 327 156
505 35 567 569 568 564
506 34 567 569 568 565
507 35 451 569 568 564
508 34 451 569 568 565
509 10 319 321 323 326
510 25 323 321 319 316
511 25 323 321 319 465
512 26 323 321 320 322
513 11 319 321 323 324
514 27 320 321 323 324
515 25 320 321 319 316
516 25 320 321 319 465
517 10 319 321 320 322
518 12 319 321 320 317
519 28 323 321 320 317
520 26 326 323 321 320
521 26 321 323 326 325
522 29 23 22 26 534
523 45 20 22 26 534
524 26 26 22 23 30
525 27 26 22 23 21
526 44 20 22 23 21
527 26 23 22 26 32
528 1 204 71 68 66
529 1 204 71 68 70
530 23 68 71 204 203
531 23 68 71 204 202
532 23 68 71 204 205
533 3 571 568 569 327
534 39 565 568 569 327
535 4 569 568 571 573
536 2 569 568 571 570
537 2 569 568 571 566
538 5 569 568 564 329
539 2 571 568 569 567
540 2 571 568 569 451
541 40 565 568 571 573
542 41 565 568 564 329
543 5 571 568 564 329
544 33 203 204 71 75
545 33 203 204 71 101
546 33 202 204 71 75
547 33 202 204 71 101
548 33 205 204 71 75
549 33 205 204 71 101
550 26 22 23 30 33
551 27 30 23 22 20
552 26 255 462 421 423
553 27 255 462 421 420
554 27 421 462 255 256
555 29 217 255 462 461
556 45 256 255 462 461
557 26 462 255 217 424
558 27 462 255 217 220
559 44 256 255 217 220
560 26 217 255 462 421
561 3 561 86 84 317
562 39 88 86 84 317
563 4 84 86 561 558
564 2 84 86 561 90
565 2 84 86 561 537
566 5 84 86 559 318
567 2 561 86 84 82
568 2 561 86 84 552
569 40 88 86 561 558
570 41 88 86 559 318
571 5 561 86 559 318
572 29 24 148 146 143
573 26 24 148 146 149
574 27 146 148 24 28
575 45 145 148 146 143
576 18 368 372 155 109
577 46 155 372 368 370
578 19 368 372 155 153
579 38 373 372 155 153
580 38 375 372 155 153
581 35 373 372 368 370
582 34 373 372 368 366
583 35 375 372 368 370
584 34 375 372 368 366
585 17 571 573 575 453
586 17 571 573 575 577
587 32 575 573 571 566
588 32 575 573 571 570
589 29 33 32 26 534
590 45 535 32 26 534
591 26 26 32 33 30
592 27 26 32 33 36
593 27 30 33 32 535
594 44 36 33 32 535
595 26 374 371 188 216
596 27 374 371 188 184
597 27 188 371 374 376
598 10 92 112 91 111
599 10 92 112 109 267
600 25 109 112 92 93
601 25 109 112 92 94
602 25 109 112 92 38
603 25 91 112 92 93
604 25 91 112 92 94
605 25 91 112 92 38
606 12 92 112 91 95
607 28 109 112 91 95
608 12 92 112 109 155
609 28 91 112 109 155
610 27 575 577 578 579
611 45 574 577 575 573
612 44 574 577 578 579
613 29 578 577 575 573
614 3 504 108 105 95
615 39 19 108 105 95
616 4 105 108 504 501
617 2 105 108 504 506
618 2 105 108 504 582
619 5 105 108 107 96
620 2 504 108 105 106
621 2 504 108 105 104
622 40 19 108 504 501
623 41 19 108 107 96
624 5 504 108 107 96
625 4 3 4 8 9
626 2 3 4 8 7
627 2 3 4 8 6
628 40 5 4 8 9
629 3 8 4 3 95
630 39 5 4 3 95
631 5 8 4 1 97
632 41 5 4 1 97
633 2 8 4 3 2
634 5 3 4 1 97
635 2 8 4 3 99
636 18 108 105 95 91
637 46 95 105 108 107
638 35 106 105 108 107
639 34 106 105 108 19
640 35 104 105 108 107
641 34 104 105 108 19
642 10 219 424 217 255
643 25 217 424 219 221
644 25 217 424 219 427
645 26 217 424 423 421
646 27 217 424 423 422
647 11 219 424 217 220
648 27 423 424 217 220
649 25 423 424 219 221
650 25 423 424 219 427
651 11 219 424 423 422
652 10 219 424 423 421
653 27 424 423 421 420
654 44 422 423 421 420
655 10 219 218 425 374
656 11 219 218 425 426
657 10 219 218 216 188
658 11 219 218 216 215
659 25 425 218 219 221
660 25 216 218 219 221
661 25 425 218 219 427
662 25 216 218 219 427
663 26 425 218 216 188
664 27 425 218 216 215
665 27 216 218 425 426
666 26 111 91 112 109
667 20 568 571 573 575
668 34 570 571 568 565
669 34 566 571 568 565
670 48 573 571 568 564
671 35 570 571 568 564
672 35 566 571 568 564
673 26 218 216 188 371
674 27 218 216 188 184
675 18 4 3 95 91
676 46 95 3 4 1
677 35 99 3 4 1
678 34 99 3 4 5
679 35 2 3 4 1
680 34 2 3 4 5
681 15 3 95 91 111
682 15 105 95 91 111
683 15 3 95 91 112
684 15 105 95 91 112
685 31 91 95 3 99
686 31 91 95 3 2
687 31 91 95 105 106
688 31 91 95 105 104
689 13 3 95 105 108
690 14 3 95 105 106
691 14 3 95 105 104
692 14 105 95 3 99
693 14 105 95 3 2
694 13 105 95 3 4
695 26 267 109 112 91
696 30 267 109 155 153
697 30 112 109 155 153
698 26 22 26 32 33
699 27 22 26 32 535
700 27 32 26 22 20
701 29 425 374 371 369
702 26 425 374 371 188
703 27 371 374 425 426
704 45 376 374 371 369
705 1 383 328 326 323
706 1 383 328 326 325
707 23 326 328 383 512
708 23 326 328 383 381
709 23 326 328 383 389
710 15 372 155 109 267
711 31 109 155 372 373
712 31 109 155 372 375
713 15 372 155 109 112
714 17 367 369 371 374
715 17 367 369 371 188
716 32 371 369 367 364
717 32 371 369 367 365
718 26 255 217 424 423
719 27 424 217 255 256
720 26 218 425 374 371
721 27 218 425 374 376
722 44 426 425 374 376
723 26 374 425 218 216
724 27 371 188 216 215
725 45 184 188 371 369
726 44 184 188 216 215
727 29 216 188 371 369
728 29 423 421 462 461
729 45 420 421 462 461
730 26 462 421 423 424
731 27 462 421 423 422
732 20 108 504 501 500
733 34 506 504 108 19
734 34 582 504 108 19
735 48 501 504 108 107
736 35 506 504 108 107
737 35 582 504 108 107
738 20 368 367 369 371
739 34 365 367 368 366
740 34 364 367 368 366
741 48 369 367 368 370
742 35 365 367 368 370
743 35 364 367 368 370
744 26 453 575 577 578
745 27 453 575 577 574
746 27 577 575 453 452
747 33 512 383 328 385
748 33 512 383 328 332
749 33 381 383 328 385
750 33 381 383 328 332
751 33 389 383 328 385
752 33 389 383 328 332
753 3 367 368 372 155
754 39 366 368 372 155
755 4 372 368 367 369
756 2 372 368 367 365
757 2 372 368 367 364
758 5 372 368 370 37
759 2 367 368 372 373
760 2 367 368 372 375
761 40 366 368 367 369
762 41 366 368 370 37
763 5 367 368 370 37
764 24 218 219 424 217
765 24 424 219 218 425
766 24 424 219 218 216
767 24 218 219 424 423
768 33 110 85 89 225
769 33 110 85 89 62
770 33 83 85 89 225
771 33 83 85 89 62
772 33 87 85 89 225
773 33 87 85 89 62
774 29 585 470 469 467
775 45 468 470 469 467
776 26 469 470 585 516
777 27 469 470 585 584
778 44 468 470 585 584
779 26 585 470 469 331
780 26 470 585 516 333
781 27 516 585 470 468
782 10 515 516 585 470
783 25 585 516 515 513
784 25 585 516 515 514
785 26 585 516 333 331
786 27 585 516 333 272
787 11 515 516 585 584
788 27 333 516 585 584
789 25 333 516 515 513
790 25 333 516 515 514
791 11 515 516 333 272
792 10 515 516 333 331
793 26 470 469 331 333
794 27 470 469 331 330
795 27 331 469 470 468
796 29 333 331 469 467
797 45 330 331 469 467
798 26 469 331 333 516
799 27 469 331 333 272
800 26 475 477 479 482
801 27 475 477 479 563
802 44 562 477 479 563
803 26 479 477 475 478
804 10 515 475 477 479
805 11 515 475 477 562
806 10 515 475 478 480
807 11 515 475 478 476
808 25 477 475 515 513
809 25 478 475 515 513
810 25 477 475 515 514
811 25 478 475 515 514
812 26 477 475 478 480
813 27 477 475 478 476
814 27 478 475 477 562
815 24 475 515 516 585
816 24 516 515 475 477
817 24 516 515 475 478
818 24 475 515 516 333
819 27 516 333 331 330
820 44 272 333 331 330
821 26 475 478 480 482
822 27 475 478 480 481
823 10 229 233 232 234
824 25 232 233 229 228
825 25 232 233 229 226
826 26 232 233 235 239
827 27 232 233 235 236
828 11 229 233 232 230
829 27 235 233 232 230
830 25 235 233 229 228
831 25 235 233 229 226
832 11 229 233 235 236
833 10 229 233 235 239
834 16 523 519 521 525
835 22 521 519 523 522
836 22 521 519 523 526
837 9 520 521 519 523
838 8 523 521 520 358
839 6 523 521 520 518
840 6 523 521 520 524
841 6 520 521 523 522
842 6 520 521 523 526
843 42 525 521 523 519
844 43 525 521 520 358
845 47 519 521 520 358
846 7 520 521 523 519
847 26 60 190 186 182
848 27 186 190 60 61
849 37 522 523 521 519
850 36 522 523 521 525
851 37 526 523 521 519
852 36 526 523 521 525
853 24 185 187 186 190
854 24 186 187 185 136
855 24 186 187 185 180
856 24 185 187 186 182
857 24 231 229 233 232
858 24 233 229 231 201
859 24 233 229 231 445
860 24 231 229 233 235
861 3 168 43 41 285
862 39 170 43 41 285
863 4 41 43 168 169
864 2 41 43 168 172
865 2 41 43 168 167
866 5 41 43 39 449
867 2 168 43 41 40
868 2 168 43 41 42
869 40 170 43 168 169
870 41 170 43 39 449
871 5 168 43 39 449
872 20 43 168 169 174
873 34 172 168 43 170
874 34 167 168 43 170
875 48 169 168 43 39
876 35 172 168 43 39
877 35 167 168 43 39
878 26 347 344 349 354
879 26 349 344 347 351
880 16 311 313 312 315
881 22 312 313 311 308
882 22 312 313 311 314
883 29 477 479 482 484
884 26 477 479 482 480
885 27 482 479 477 562
886 45 563 479 482 484
887 26 580 456 453 575
888 27 580 456 453 452
889 44 457 456 453 452
890 26 453 456 580 578
891 21 521 520 358 353
892 36 518 520 521 525
893 36 524 520 521 525
894 37 518 520 521 519
895 37 524 520 521 519
896 27 482 480 478 476
897 45 481 480 482 484
898 44 481 480 478 476
899 29 478 480 482 484
900 10 187 186 190 60
901 25 190 186 187 189
902 25 190 186 187 183
903 26 190 186 182 181
904 27 190 186 182 178
905 11 187 186 190 192
906 27 182 186 190 192
907 25 182 186 187 189
908 25 182 186 187 183
909 11 187 186 182 178
910 10 187 186 182 181
911 1 403 345 349 344
912 23 349 345 403 401
913 23 349 345 403 407
914 23 349 345 403 399
915 1 403 345 349 354
916 33 346 345 403 401
917 33 346 345 403 407
918 33 346 345 403 399
919 33 340 345 403 401
920 33 340 345 403 407
921 33 340 345 403 399
922 1 162 165 347 344
923 1 162 165 347 351
924 23 347 165 162 160
925 23 347 165 162 161
926 23 347 165 162 159
927 29 190 60 58 59
928 45 61 60 58 59
929 26 58 60 190 186
930 27 58 60 190 192
931 44 61 60 190 192
932 26 190 60 58 181
933 10 165 347 344 349
934 11 165 347 344 341
935 10 165 347 351 356
936 25 344 347 165 164
937 25 351 347 165 164
938 25 344 347 165 166
939 25 351 347 165 166
940 26 344 347 351 356
941 27 351 347 344 341
942 12 165 347 351 173
943 28 344 347 351 173
944 27 174 176 124 127
945 45 120 176 174 169
946 44 120 176 124 127
947 29 124 176 174 169
948 33 160 162 165 164
949 33 160 162 165 166
950 33 161 162 165 164
951 33 161 162 165 166
952 33 159 162 165 164
953 33 159 162 165 166
954 17 473 467 469 470
955 17 473 467 469 331
956 32 469 467 473 471
957 32 469 467 473 443
958 10 345 349 344 347
959 25 344 349 345 346
960 25 344 349 345 340
961 26 344 349 354 356
962 11 345 349 344 341
963 27 354 349 344 341
964 25 354 349 345 346
965 25 354 349 345 340
966 10 345 349 354 356
967 12 345 349 354 357
968 28 344 349 354 357
969 27 233 235 239 240
970 44 236 235 239 240
971 37 308 311 312 313
972 36 308 311 312 315
973 37 314 311 312 313
974 36 314 311 312 315
975 29 348 352 353 358
976 45 290 352 353 358
977 26 353 352 348 342
978 27 353 352 348 284
979 26 185 180 128 130
980 27 185 180 128 126
981 26 479 482 480 478
982 27 479 482 480 481
983 27 480 482 479 563
984 9 310 312 313 311
985 8 311 312 310 306
986 6 311 312 310 309
987 6 311 312 310 377
988 6 310 312 311 308
989 6 310 312 311 314
990 42 315 312 311 313
991 43 315 312 310 306
992 47 313 312 310 306
993 7 310 312 311 313
994 17 520 358 353 350
995 17 520 358 353 352
996 32 353 358 520 518
997 32 353 358 520 524
998 24 580 581 417 418
999 24 417 581 580 456
1000 24 417 581 580 578
1001 24 580 581 417 455
1002 26 350 353 352 348
1003 27 350 353 352 290
1004 27 352 353 350 517
1005 21 312 310 306 304
1006 36 309 310 312 315
1007 36 377 310 312 315
1008 37 309 310 312 313
1009 37 377 310 312 313
1010 17 487 484 482 479
1011 32 482 484 487 485
1012 32 482 484 487 491
1013 17 487 484 482 480
1014 17 121 241 238 234
1015 17 121 241 238 239
1016 32 238 241 121 119
1017 32 238 241 121 122
1018 29 235 239 238 241
1019 45 240 239 238 241
1020 26 238 239 235 233
1021 27 238 239 235 236
1022 36 493 492 490 488
1023 36 494 492 490 488
1024 37 493 492 490 486
1025 37 494 492 490 486
1026 21 211 208 413 414
1027 36 206 208 211 214
1028 36 209 208 211 214
1029 37 206 208 211 213
1030 37 209 208 211 213
1031 21 490 487 484 482
1032 37 485 487 490 486
1033 36 485 487 490 488
1034 37 491 487 490 486
1035 36 491 487 490 488
1036 26 415 418 417 455
1037 27 417 418 415 416
1038 26 415 414 412 455
1039 27 415 414 412 411
1040 27 412 414 415 416
1041 10 581 417 418 415
1042 25 418 417 581 460
1043 25 418 417 581 549
1044 26 418 417 455 412
1045 27 418 417 455 454
1046 11 581 417 418 419
1047 27 455 417 418 419
1048 25 455 417 581 460
1049 25 455 417 581 549
1050 11 581 417 455 454
1051 10 581 417 455 412
1052 29 418 415 414 413
1053 45 416 415 414 413
1054 26 414 415 418 417
1055 27 414 415 418 419
1056 44 416 415 418 419
1057 26 418 415 414 412
1058 17 208 413 414 415
1059 17 208 413 414 412
1060 32 414 413 208 206
1061 32 414 413 208 209
1062 27 417 455 412 411
1063 44 454 455 412 411
1064 29 455 412 414 413
1065 45 411 412 414 413
1066 26 414 412 455 417
1067 27 414 412 455 454
1068 8 492 490 487 484
1069 47 486 490 487 484
1070 43 488 490 487 484
1071 7 487 490 492 486
1072 6 487 490 492 493
1073 6 487 490 492 494
1074 9 487 490 486 492
1075 6 492 490 487 485
1076 6 492 490 487 491
1077 42 488 490 492 486
1078 9 208 211 213 210
1079 8 210 211 208 413
1080 6 210 211 208 206
1081 6 210 211 208 209
1082 6 208 211 210 207
1083 6 208 211 210 212
1084 42 214 211 210 213
1085 43 214 211 208 413
1086 47 213 211 208 413
1087 7 208 211 210 213
1088 22 490 486 492 493
1089 22 490 486 492 494
1090 16 492 486 490 488
1091 21 123 121 241 238
1092 36 119 121 123 292
1093 36 122 121 123 292
1094 37 119 121 123 291
1095 37 122 121 123 291
1096 16 210 213 211 214
1097 22 211 213 210 207
1098 22 211 213 210 212
1099 26 234 238 239 235
1100 27 234 238 239 240
1101 27 239 238 234 118
1102 10 581 580 456 453
1103 11 581 580 456 457
1104 10 581 580 578 577
1105 11 581 580 578 579
1106 25 456 580 581 460
1107 25 578 580 581 460
1108 25 456 580 581 549
1109 25 578 580 581 549
1110 26 456 580 578 577
1111 27 456 580 578 579
1112 27 578 580 456 457
1113 37 207 210 211 213
1114 36 207 210 211 214
1115 37 212 210 211 213
1116 36 212 210 211 214
1117 29 343 350 353 358
1118 45 517 350 353 358
1119 26 353 350 343 342
1120 27 353 350 343 339
1121 44 517 350 343 339
1122 26 343 350 353 352
1123 9 121 123 291 294
1124 8 294 123 121 241
1125 6 294 123 121 119
1126 6 294 123 121 122
1127 6 121 123 294 297
1128 6 121 123 294 249
1129 42 292 123 294 291
1130 43 292 123 121 241
1131 47 291 123 121 241
1132 7 121 123 294 291
1133 29 232 234 238 241
1134 45 118 234 238 241
1135 26 238 234 232 233
1136 27 238 234 232 230
1137 44 118 234 232 230
1138 26 232 234 238 239
1139 17 310 306 304 301
1140 17 310 306 304 305
1141 32 304 306 310 309
1142 32 304 306 310 377
1143 26 580 578 577 575
1144 27 580 578 577 574
1145 26 234 232 233 235
1146 27 233 232 234 118
1147 21 472 473 467 469
1148 36 471 473 472 474
1149 36 443 473 472 474
1150 37 471 473 472 466
1151 37 443 473 472 466
1152 10 31 30 23 22
1153 25 23 30 31 35
1154 25 23 30 31 34
1155 26 23 30 33 32
1156 27 23 30 33 36
1157 11 31 30 23 21
1158 27 33 30 23 21
1159 25 33 30 31 35
1160 25 33 30 31 34
1161 11 31 30 33 36
1162 10 31 30 33 32
1163 1 510 319 321 323
1164 23 321 319 510 583
1165 23 321 319 510 509
1166 23 321 319 510 511
1167 1 510 319 321 320
1168 33 316 319 510 583
1169 33 316 319 510 509
1170 33 316 319 510 511
1171 33 465 319 510 583
1172 33 465 319 510 509
1173 33 465 319 510 511
1174 3 252 247 244 173
1175 39 246 247 244 173
1176 4 244 247 252 461
1177 2 244 247 252 459
1178 2 244 247 252 253
1179 5 244 247 243 175
1180 2 252 247 244 245
1181 2 252 247 244 242
1182 40 246 247 252 461
1183 41 246 247 243 175
1184 5 252 247 243 175
1185 16 78 77 79 81
1186 22 79 77 78 80
1187 22 79 77 78 76
1188 36 548 544 405 538
1189 36 541 544 405 538
1190 37 548 544 405 543
1191 37 541 544 405 543
1192 22 405 543 544 548
1193 22 405 543 544 541
1194 16 544 543 405 538
1195 21 79 55 59 58
1196 36 54 55 79 81
1197 36 52 55 79 81
1198 37 54 55 79 77
1199 37 52 55 79 77
1200 9 55 79 77 78
1201 8 78 79 55 59
1202 6 78 79 55 54
1203 6 78 79 55 52
1204 6 55 79 78 80
1205 6 55 79 78 76
1206 42 81 79 78 77
1207 43 81 79 55 59
1208 47 77 79 55 59
1209 7 55 79 78 77
1210 8 544 405 406 402
1211 47 543 405 406 402
1212 43 538 405 406 402
1213 7 406 405 544 543
1214 6 406 405 544 548
1215 6 406 405 544 541
1216 9 406 405 543 544
1217 6 544 405 406 410
1218 6 544 405 406 408
1219 42 538 405 544 543
1220 10 229 231 201 404
1221 11 229 231 201 237
1222 10 229 231 445 397
1223 11 229 231 445 444
1224 25 201 231 229 228
1225 25 445 231 229 228
1226 25 201 231 229 226
1227 25 445 231 229 226
1228 26 201 231 445 397
1229 27 201 231 445 444
1230 27 445 231 201 237
1231 26 60 58 181 182
1232 27 60 58 181 51
1233 27 181 58 60 61
1234 17 55 59 58 60
1235 17 55 59 58 181
1236 32 58 59 55 54
1237 32 58 59 55 52
1238 27 186 182 181 51
1239 44 178 182 181 51
1240 29 182 181 58 59
1241 45 51 181 58 59
1242 26 58 181 182 186
1243 27 58 181 182 178
1244 26 231 445 397 400
1245 27 231 445 397 396
1246 37 80 78 79 77
1247 36 80 78 79 81
1248 37 76 78 79 77
1249 36 76 78 79 81
1250 29 201 404 400 402
1251 26 201 404 400 397
1252 27 400 404 201 237
1253 45 409 404 400 402
1254 21 405 406 402 400
1255 37 410 406 405 543
1256 36 410 406 405 538
1257 37 408 406 405 543
1258 36 408 406 405 538
1259 17 406 402 400 404
1260 32 400 402 406 410
1261 32 400 402 406 408
1262 17 406 402 400 397
1263 26 404 400 397 445
1264 27 404 400 397 396
1265 27 397 400 404 409
1266 27 400 397 445 444
1267 45 396 397 400 402
1268 44 396 397 445 444
1269 29 445 397 400 402
1270 26 231 201 404 400
1271 27 231 201 404 409
1272 44 237 201 404 409
1273 26 404 201 231 445
1274 26 29 25 149 146
1275 27 29 25 149 147
1276 20 86 561 558 556
1277 34 90 561 86 88
1278 34 537 561 86 88
1279 48 558 561 86 559
1280 35 90 561 86 559
1281 35 537 561 86 559
1282 37 198 196 197 199
1283 36 198 196 197 200
1284 37 194 196 197 199
1285 36 194 196 197 200
1286 27 146 149 25 27
1287 45 147 149 146 143
1288 44 147 149 25 27
1289 29 25 149 146 143
1290 16 196 199 197 200
1291 22 197 199 196 198
1292 22 197 199 196 194
1293 10 31 29 24 148
1294 11 31 29 24 28
1295 10 31 29 25 149
1296 11 31 29 25 27
1297 25 24 29 31 35
1298 25 25 29 31 35
1299 25 24 29 31 34
1300 25 25 29 31 34
1301 26 24 29 25 149
1302 27 24 29 25 27
1303 27 25 29 24 28
1304 26 29 24 148 146
1305 27 29 24 148 145
1306 44 28 24 148 145
1307 26 148 24 29 25
1308 18 86 84 317 320
1309 46 317 84 86 559
1310 19 86 84 317 464
1311 38 82 84 317 464
1312 38 552 84 317 464
1313 35 82 84 86 559
1314 34 82 84 86 88
1315 35 552 84 86 559
1316 34 552 84 86 88
1317 10 89 111 268 267
1318 11 89 111 268 266
1319 10 89 111 91 112
1320 25 268 111 89 225
1321 25 91 111 89 225
1322 25 268 111 89 62
1323 25 91 111 89 62
1324 26 268 111 91 112
1325 27 91 111 268 266
1326 28 268 111 91 95
1327 12 89 111 91 95
1328 9 195 197 199 196
1329 8 196 197 195 394
1330 6 196 197 195 163
1331 6 196 197 195 398
1332 6 195 197 196 198
1333 6 195 197 196 194
1334 42 200 197 196 199
1335 43 200 197 195 394
1336 47 199 197 195 394
1337 7 195 197 196 199
1338 29 553 554 556 558
1339 26 553 554 556 560
1340 27 556 554 553 550
1341 45 551 554 556 558
1342 26 503 500 498 497
1343 27 503 500 498 496
1344 27 498 500 503 505
1345 26 301 304 305 302
1346 27 301 304 305 307
1347 27 305 304 301 300
1348 29 439 393 442 394
1349 45 395 393 442 394
1350 26 442 393 439 436
1351 27 442 393 439 441
1352 29 302 305 304 306
1353 45 307 305 304 306
1354 26 304 305 302 299
1355 27 304 305 302 303
1356 1 85 89 111 268
1357 1 85 89 111 91
1358 23 111 89 85 110
1359 23 111 89 85 83
1360 23 111 89 85 87
1361 27 500 498 497 495
1362 45 496 498 500 501
1363 44 496 498 497 495
1364 29 497 498 500 501
1365 27 556 560 557 440
1366 45 536 560 556 558
1367 44 536 560 557 440
1368 29 557 560 556 558
1369 10 434 555 553 554
1370 11 434 555 553 550
1371 10 434 555 557 560
1372 11 434 555 557 440
1373 25 553 555 434 431
1374 25 557 555 434 431
1375 25 553 555 434 429
1376 25 557 555 434 429
1377 26 553 555 557 560
1378 27 553 555 557 440
1379 27 557 555 553 550
1380 26 499 502 503 500
1381 27 499 502 503 505
1382 44 463 502 503 505
1383 26 503 502 499 497
1384 29 298 301 304 306
1385 45 300 301 304 306
1386 26 304 301 298 299
1387 27 304 301 298 296
1388 44 300 301 298 296
1389 26 298 301 304 305
1390 24 499 295 299 298
1391 24 299 295 499 502
1392 24 299 295 499 497
1393 24 499 295 299 302
1394 1 263 262 267 268
1395 23 267 262 263 264
1396 23 267 262 263 259
1397 23 267 262 263 265
1398 1 263 262 267 109
1399 33 261 262 263 264
1400 33 261 262 263 259
1401 33 261 262 263 265
1402 33 260 262 263 264
1403 33 260 262 263 259
1404 33 260 262 263 265
1405 26 499 497 498 500
1406 27 499 497 498 496
1407 27 436 439 393 395
1408 44 441 439 393 395
1409 26 111 268 267 109
1410 26 267 268 111 91
1411 27 299 302 305 307
1412 44 303 302 305 307
1413 29 502 503 500 501
1414 26 502 503 500 498
1415 27 500 503 502 463
1416 45 505 503 500 501
1417 10 295 299 298 301
1418 25 298 299 295 293
1419 25 298 299 295 458
1420 26 298 299 302 305
1421 27 298 299 302 303
1422 11 295 299 298 296
1423 27 302 299 298 296
1424 25 302 299 295 293
1425 25 302 299 295 458
1426 11 295 299 302 303
1427 10 295 299 302 305
1428 26 555 553 554 556
1429 27 555 553 554 551
1430 44 550 553 554 551
1431 26 554 553 555 557
1432 24 555 434 436 435
1433 24 436 434 555 553
1434 24 436 434 555 557
1435 24 555 434 436 439
1436 10 262 267 268 111
1437 25 268 267 262 261
1438 25 268 267 262 260
1439 26 268 267 109 112
1440 11 262 267 268 266
1441 27 109 267 268 266
1442 25 109 267 262 261
1443 25 109 267 262 260
1444 10 262 267 109 112
1445 12 262 267 109 155
1446 28 268 267 109 155
1447 17 561 558 556 554
1448 17 561 558 556 560
1449 32 556 558 561 537
1450 32 556 558 561 90
1451 26 554 556 560 557
1452 27 554 556 560 536
1453 27 560 556 554 551
1454 26 555 557 560 556
1455 27 555 557 560 536
1456 24 29 31 30 23
1457 24 30 31 29 24
1458 24 30 31 29 25
1459 24 29 31 30 33
1460 10 434 436 435 438
1461 25 435 436 434 431
1462 25 435 436 434 429
1463 26 435 436 439 393
1464 27 435 436 439 441
1465 11 434 436 435 433
1466 27 439 436 435 433
1467 25 439 436 434 431
1468 25 439 436 434 429
1469 11 434 436 439 441
1470 10 434 436 439 393
1471 21 197 195 394 442
1472 36 163 195 197 200
1473 36 398 195 197 200
1474 37 163 195 197 199
1475 37 398 195 197 199
1476 29 435 438 442 394
1477 45 437 438 442 394
1478 26 442 438 435 436
1479 27 442 438 435 433
1480 44 437 438 435 433
1481 26 435 438 442 393
1482 17 195 394 442 438
1483 17 195 394 442 393
1484 32 442 394 195 163
1485 32 442 394 195 398
1486 26 438 442 393 439
1487 27 438 442 393 395
1488 27 393 442 438 437
1489 26 301 298 299 302
1490 27 299 298 301 300
1491 10 295 499 502 503
1492 11 295 499 502 463
1493 10 295 499 497 498
1494 11 295 499 497 495
1495 25 502 499 295 293
1496 25 497 499 295 293
1497 25 502 499 295 458
1498 25 497 499 295 458
1499 26 502 499 497 498
1500 27 502 499 497 495
1501 27 497 499 502 463
1502 26 438 435 436 439
1503 27 436 435 438 437
1504 10 187 185 136 135
1505 11 187 185 136 191
1506 10 187 185 180 128
1507 11 187 185 180 179
1508 25 136 185 187 189
1509 25 180 185 187 189
1510 25 136 185 187 183
1511 25 180 185 187 183
1512 26 136 185 180 128
1513 27 136 185 180 179
1514 27 180 185 136 191

Impropers

1 26 280 283 281 285
2 26 276 278 281 116
3 25 276 277 280 275
4 24 282 280 283 277
5 24 274 276 277 278
6 1 113 274 276 117
7 1 113 274 276 273
8 3 113 274 117 273
9 13 276 274 117 273
10 30 278 116 227 114
11 25 177 49 47 50
12 24 56 15 13 17
13 24 447 281 278 283
14 13 356 361 363 360
15 13 356 361 363 362
16 13 356 361 360 362
17 14 363 361 360 362
18 24 361 356 351 354
19 3 274 113 115 158
20 3 274 113 115 157
21 3 274 113 158 157
22 14 115 113 158 157
23 29 223 357 359 354
24 26 349 354 356 357
25 13 281 447 446 450
26 13 281 447 446 448
27 13 281 447 450 448
28 14 446 447 450 448
29 26 347 351 356 173
30 5 379 223 224 357
31 5 379 223 222 357
32 15 224 223 222 357
33 4 379 223 224 222
34 25 49 47 174 45
35 24 56 177 49 124
36 29 41 285 286 283
37 12 15 56 177 132
38 12 15 56 177 57
39 13 15 56 132 57
40 13 177 56 132 57
41 27 176 174 47 169
42 6 247 252 461 459
43 6 247 252 461 253
44 4 247 252 459 253
45 17 459 252 253 461
46 5 43 41 40 285
47 5 43 41 42 285
48 15 40 41 42 285
49 4 43 41 40 42
50 2 287 282 279 280
51 2 287 282 483 280
52 13 280 282 279 483
53 3 287 282 279 483
54 25 456 453 575 452
55 25 15 13 11 53
56 8 472 269 271 466
57 8 472 269 270 466
58 16 271 269 270 466
59 7 472 269 271 270
60 29 244 173 171 351
61 25 176 124 177 127
62 22 269 472 473 466
63 21 269 472 473 474
64 23 269 472 466 474
65 23 473 472 466 474
66 25 130 128 180 126
67 8 123 294 297 291
68 8 123 294 249 291
69 16 297 294 249 291
70 7 123 294 297 249
71 25 185 136 135 191
72 8 531 528 507 527
73 8 531 528 529 527
74 16 507 528 529 527
75 7 531 528 507 529
76 19 223 379 430 193
77 18 223 379 430 378
78 20 223 379 193 378
79 20 430 379 193 378
80 27 128 130 135 129
81 3 282 287 289 288
82 3 282 287 289 489
83 3 282 287 288 489
84 14 289 287 288 489
85 25 13 11 12 10
86 6 379 430 380 428
87 6 379 430 380 432
88 4 379 430 428 432
89 17 428 430 432 380
90 22 528 531 532 527
91 21 528 531 532 533
92 23 528 531 527 533
93 23 532 531 527 533
94 22 131 251 250 125
95 21 131 251 250 248
96 23 131 251 125 248
97 23 250 251 125 248
98 9 251 131 134 129
99 9 251 131 133 129
100 17 134 131 133 129
101 7 251 131 134 133
102 24 337 342 348 343
103 27 14 12 11 9
104 25 334 390 386 391
105 27 388 384 386 380
106 25 384 388 392 387
107 25 388 392 334 335
108 24 337 334 390 392
109 25 390 386 384 382
110 12 342 337 334 338
111 12 342 337 334 336
112 13 342 337 338 336
113 13 334 337 338 336
114 10 251 250 125 103
115 10 251 250 125 102
116 7 251 250 103 102
117 16 103 250 102 125
118 11 531 532 534 508
119 11 531 532 534 530
120 7 531 532 508 530
121 17 508 532 530 534
122 25 342 348 352 284
123 25 136 135 130 137
124 25 350 343 342 339
125 6 4 8 9 7
126 6 4 8 9 6
127 4 4 8 7 6
128 17 7 8 6 9
129 25 12 14 17 16
130 6 140 142 143 144
131 6 140 142 143 141
132 4 140 142 144 141
133 17 144 142 141 143
134 5 247 244 245 173
135 5 247 244 242 173
136 15 245 244 242 173
137 4 247 244 245 242
138 25 14 17 15 18
139 27 149 146 148 143
140 3 63 545 576 572
141 3 63 545 576 546
142 3 63 545 572 546
143 14 576 545 572 546
144 19 257 140 142 139
145 18 257 140 142 138
146 20 257 140 139 138
147 20 142 140 139 138
148 2 545 63 98 64
149 2 545 63 539 64
150 13 64 63 98 539
151 3 545 63 98 539
152 13 322 152 154 151
153 13 322 152 154 150
154 13 322 152 151 150
155 14 154 152 151 150
156 26 67 65 64 542
157 30 65 542 547 540
158 24 63 64 65 66
159 24 69 67 70 65
160 13 67 69 46 44
161 13 67 69 46 48
162 13 67 69 44 48
163 14 46 69 44 48
164 26 67 70 68 72
165 25 68 66 64 100
166 29 257 72 74 70
167 24 71 68 66 70
168 5 140 257 254 72
169 5 140 257 258 72
170 15 254 257 258 72
171 4 140 257 254 258
172 29 569 327 156 325
173 24 152 322 325 320
174 26 321 320 322 317
175 26 322 325 326 327
176 29 84 317 464 320
177 24 328 326 323 325
178 5 568 569 567 327
179 5 568 569 451 327
180 15 567 569 451 327
181 4 568 569 567 451
182 24 319 321 320 323
183 25 326 323 321 324
184 25 26 22 23 20
185 1 204 71 68 75
186 1 204 71 68 101
187 3 204 71 75 101
188 13 68 71 75 101
189 19 569 568 571 564
190 18 569 568 571 565
191 20 569 568 564 565
192 20 571 568 564 565
193 3 71 204 203 202
194 3 71 204 203 205
195 3 71 204 202 205
196 14 203 204 202 205
197 25 22 23 30 21
198 27 255 462 421 461
199 25 462 255 217 256
200 19 84 86 561 559
201 18 84 86 561 88
202 20 84 86 559 88
203 20 561 86 559 88
204 25 24 148 146 145
205 5 368 372 373 155
206 5 368 372 375 155
207 15 373 372 375 155
208 4 368 372 373 375
209 25 33 32 26 535
210 25 30 33 32 36
211 27 188 371 374 369
212 24 92 112 91 109
213 25 575 577 578 574
214 19 105 108 504 107
215 18 105 108 504 19
216 20 105 108 107 19
217 20 504 108 107 19
218 19 3 4 8 1
219 18 3 4 8 5
220 20 3 4 1 5
221 20 8 4 1 5
222 5 108 105 106 95
223 5 108 105 104 95
224 15 106 105 104 95
225 4 108 105 106 104
226 24 219 424 423 217
227 25 424 423 421 422
228 24 219 218 425 216
229 26 111 91 112 95
230 6 568 571 573 570
231 6 568 571 573 566
232 4 568 571 570 566
233 17 570 571 566 573
234 25 188 216 218 215
235 5 4 3 99 95
236 5 4 3 2 95
237 15 99 3 2 95
238 4 4 3 99 2
239 28 3 95 105 91
240 26 112 109 267 155
241 27 22 26 32 534
242 25 425 374 371 376
243 1 383 328 326 385
244 1 383 328 326 332
245 3 383 328 385 332
246 13 326 328 385 332
247 13 112 92 93 94
248 13 112 92 93 38
249 13 112 92 94 38
250 14 93 92 94 38
251 29 372 155 153 109
252 25 255 217 424 220
253 25 218 425 374 426
254 25 371 188 216 184
255 25 423 421 462 420
256 6 108 504 501 506
257 6 108 504 501 582
258 4 108 504 506 582
259 17 506 504 582 501
260 6 368 367 369 365
261 6 368 367 369 364
262 4 368 367 365 364
263 17 365 367 364 369
264 27 577 575 453 573
265 3 328 383 512 381
266 3 328 383 512 389
267 3 328 383 381 389
268 14 512 383 381 389
269 19 372 368 367 370
270 18 372 368 367 366
271 20 372 368 370 366
272 20 367 368 370 366
273 12 424 219 218 221
274 12 424 219 218 427
275 13 424 219 221 427
276 13 218 219 221 427
277 3 89 85 110 83
278 3 89 85 110 87
279 3 89 85 83 87
280 14 110 85 83 87
281 25 469 470 585 468
282 25 470 585 516 584
283 24 515 516 333 585
284 27 470 469 331 467
285 25 333 331 469 330
286 25 475 477 479 562
287 24 515 475 477 478
288 12 516 515 475 513
289 12 516 515 475 514
290 13 516 515 513 514
291 13 475 515 513 514
292 25 516 333 331 272
293 25 480 478 475 476
294 24 229 233 235 232
295 3 345 403 401 407
296 3 345 403 401 399
297 3 345 403 407 399
298 14 401 403 407 399
299 22 523 521 520 519
300 21 523 521 520 525
301 23 523 521 519 525
302 23 520 521 519 525
303 25 60 190 186 192
304 8 521 523 522 519
305 8 521 523 526 519
306 16 522 523 526 519
307 7 521 523 522 526
308 12 186 187 185 189
309 12 186 187 185 183
310 13 186 187 189 183
311 13 185 187 189 183
312 12 233 229 231 228
313 12 233 229 231 226
314 13 233 229 228 226
315 13 231 229 228 226
316 19 41 43 168 39
317 18 41 43 168 170
318 20 41 43 39 170
319 20 168 43 39 170
320 6 43 168 169 172
321 6 43 168 169 167
322 4 43 168 172 167
323 17 172 168 167 169
324 25 347 344 349 341
325 25 477 479 482 563
326 25 580 456 453 457
327 11 521 520 358 518
328 11 521 520 358 524
329 7 521 520 518 524
330 17 518 520 524 358
331 25 482 480 478 481
332 24 187 186 182 190
333 2 403 345 346 349
334 2 403 345 340 349
335 13 349 345 346 340
336 3 403 345 346 340
337 1 162 165 347 164
338 1 162 165 347 166
339 3 162 165 164 166
340 13 347 165 164 166
341 25 58 60 190 61
342 24 165 347 344 351
343 25 174 176 124 120
344 3 165 162 160 161
345 3 165 162 160 159
346 3 165 162 161 159
347 14 160 162 161 159
348 24 345 349 354 344
349 25 233 235 239 236
350 8 312 311 308 313
351 8 312 311 314 313
352 16 308 311 314 313
353 7 312 311 308 314
354 25 348 352 353 290
355 25 128 180 185 179
356 27 480 482 479 484
357 22 311 312 310 313
358 21 311 312 310 315
359 23 311 312 313 315
360 23 310 312 313 315
361 12 417 581 580 460
362 12 417 581 580 549
363 13 417 581 460 549
364 13 580 581 460 549
365 27 350 353 352 358
366 11 312 310 306 309
367 11 312 310 306 377
368 7 312 310 309 377
369 17 309 310 377 306
370 25 235 239 238 240
371 10 490 492 486 493
372 10 490 492 486 494
373 7 490 492 493 494
374 16 493 492 494 486
375 11 211 208 413 206
376 11 211 208 413 209
377 7 211 208 206 209
378 17 206 208 209 413
379 9 490 487 485 484
380 9 490 487 491 484
381 17 485 487 491 484
382 7 490 487 485 491
383 25 415 418 417 419
384 27 415 414 412 413
385 24 581 417 455 418
386 25 414 415 418 416
387 25 417 455 412 454
388 25 455 412 414 411
389 22 487 490 492 486
390 21 487 490 492 488
391 23 487 490 486 488
392 23 492 490 486 488
393 22 210 211 208 213
394 21 210 211 208 214
395 23 210 211 213 214
396 23 208 211 213 214
397 11 123 121 241 119
398 11 123 121 241 122
399 7 123 121 119 122
400 17 119 121 122 241
401 27 234 238 239 241
402 24 581 580 456 578
403 8 211 210 207 213
404 8 211 210 212 213
405 16 207 210 212 213
406 7 211 210 207 212
407 25 353 350 343 517
408 22 294 123 121 291
409 21 294 123 121 292
410 23 294 123 291 292
411 23 121 123 291 292
412 25 238 234 232 118
413 25 577 578 580 579
414 25 234 232 233 230
415 11 472 473 467 471
416 11 472 473 467 443
417 7 472 473 471 443
418 17 471 473 443 467
419 24 31 30 33 23
420 2 510 319 316 321
421 2 510 319 465 321
422 13 321 319 316 465
423 3 510 319 316 465
424 19 244 247 252 243
425 18 244 247 252 246
426 20 244 247 243 246
427 20 252 247 243 246
428 10 405 544 543 548
429 10 405 544 543 541
430 7 405 544 548 541
431 16 548 544 541 543
432 11 79 55 59 54
433 11 79 55 59 52
434 7 79 55 54 52
435 17 54 55 52 59
436 22 78 79 55 77
437 21 78 79 55 81
438 23 78 79 77 81
439 23 55 79 77 81
440 22 406 405 544 543
441 21 406 405 544 538
442 23 406 405 543 538
443 23 544 405 543 538
444 24 229 231 201 445
445 27 60 58 181 59
446 25 186 182 181 178
447 25 182 181 58 51
448 25 397 445 231 444
449 8 79 78 80 77
450 8 79 78 76 77
451 16 80 78 76 77
452 7 79 78 80 76
453 25 201 404 400 409
454 9 405 406 410 402
455 9 405 406 408 402
456 17 410 406 408 402
457 7 405 406 410 408
458 3 319 510 583 509
459 3 319 510 583 511
460 3 319 510 509 511
461 14 583 510 509 511
462 27 397 400 404 402
463 25 400 397 445 396
464 25 231 201 404 237
465 25 149 25 29 27
466 6 86 561 558 90
467 6 86 561 558 537
468 4 86 561 90 537
469 17 90 561 537 558
470 8 197 196 198 199
471 8 197 196 194 199
472 16 198 196 194 199
473 7 197 196 198 194
474 25 146 149 25 147
475 24 31 29 24 25
476 25 29 24 148 28
477 5 86 84 82 317
478 5 86 84 552 317
479 15 82 84 552 317
480 4 86 84 82 552
481 24 89 111 268 91
482 22 196 197 195 199
483 21 196 197 195 200
484 23 196 197 199 200
485 23 195 197 199 200
486 25 553 554 556 551
487 27 498 500 503 501
488 27 301 304 305 306
489 25 439 393 442 395
490 25 302 305 304 307
491 1 85 89 111 225
492 1 85 89 111 62
493 3 85 89 225 62
494 13 111 89 225 62
495 25 500 498 497 496
496 25 556 560 557 536
497 24 434 555 553 557
498 25 499 502 503 463
499 25 304 301 298 300
500 12 299 295 499 293
501 12 299 295 499 458
502 13 299 295 293 458
503 13 499 295 293 458
504 2 263 262 261 267
505 2 263 262 260 267
506 13 267 262 261 260
507 3 263 262 261 260
508 25 498 497 499 495
509 25 436 439 393 441
510 25 111 268 267 266
511 25 299 302 305 303
512 25 502 503 500 505
513 24 295 299 302 298
514 25 555 553 554 550
515 12 436 434 555 431
516 12 436 434 555 429
517 13 436 434 431 429
518 13 555 434 431 429
519 24 262 267 109 268
520 27 560 556 554 558
521 25 560 557 555 440
522 3 262 263 264 259
523 3 262 263 264 265
524 3 262 263 259 265
525 14 264 263 259 265
526 12 30 31 29 35
527 12 30 31 29 34
528 13 30 31 35 34
529 13 29 31 35 34
530 24 434 436 439 435
531 11 197 195 394 163
532 11 197 195 394 398
533 7 197 195 163 398
534 17 163 195 398 394
535 25 442 438 435 437
536 27 438 442 393 394
537 25 301 298 299 296
538 24 295 499 502 497
539 25 438 435 436 433
540 24 187 185 136 180
