LAMMPS data file, united-atom PE chain, timestep = 1000

30 atoms
2 atom types
27 bonds
1 bond types

0.0 50.0 xlo xhi
-10.0 10.0 ylo yhi
-10.0 10.0 zlo zhi

Masses

1 14.027
2 15.035

Atoms # full

1 1 2 0.0 2.0000 0.8612 0.0000 0 0 0
2 1 1 0.0 3.2767 0.0000 0.0000 0 0 0
3 1 1 0.0 4.5534 0.8612 0.0000 0 0 0
4 1 1 0.0 5.8302 0.0000 0.0000 0 0 0
5 1 1 0.0 7.1069 0.8612 0.0000 0 0 0
6 1 1 0.0 8.3836 0.0000 0.0000 0 0 0
7 1 1 0.0 9.6603 0.8612 0.0000 0 0 0
8 1 1 0.0 10.9370 0.0000 0.0000 0 0 0
9 1 1 0.0 12.2137 0.8612 0.0000 0 0 0
10 1 1 0.0 13.4905 0.0000 0.0000 0 0 0
11 1 1 0.0 14.7672 0.8612 0.0000 0 0 0
12 1 1 0.0 16.0439 0.0000 0.0000 0 0 0
13 1 1 0.0 17.3206 0.8612 0.0000 0 0 0
14 1 1 0.0 18.5973 0.0000 0.0000 0 0 0
15 1 1 0.0 19.8741 0.8612 0.0000 0 0 0
16 1 1 0.0 21.1508 0.0000 0.0000 0 0 0
17 1 1 0.0 22.4275 0.8612 0.0000 0 0 0
18 1 1 0.0 23.7042 0.0000 0.0000 0 0 0
19 1 1 0.0 24.9809 0.8612 0.0000 0 0 0
20 1 1 0.0 26.2576 0.0000 0.0000 0 0 0
21 1 1 0.0 27.5344 0.8612 0.0000 0 0 0
22 1 1 0.0 28.8111 0.0000 0.0000 0 0 0
23 1 1 0.0 30.0878 0.8612 0.0000 0 0 0
24 1 1 0.0 31.3645 0.0000 0.0000 0 0 0
25 1 1 0.0 32.6412 0.8612 0.0000 0 0 0
26 1 1 0.0 33.9179 0.0000 0.0000 0 0 0
27 1 1 0.0 35.1947 0.8612 0.0000 0 0 0
28 1 1 0.0 36.4714 0.0000 0.0000 0 0 0
29 1 1 0.0 37.7481 0.8612 0.0000 0 0 0
30 1 2 0.0 39.0248 0.0000 0.0000 0 0 0

Bonds

1 1 1 2
2 1 2 3
3 1 3 4
4 1 4 5
5 1 5 6
6 1 6 7
7 1 7 8
8 1 9 10
9 1 10 11
10 1 11 12
11 1 12 13
12 1 13 14
13 1 14 15
14 1 15 16
15 1 16 17
16 1 17 18
17 1 18 19
18 1 19 20
19 1 20 21
20 1 22 23
21 1 23 24
22 1 24 25
23 1 25 26
24 1 26 27
25 1 27 28
26 1 28 29
27 1 29 30
